ITEM: TIMESTEP
8400
ITEM: NUMBER OF ATOMS
4360
ITEM: BOX BOUNDS pp pp pp
-2.4387017695882086e+01 2.3577853595941292e+01
-2.4470716796080573e+01 4.6987152396080567e+01
-2.3986535510219774e+01 2.3978333910278749e+01
ITEM: ATOMS id type x y z vx vy vz
555 1 -13.7056 -12.2257 -2.86746 -2.11456 3.88458 -2.49231
15 1 -3.96966 2.39262 -12.8661 -0.130251 3.16497 -2.14581
22 1 -12.267 0.110932 -16.6154 -1.76497 -0.798164 0.118358
1011 1 -17.2328 2.59605 -0.15905 -2.41299 5.1517 7.74626
29 1 -5.83771 -9.83495 -7.61525 -3.85431 1.19741 -5.5874
37 1 -11.7994 -8.18636 -3.16734 2.1975 0.131052 2.04798
3378 1 -3.89502 -17.8935 -1.17993 -2.39912 1.57432 -1.55874
44 1 -2.78766 -16.5442 -5.73936 -0.596934 0.684907 0.378541
54 1 -17.7332 -12.8358 -11.0497 1.13917 -0.37645 2.78729
55 1 -5.02212 -7.41225 -12.9495 1.3211 5.58169 -3.66342
57 1 -15.2914 -10.3348 -4.64863 -1.24335 6.50443 -2.81804
66 1 -11.6966 -17.5196 -15.0816 0.0863794 -1.10854 1.75923
75 1 -18.0326 3.73958 -10.0556 0.262335 0.0629937 5.20149
1264 1 -23.7149 -11.6044 -3.4077 0.876692 -2.15923 -3.3076
97 1 -6.34835 -13.8214 -20.1454 -0.753788 -4.98772 -1.33037
3038 1 -19.7084 -23.4817 -17.036 -6.43491 -1.00817 -3.23491
1307 1 -16.3903 -21.7595 -5.42769 2.28648 -0.516737 4.19912
112 1 -15.3985 0.760585 -20.0549 4.86769 -10.4628 1.0618
126 1 -9.17166 -2.25556 -7.86462 -0.0926409 7.64307 1.0644
128 1 -18.1702 -1.3157 -8.5426 -1.10173 -2.02385 5.75086
132 1 -8.69815 -4.64764 -21.5655 -1.17164 4.30527 -0.997358
135 1 -15.7606 -5.3631 -20.7133 -4.00459 1.36978 -0.109639
2405 1 -3.41086 -11.5941 -23.1711 -3.92779 -5.2385 -0.750918
137 1 -9.69967 5.16527 -14.3503 -2.2406 2.39573 1.66304
139 1 -18.018 -18.3192 -15.7358 -2.2678 -0.42549 -3.55129
143 1 -4.45888 -2.57456 -5.19231 -0.0899288 -1.63031 -4.02267
1550 1 -2.58651 -7.27821 -11.1998 -2.28299 -0.76558 0.285741
149 1 -17.7143 -22.3799 -18.348 0.157335 0.575481 -0.0149295
160 1 -7.4206 -15.1792 -2.34484 4.33536 -0.457722 3.36084
167 1 -13.307 1.83432 -2.0112 -1.67721 3.12507 3.7055
170 1 -5.72788 -13.7839 -13.2223 -2.97627 2.50799 4.183
174 1 -13.2523 5.65366 -20.3637 -1.16157 -0.592174 -1.39454
179 1 -6.95517 -7.90075 -10.8312 2.30656 -0.239967 -5.15642
181 1 -1.58001 -0.344165 -18.7297 5.60214 -0.215303 -3.51667
187 1 -11.4901 9.46999 -7.74225 3.81116 -2.62651 -1.93712
2596 1 -14.2609 10.6534 -19.4281 -1.81217 -4.13264 4.48068
198 1 -8.15843 -22.0602 -19.4895 6.46334 -4.59678 -1.4083
1302 1 -6.02316 -5.5932 -21.5788 3.45663 -1.60391 -0.0455913
204 1 -7.45291 -14.4466 -8.07445 0.900746 -5.29035 -1.1996
206 1 -5.44738 -17.5587 -20.1459 1.3945 3.7513 -1.1126
3741 1 -19.2105 10.6575 -3.35395 -0.336544 -0.071246 0.0920166
213 1 -21.2031 -20.1306 -2.71636 3.6707 -0.315959 -0.00284441
221 1 -15.2746 3.76666 -1.71704 -1.3049 -6.21269 2.11573
1840 1 -20.5011 -13.3141 -0.671932 1.96113 -1.91373 -2.43871
235 1 -22.6409 -1.74267 -7.6822 -1.92143 -4.26667 -2.50241
242 1 -7.50307 -5.09905 -11.1398 -5.09162 1.48194 1.43767
248 1 -16.9183 4.98733 -12.5353 6.03336 -0.511118 -1.40538
251 1 -20.1902 -0.218513 -23.1153 3.04207 -0.668743 4.52857
253 1 -4.85066 -3.23095 -20.0647 -3.81213 -0.00563126 1.71354
256 1 -10.3761 -6.19928 -10.538 -0.0473969 -3.01743 3.17847
2223 1 -18.6546 10.2881 -21.9641 0.851356 3.29794 1.86634
258 1 -6.48849 -0.91999 -8.25032 4.51817 -2.52781 1.82974
263 1 -21.7823 8.67648 -6.46005 -2.84645 2.92 -2.99379
269 1 -19.1312 -6.58307 -16.6678 0.392553 2.30885 -0.755472
1804 1 -3.0452 -23.9701 -12.7877 2.54676 1.404 -0.280227
280 1 -2.15048 -20.3805 -10.383 2.16544 -0.952107 4.75453
283 1 -2.58826 -23.7509 -20.0564 -3.56926 -0.416906 4.28909
290 1 -3.54707 -14.401 -16.4471 -3.92883 6.74539 -4.94075
3855 1 -1.81103 -7.48113 -23.4202 -0.165275 -0.103233 -0.822742
303 1 -21.8979 -18.8708 -7.18404 0.199172 -0.128451 2.93905
312 1 -7.81192 2.75844 -6.73508 5.32177 -3.43299 4.01807
313 1 -16.6548 -17.0512 -13.3959 -0.7643 1.6038 3.24162
314 1 -13.6838 4.45032 -8.32688 0.77789 -2.21183 -3.23814
63 1 -2.01623 11.0942 -18.1556 1.49767 -0.67676 0.042035
321 1 -19.6131 -13.3782 -14.9382 3.00094 -1.01474 1.06265
1698 1 -12.751 10.7869 -2.07575 0.665633 -0.472077 -2.85258
339 1 -3.82761 -14.9408 -20.9372 4.17967 3.50235 -0.715683
340 1 -14.6183 3.56757 -16.4702 -0.869702 2.23912 3.4466
341 1 -10.2801 2.81771 -13.0017 3.7567 -2.87632 1.23626
1634 1 -17.2963 -9.32422 -22.5298 -2.37739 -4.37496 3.79518
343 1 -3.47503 -13.652 -5.21346 -4.50435 0.305422 -2.34851
356 1 -1.66016 -21.0606 -20.1607 1.30773 0.155001 -2.97155
359 1 -15.2968 -21.3749 -10.982 0.628396 0.726782 3.6609
3196 1 -2.18961 -0.792161 -2.82745 0.0178646 -0.318198 2.78415
364 1 -10.8076 3.45323 -8.89511 3.32777 -1.84689 -2.15931
366 1 -22.935 1.21607 -8.36077 -4.13224 -0.382149 3.86443
376 1 -1.50694 -15.1735 -14.6143 -1.86191 -0.349857 -0.252691
471 1 -23.3185 -9.23049 -15.4021 -0.105873 3.53732 -1.70415
393 1 -11.5404 -19.8815 -9.10614 1.07054 -1.11859 -1.69896
222 1 -11.5776 -5.80088 -1.61407 -1.40263 -1.14386 2.63449
847 1 -12.6405 -24.2262 -12.6448 -0.305113 5.9215 2.50175
191 1 -2.76836 -5.41515 -19.9301 -0.709921 -0.730181 2.50509
970 1 -3.02002 -22.7585 -6.43037 2.35742 -1.07591 1.55857
415 1 -16.4073 5.70876 -8.10058 3.59084 0.877735 -1.32256
3688 1 -9.86093 -22.9629 -0.168114 -4.36134 2.29251 2.43075
426 1 -15.9762 -3.18293 -9.41377 2.79448 -0.220589 1.31652
429 1 -6.11105 8.48111 -12.135 3.60328 -1.45081 0.112603
433 1 -18.5859 2.45533 -16.9695 0.258368 1.49184 3.01063
434 1 -11.5363 -1.8822 -12.175 -4.00086 -1.05285 -3.47055
436 1 -15.3738 -8.20891 -11.9317 -0.739458 0.238805 -0.805848
438 1 -18.8904 7.06321 -3.62058 -1.95355 2.75774 2.08982
2370 1 -23.9553 -10.9901 -7.94522 1.5062 0.782923 0.201525
454 1 -6.53003 -3.1175 -14.4966 -4.02653 -1.29109 -4.21928
470 1 -19.9023 6.03423 -9.98822 3.31383 2.65195 -0.605195
476 1 -13.3163 -4.78227 -3.76459 1.7931 -0.735275 -5.42446
477 1 -13.1967 -10.5259 -14.411 -4.70743 -3.64567 0.444713
2726 1 -10.8977 -8.21327 -23.8303 -2.26578 1.55979 -3.6206
492 1 -12.04 -17.0629 -10.0353 3.17606 2.34523 0.4397
1663 1 -15.6139 -2.2467 -1.33524 0.686961 -0.0394194 3.57852
1941 1 -0.625566 -24.1043 -11.6068 -3.88173 0.382174 -1.42539
501 1 -14.0471 -12.3348 -8.43938 -0.816181 -4.68533 -2.60783
1892 1 -1.92122 -14.6634 -18.5971 1.17679 -0.359151 -4.33037
2835 1 -5.67534 4.55067 -1.73457 -6.78743 2.72106 1.87137
517 1 -13.669 -3.31862 -22.1533 -4.96371 0.635981 0.860146
519 1 -20.8913 -14.682 -7.84608 -4.40278 -2.18081 -9.63669
520 1 -3.93066 -22.6243 -10.6796 -0.0636487 3.94549 2.04536
523 1 -11.0657 -14.3008 -9.14477 2.66118 -1.84019 0.297219
525 1 -6.52076 -0.783839 -3.74144 -1.86614 0.914657 -3.90888
532 1 -9.99142 -0.0951062 -3.78053 -4.4883 2.21756 5.50792
544 1 -4.81053 -20.0703 -18.63 -4.92588 0.105746 -3.20162
546 1 -6.00713 -11.2577 -14.4296 -3.98878 0.104141 1.64067
1467 1 -23.6838 -16.0532 -17.7312 -3.3631 0.231639 -0.0282823
575 1 -15.404 4.6552 -4.3888 -1.56843 -0.458 2.61299
580 1 -4.2344 4.20661 -22.504 -0.747657 1.64616 3.83565
582 1 -6.15063 -16.7357 -17.5416 -0.0843487 -0.538197 -2.10661
199 1 -24.358 -2.55644 -10.0084 1.80306 -0.74956 -4.23677
2523 1 -15.7589 -23.8646 -19.4377 -5.53159 0.480429 -0.776571
2130 1 -23.9234 7.80195 -8.24035 0.268492 -0.871961 -3.48272
603 1 -6.78942 6.9623 -3.48174 -5.0762 -0.45625 -1.55591
611 1 -2.98957 -9.46016 -6.541 -1.58378 2.45932 1.7419
614 1 -17.3666 -10.9254 -6.428 -5.08967 -10.3479 -3.41182
624 1 -6.83674 2.76436 -21.5216 5.06207 2.72216 -1.03413
626 1 -2.90733 4.10675 -19.7839 0.718752 1.18766 3.4706
361 1 -23.9243 -20.3988 -3.87549 0.0398901 0.31959 1.68673
3231 1 -16.6033 -16.2831 -0.462178 -2.37426 -0.646653 -0.334757
636 1 -20.8898 2.63209 -18.6068 -2.4931 -0.643665 0.362255
2727 1 -12.5121 -18.8064 -1.21948 -0.38921 -5.28002 -1.30219
639 1 -10.6986 -18.4714 -20.622 1.99707 -2.29593 2.03998
645 1 -10.7227 -8.48656 -18.8091 3.05167 1.60776 0.422034
651 1 -22.6548 5.35546 -10.1263 -4.81519 2.68128 1.67266
652 1 -5.90969 -3.9163 -17.4001 1.6502 1.69496 -1.08364
2859 1 -22.4697 -21.4298 -20.5535 5.83117 7.2017 1.1655
654 1 -8.54183 -0.0522327 -18.7125 0.189359 1.88926 -0.95332
655 1 -3.54817 -12.3711 -11.4445 0.401647 -2.86257 2.23205
661 1 -18.9237 -5.37833 -20.7357 1.34872 -0.928283 0.360795
663 1 -14.4681 -19.6715 -8.88275 -0.34326 -3.07045 -1.44113
666 1 -8.15286 -8.11174 -8.10001 -0.996214 -2.80502 2.12907
1156 1 -16.4722 -13.1792 -23.7813 -2.13798 2.92238 0.166896
1041 1 -1.32827 7.06998 -15.5127 -3.98815 -1.18176 -1.44191
674 1 -10.1185 2.11629 -19.5795 -0.999548 -1.4272 -6.44499
675 1 -22.0296 -12.5057 -9.12757 1.66058 2.09891 -0.915585
2338 1 -2.95329 -3.25623 -16.074 4.78742 -6.76199 3.25613
679 1 -17.4984 2.07413 -6.23011 -2.51359 0.977395 1.73014
2104 1 -21.4894 -7.44108 -23.176 -3.66662 0.865205 1.42284
688 1 -11.5263 -12.9846 -14.101 -1.94059 -4.7351 0.439099
2995 1 -4.60925 9.63405 -8.17089 -2.41285 2.45434 2.21199
709 1 -7.85864 -4.9876 -8.22704 3.60176 1.17083 -1.49125
711 1 -15.5848 -6.25218 -15.2819 -0.660826 -2.61693 -1.15422
717 1 -13.1678 -4.07592 -13.3258 -0.85007 -2.80514 -5.28204
721 1 -8.00395 -9.74854 -12.9512 3.72715 -1.06272 -0.731824
741 1 -17.9226 -21.3304 -11.3543 4.1896 -2.35424 0.299427
1024 1 -3.28326 9.50604 -23.7936 1.19064 3.21938 -2.38653
756 1 -4.69079 -2.37559 -2.11823 0.121027 0.732958 -3.84047
761 1 -9.61233 -12.7487 -7.24701 0.625178 2.61276 3.02623
780 1 -7.8188 -8.42718 -18.4147 -1.49468 -0.437628 -3.81113
796 1 -11.0282 -9.89199 -16.1001 1.25953 2.08954 -2.88224
798 1 -15.3498 0.823025 -7.5024 3.40219 3.79268 2.30989
808 1 -1.14968 -18.1387 -8.82024 -3.60242 -0.371789 -0.528283
810 1 -21.1484 -13.1327 -3.58707 3.17262 4.99367 3.05301
811 1 -11.1452 -7.92477 -8.47121 -0.288811 2.911 -3.98789
2161 1 -0.999404 11.2135 -5.44913 -2.34114 2.21784 2.03994
1354 1 -3.0218 -6.18378 -16.0265 -2.78605 2.85047 0.910146
1475 1 -22.8851 -23.3688 -4.61923 -0.799755 -0.270603 1.79027
826 1 -9.90002 5.52789 -1.21205 -1.98339 -4.08056 -2.56965
833 1 -9.46112 -4.34452 -5.81567 1.15692 1.59943 -1.11598
837 1 -21.5563 -16.109 -3.54846 -1.5949 2.57014 2.23014
190 1 -17.0779 10.3471 -11.8771 -1.00845 -1.53325 2.06646
3803 1 -18.0806 -2.2408 -23.681 7.21469 -1.2435 2.87603
856 1 -20.3761 -2.87953 -9.03308 -0.924534 -0.56648 3.27354
3989 1 -17.6382 -10.1716 -14.3407 4.38092 -2.48728 -3.29137
872 1 -3.39155 -10.1901 -18.89 1.06379 -3.17918 1.53894
2812 1 -9.31443 -0.912125 -22.82 -0.46391 -1.10661 4.49282
882 1 -12.254 -1.80286 -4.17446 4.61129 -3.21361 -2.71
885 1 -3.04562 -19.1248 -4.94267 -3.45365 -4.87451 -6.17513
1796 1 -19.642 -11.083 -22.6674 -2.0028 1.2044 -2.54869
900 1 -11.9182 -15.5899 -12.8522 -4.41216 -2.98483 -2.47564
904 1 -9.83298 -6.98024 -4.73286 -5.04925 -6.79107 2.90153
907 1 -15.3512 2.64247 -10.0368 -7.40213 -3.82992 -0.240929
910 1 -10.4114 5.16538 -4.19493 0.0362345 1.33871 -1.29345
922 1 -9.3341 3.92716 -17.318 -2.13522 -0.198798 0.529956
2466 1 -1.09089 4.04732 -4.75766 5.43052 -4.15685 -2.65073
930 1 -21.2182 -18.8281 -12.478 1.57048 -2.24586 0.620449
939 1 -8.22777 -14.3164 -14.9778 -1.64026 -1.25523 3.40627
942 1 -6.26647 -13.7904 -17.2239 -0.88879 -1.7173 -2.17222
948 1 -20.0476 6.43203 -7.02834 0.853009 3.74137 2.05343
1387 1 -18.3151 -2.00405 -2.57153 4.59665 -3.04242 0.98383
956 1 -13.7478 -4.86799 -8.82417 -0.121975 3.95562 -2.09077
962 1 -5.43194 7.23092 -7.00411 -0.556817 3.64012 -1.24193
2406 1 -24.2097 10.2082 -9.70277 2.34508 -2.381 -4.14992
1369 1 -24.3374 1.77402 -6.00404 1.6151 -1.32729 4.29124
2396 1 -14.0952 -21.0966 -0.680665 -0.599505 0.433884 -2.20094
1001 1 -20.5937 -5.18708 -7.49687 -1.56381 -4.34457 3.91631
1010 1 -14.0317 4.35275 -12.2094 -4.14349 0.619091 0.728449
653 1 -24.1859 -18.1292 -12.9629 3.3691 0.460083 -3.35305
1022 1 -8.91129 -22.5117 -10.3688 3.11822 -1.15154 0.618568
342 1 -1.56959 -16.1994 -11.1447 1.46683 -1.35273 0.0576623
1028 1 -6.11939 -10.6721 -10.3294 7.89296 0.129002 6.08338
2141 1 -21.15 -23.5063 -0.661505 -3.12976 -2.59909 4.75552
1031 1 -2.12318 -12.4089 -1.93571 -0.390741 1.06771 2.00469
2799 1 -2.30051 -15.2853 -8.29339 -2.94691 2.42504 -4.97112
1268 1 -23.1852 -10.2582 -18.4123 -0.729582 4.72549 0.382952
2494 1 -12.8252 -17.0641 -23.2164 2.30819 2.20942 3.49601
1052 1 -19.7825 -2.15725 -19.4073 1.84669 2.84136 -3.77316
1057 1 -5.65698 -16.2151 -14.7292 -5.22623 5.65636 -1.42012
1080 1 -19.2713 -8.80885 -9.29106 -0.685123 3.586 -2.13632
1082 1 -17.8915 -18.2487 -5.44492 0.246614 -0.529769 0.379774
1084 1 -4.69046 -15.6262 -3.62847 5.91032 0.310813 0.831793
1085 1 -10.3533 -15.1086 -5.32125 0.808961 -3.80589 3.66804
1086 1 -8.83622 8.19161 -1.31656 -5.4317 2.63916 0.267486
1090 1 -21.9269 -21.1307 -11.1097 2.99253 1.35968 0.556746
1092 1 -20.525 -18.461 -4.8245 4.34869 1.42564 1.73655
1399 1 -0.923183 -23.3113 -1.86235 1.3344 -2.21249 3.94839
257 1 -3.26356 7.15019 -22.1427 -0.544325 -4.75964 -2.18796
3977 1 -8.6383 -20.525 -17.2125 -3.9143 0.336716 -1.46002
1136 1 -18.5012 -20.7857 -20.6658 -1.84585 2.42685 0.869519
1160 1 -8.92182 5.11063 -10.1412 -1.97777 -5.06551 -7.10534
1512 1 -12.0826 -10.3751 -1.27057 -1.71477 -1.47624 -1.29962
1172 1 -21.6394 -14.9365 -16.0627 0.204508 2.27549 1.71491
1174 1 -22.4709 -19.707 -16.5006 4.72708 2.16955 -9.20655
499 1 -20.8858 4.09854 -5.94824 0.686288 -2.4474 -2.46802
1191 1 -4.22286 -1.27597 -18.0979 1.31529 -3.03876 6.08595
1192 1 -15.811 -0.383877 -10.1405 2.91961 0.288424 3.0999
1199 1 -12.6745 5.27687 -14.7186 0.173565 -1.91677 -0.99243
1202 1 -14.3037 -1.58998 -6.0791 3.76507 -1.34749 -3.73482
1203 1 -16.8171 -10.2486 -16.8535 -5.90074 1.39312 -0.449431
678 1 -18.394 -7.64113 -0.957195 1.62699 -1.58437 -5.16885
1230 1 -16.0875 -15.5737 -8.46217 0.585744 1.39051 2.18363
1231 1 -20.0461 -11.0889 -10.7179 -1.55368 -0.843397 -1.53945
3066 1 -24.3369 -2.72002 -1.26093 -2.52737 2.98216 1.09215
1245 1 -17.1562 7.96189 -20.5583 -1.28154 -0.181235 6.54397
1247 1 -3.44105 1.11701 -10.2556 3.52906 -5.6177 3.66484
1257 1 -5.13537 -23.0742 -8.03352 -3.26365 5.21941 -1.89879
1263 1 -14.6386 -7.615 -3.62771 -2.9767 2.26895 -0.216721
3941 1 -16.3551 2.7202 -23.5917 -4.44451 2.47488 -2.37491
408 1 -0.724333 -2.01611 -14.6893 -3.09463 6.44868 1.96005
1276 1 -5.48252 -11.0294 -21.0411 -0.165991 -3.1764 -1.70866
1286 1 -5.56695 5.71318 -16.7604 -0.269967 2.95877 0.311602
1299 1 -11.0742 -9.55636 -5.99957 6.87362 -2.1688 3.49984
1582 1 -14.9375 6.54428 -1.41853 1.02136 -2.75686 0.137466
1303 1 -8.19277 -5.82752 -17.0029 -0.188614 -0.361397 2.57918
1434 1 -21.5591 5.38946 -23.1906 -2.53451 -0.413726 1.29908
2267 1 -10.0039 -15.321 -1.24564 4.60388 -4.3218 3.00337
918 1 -3.86061 6.5034 -1.22323 6.07416 -0.292835 1.73429
2236 1 -23.9377 4.30093 -14.432 -3.90297 -3.9919 -0.157066
1315 1 -21.2345 -10.273 -20.5757 -4.00184 1.31025 1.80085
1525 1 -9.25979 -6.69396 -0.262912 0.616708 -1.46997 -4.0453
1324 1 -10.774 -22.7866 -20.6546 -1.75201 -4.68212 0.33853
1326 1 -18.9764 -18.0489 -19.5204 4.2808 -6.30422 0.0883513
1331 1 -19.0002 2.06662 -2.25887 -0.210961 0.0526358 -2.62308
1343 1 -9.0377 -10.6823 -9.01344 -0.238951 4.97821 2.68867
1345 1 -19.0221 1.42851 -20.9989 -0.657927 0.70394 -0.309913
1347 1 -16.2753 -10.5264 -19.9359 -1.64931 -1.14592 -1.67342
1350 1 -14.7018 -0.438198 -3.07742 0.779286 -0.706523 -3.14197
1356 1 -18.2649 -13.7697 -3.70325 -2.76247 2.73255 -4.02207
1357 1 -20.5933 -6.18193 -11.3505 -1.29666 1.66916 -1.39822
1363 1 -14.0706 -12.024 -19.4474 -0.797983 4.43517 -0.818907
1049 1 -23.6051 1.99217 -12.2895 -2.35909 -4.98758 3.4905
3851 1 -4.4412 8.2233 -4.59027 -2.19737 -1.10722 -1.68085
3972 1 -4.61127 -7.1813 -8.95265 -1.62173 2.86154 1.86445
3468 1 -6.4367 -9.78937 -23.7605 0.685263 -1.90228 0.183672
1402 1 -18.2725 -4.25159 -17.9155 -0.458195 0.350008 5.21433
1406 1 -6.4473 2.26876 -14.0859 3.19893 -3.72963 0.25972
294 1 -8.70978 2.31777 -2.57423 2.42265 -3.81255 0.444265
104 1 -14.5565 -23.5948 -8.99003 -2.97973 2.44674 3.86537
1413 1 -13.0515 2.02054 -18.4698 -4.33833 -2.60922 3.23483
1422 1 -14.3497 -18.4907 -14.5466 1.75173 0.345707 -1.16623
1431 1 -7.91316 1.92349 -11.8131 6.58633 -0.939901 1.14194
1433 1 -19.2955 -9.00945 -18.4493 3.82109 0.454108 0.592756
1436 1 -18.216 -2.65081 -15.4012 -0.931943 0.150613 -2.78457
2194 1 -18.9161 6.04462 -21.6307 -2.14679 -0.73033 3.68066
1439 1 -19.2925 9.24007 -10.2555 2.62364 0.368847 6.12393
1442 1 -21.3818 -9.49847 -7.32883 -0.697093 1.84567 1.46851
1450 1 -2.71112 -4.40687 -8.21175 2.42004 1.00942 0.957621
1728 1 -23.8907 -3.5118 -19.2981 3.33776 0.216767 1.30984
3200 1 -24.327 -6.34463 -7.37155 -2.47063 -2.3717 -2.81552
1455 1 -13.7341 -17.7606 -3.59942 -1.11792 3.02969 1.23497
1457 1 -17.4969 3.60657 -21.0562 4.60225 0.516282 0.33939
1459 1 -10.886 -13.2269 -2.99887 -0.655814 1.24747 -0.144904
1460 1 -14.7529 8.45681 -11.2785 0.0300456 0.43792 1.92762
1466 1 -17.4753 -7.51682 -3.97355 3.60648 -1.86974 -0.899887
1471 1 -1.23004 -4.98944 -12.7053 -5.31208 0.732271 -3.43625
2028 1 -1.44064 0.693098 -16.0835 2.7344 -3.49025 0.845015
1487 1 -3.89896 3.35583 -17.3364 5.04401 1.48502 -1.0156
1490 1 -21.7343 7.3089 -3.70536 -0.285969 -2.46812 -0.858947
1493 1 -6.95186 -7.84295 -14.8346 -1.8313 3.84548 2.13139
1494 1 -7.93292 6.33218 -18.0941 0.339836 -5.85764 -1.08478
2015 1 -1.3496 -6.86183 -1.77632 -3.48066 1.5274 -0.630984
2257 1 -1.16691 3.5891 -7.71831 -1.37414 -3.07113 7.68807
1504 1 -3.08398 -23.3012 -3.6218 -3.07232 1.83895 -3.30916
3082 1 -1.16171 1.01282 -23.7229 0.416758 -2.45705 -0.218201
1514 1 -14.7082 -5.96571 -6.31942 1.85921 -2.4417 2.80546
1522 1 -14.837 -1.69707 -16.2787 0.0782963 -1.59645 -4.20561
3354 1 -17.5118 7.71005 -1.16343 1.27611 0.13969 -3.14592
2463 1 -12.305 -22.4054 -23.3351 1.36168 -6.56971 -3.00914
3847 1 -15.96 -14.5583 -15.0792 -1.8486 -2.92855 -2.40054
1554 1 -9.94037 -4.41208 -18.6927 -1.19897 0.027981 0.691399
1555 1 -19.663 -4.05059 -5.00421 -3.69297 4.30112 3.4805
1570 1 -21.59 2.68906 -10.661 -1.52568 2.98465 0.773719
2009 1 -4.90225 2.03425 -0.68818 6.87163 2.22857 1.99489
2468 1 -23.2683 -23.8145 -7.27824 4.28521 1.71561 1.30367
3528 1 -23.9289 -24.3976 -1.05816 -1.57859 0.605493 -0.904025
1589 1 -10.0343 -22.3288 -2.83599 -4.72313 -2.74908 -4.76353
1596 1 -4.14869 -4.54479 -13.4941 3.7679 -7.15951 3.7557
1602 1 -21.117 -13.1374 -19.6095 -2.11091 0.316738 0.396549
40 1 -2.16359 4.41485 -15.3233 -1.97322 -6.9528 4.05634
1615 1 -5.42768 -16.7595 -7.64068 0.0312066 0.845532 -10.8448
1617 1 -14.2516 -13.7484 -12.7887 -1.40473 -0.820016 4.60624
1632 1 -5.97635 9.18705 -22.6068 -0.147485 -6.25091 -1.28767
2922 1 -15.0819 -22.6978 -22.1562 -0.108611 -1.05116 -4.30724
1640 1 -17.6531 -23.6615 -12.8709 3.60186 -0.253676 2.75352
1645 1 -3.21232 -6.63502 -6.40829 -5.28873 -0.0868392 2.53266
1646 1 -20.8843 -7.41699 -20.2628 -3.97577 -0.44521 -2.69103
2725 1 -1.23019 7.36589 -18.5734 -3.44206 -1.57481 5.93487
1649 1 -17.8282 -7.16873 -11.2671 4.00917 -2.3323 0.472991
1662 1 -9.24141 -22.2985 -7.39386 5.94577 0.851334 3.00291
3662 1 -2.77987 -1.72461 -23.8878 -3.29865 1.65473 0.500915
1676 1 -17.3441 0.429307 -3.78143 3.99849 4.77053 -2.80782
2347 1 -13.8128 10.2144 -15.177 3.67694 -4.50702 1.5191
2252 1 -24.2135 -12.2747 -0.722209 -5.0161 -1.15207 3.18198
1688 1 -19.1758 -2.49959 -12.6821 -5.49206 0.355635 0.136427
1694 1 -15.8487 2.95009 -14.1452 -4.35561 2.38208 2.48434
1710 1 -10.3369 -21.9128 -14.2853 1.43387 2.31362 -3.13229
933 1 -17.5116 -21.5266 -23.0657 3.47955 -1.40566 -0.890499
1725 1 -13.5406 7.33614 -16.8204 -0.859547 -0.266167 2.34574
3959 1 -20.3183 -3.19479 -21.94 7.32434 6.54213 7.45414
1789 1 -23.2272 -0.00937426 -3.92404 0.50178 2.1406 -2.52892
1737 1 -18.3157 -1.53976 -5.68872 -3.29511 5.24842 0.183288
1753 1 -22.4209 -14.3895 -21.8101 -2.32505 -2.31019 7.65762
1755 1 -6.94541 -0.632115 -10.9602 -1.08194 0.206182 -7.25727
1760 1 -17.6295 -16.0621 -21.3521 2.97153 0.904046 -1.86083
1778 1 -18.134 -7.4117 -14.1377 -0.746885 4.01033 -0.168534
1782 1 -23.1475 -14.1022 -11.1739 -3.9708 -1.75644 1.78103
1785 1 -8.79124 9.24149 -6.99366 -1.47833 2.31874 1.64064
1786 1 -3.14657 2.23837 -5.88128 -1.10971 1.9847 -2.72172
1680 1 -22.835 -17.2704 -21.4036 -2.79626 0.576208 -1.50825
629 1 -6.3731 10.4127 -9.98298 -1.03271 -2.07791 -3.13396
1801 1 -10.9383 -19.6289 -3.57202 0.0329995 -3.82499 -0.392842
1802 1 -18.7268 -21.9349 -8.61643 -4.24212 -2.08014 1.13263
1171 1 -22.8845 -4.26128 -5.95983 -1.78991 3.01952 -1.76883
1812 1 -12.3035 -5.91106 -18.6142 1.88264 -1.62225 6.56145
1727 1 -24.3691 1.03331 -19.7524 -2.56026 -5.65941 0.260689
1830 1 -16.7312 4.21493 -18.3203 3.78791 0.404286 -4.07744
2949 1 -7.29354 -20.2888 -23.3438 -3.72479 -2.22973 1.15137
1851 1 -6.47187 3.12553 -4.08403 -1.89775 -0.857248 1.98181
1861 1 -14.2238 -21.2207 -15.6873 -1.03104 5.2167 -1.10602
1862 1 -11.1079 -3.48217 -9.8671 1.11657 2.06907 2.39478
1863 1 -5.18104 -12.7602 -7.41231 -2.54129 -6.44398 1.9009
1872 1 -2.77008 -11.835 -8.59969 5.47465 1.03383 -0.353987
1874 1 -7.99921 -16.03 -20.8946 -2.77331 -5.96122 0.24043
3973 1 -11.4108 -20.8027 -6.43523 -0.339317 3.32369 -2.1899
1876 1 -22.2283 8.08633 -18.5798 0.294398 -6.98374 5.312
1879 1 -19.6297 -16.5529 -17.151 2.48323 -0.999303 1.56281
1883 1 -8.94245 -11.1388 -4.84568 0.291538 -4.91924 -1.54545
1888 1 -11.079 -19.3166 -13.0174 -1.2364 1.68622 -3.76685
873 1 -5.28575 -1.49413 -22.4202 -4.44643 1.95233 -0.550846
1959 1 -23.0842 -4.7946 -3.14786 1.40397 2.7669 -7.34382
1901 1 -10.2339 -14.6466 -19.1782 -3.37598 -1.47352 -2.29802
1905 1 -15.5476 8.12271 -6.85503 2.44168 0.57915 0.136575
1918 1 -16.7244 0.133918 -22.5943 -0.639568 -1.18841 -0.0469383
993 1 -22.8154 0.236546 -22.1281 1.4165 -0.380488 -1.20344
2605 1 -16.869 10.3873 -1.74461 0.333995 -1.76977 -6.67723
1930 1 -6.19574 -19.4095 -16.3092 -4.26557 -1.59753 -0.982801
400 1 -23.4034 -16.9677 -1.59833 1.54107 -2.41558 -1.91529
3968 1 -2.64988 6.41647 -3.72659 2.19184 2.16552 0.336956
3945 1 -23.298 -13.0943 -17.7636 -0.917123 -0.19604 -3.50523
1944 1 -20.5002 -22.908 -3.28536 -3.7873 3.70905 0.0906111
1949 1 -7.38373 -8.65781 -5.25103 -1.83925 1.32175 -1.15811
1960 1 -15.0404 -5.03034 -17.94 -2.36823 -1.59538 -2.01674
1966 1 -18.3659 -18.5969 -11.669 -2.64592 -4.38633 -3.32155
1980 1 -20.4411 5.70159 -19.2813 2.85998 -5.11601 -5.43919
2574 1 -20.0781 -24.2838 -7.65106 -2.41297 2.62404 -1.36486
2001 1 -7.81234 -9.4515 -0.798276 2.13365 3.18867 2.60527
3540 1 -4.05265 11.2011 -5.4537 5.77869 -3.42505 -2.09579
3877 1 -22.5944 2.83595 -3.71031 -1.18478 -1.21489 -3.61249
2016 1 -7.08967 -15.6675 -5.42845 -0.0634019 3.06606 3.37265
2031 1 -6.62255 -22.2643 -11.8652 4.59667 2.66904 2.8909
2034 1 -10.1543 -1.88473 -17.1872 -5.27926 0.736384 2.34753
2036 1 -12.9382 6.18963 -23.2625 2.22557 -3.78492 1.07484
2040 1 -5.38813 -22.3108 -2.86328 -0.418917 -1.92739 -1.6968
2050 1 -12.9576 6.36733 -10.6013 -1.14469 1.90713 -4.96259
2051 1 -21.6691 9.80927 -2.5129 3.14862 -3.32408 2.24504
2052 1 -9.16721 4.43721 -21.2897 -1.82494 4.94359 3.24376
2060 1 -8.33486 -0.0202739 -6.04109 0.568908 -2.70464 0.338306
3614 1 -0.760227 -5.97296 -4.46268 0.739882 -1.37813 -1.71542
2063 1 -8.86205 -12.3137 -19.678 -0.474717 5.98505 -6.19379
2068 1 -14.2343 7.38617 -4.22654 3.8184 1.23338 0.3396
3994 1 -14.1488 -20.0608 -21.2209 5.48155 -5.20947 0.496517
2073 1 -17.5382 7.07484 -14.4431 2.74584 -1.66767 -0.538548
2078 1 -12.2825 1.85604 -23.036 2.93131 1.66704 1.98282
1962 1 -0.981935 -12.0183 -4.71462 -3.46846 -1.15654 -1.47959
2085 1 -21.5645 -21.5032 -8.46977 1.05196 -3.29191 -1.68468
2087 1 -8.87786 7.5129 -15.773 -0.911733 -1.05146 -0.591941
2098 1 -11.9063 -17.8821 -5.96857 -0.799928 -0.928718 1.68117
2106 1 -20.2796 -16.5745 -22.7726 -3.39938 0.754518 -1.80134
2107 1 -6.4955 5.66531 -11.657 -2.66079 0.703898 4.90001
2118 1 -11.9104 -1.06068 -7.92424 3.23717 0.269155 -0.635641
2128 1 -17.0909 -19.0862 -1.14228 -1.00605 4.70646 -3.79117
542 1 -23.5166 6.80031 -1.58253 -0.589578 -3.32376 3.25404
2139 1 -8.25536 1.56007 -16.3162 3.03714 0.356973 -2.57037
1897 1 -12.3625 -23.2297 -4.30386 -2.12448 3.53391 -0.226175
2167 1 -14.7057 -12.4204 -16.4568 -4.647 -1.52583 -1.74803
27 1 -21.4271 5.31515 -0.339427 1.68394 2.73989 -4.40894
2195 1 -8.6442 -19.4328 -9.39056 -1.90422 -0.700064 -1.02582
2196 1 -2.09277 7.77985 -12.7598 -4.34382 -2.68544 0.965088
2936 1 -23.4266 10.6092 -4.64868 -1.92337 3.60882 6.2869
2206 1 -3.6001 -10.0494 -13.2777 -0.429388 3.60959 -1.43587
2207 1 -23.2521 -8.26554 -5.43893 3.89791 3.61966 -0.624822
2211 1 -15.3455 6.63985 -18.6682 -4.02992 0.517495 0.522362
2212 1 -17.8325 -6.06946 -6.60732 2.64133 -1.36455 -1.518
2228 1 -8.21113 -10.0859 -21.4034 1.60331 -3.61335 -0.972604
2233 1 -10.248 0.585685 -14.5931 8.18029 -1.02622 -2.65264
2234 1 -4.75693 4.69987 -5.73047 -5.08669 -0.184758 -0.630323
2241 1 -22.073 -1.90418 -18.0744 -3.05338 -2.18083 2.61911
1648 1 -17.5628 -12.8729 -21.1978 1.50248 2.66853 0.463134
2251 1 -13.1394 -6.25647 -11.5199 2.76299 2.10119 -3.55329
2737 1 -19.7206 -18.6563 -0.658254 -2.45553 -2.72208 -0.454647
1452 1 -5.99655 -23.6281 -15.9608 -0.885379 -0.493893 1.54425
2278 1 -13.0734 -14.4982 -6.62173 -1.49178 2.57765 0.0537507
2292 1 -12.8862 -11.6133 -5.72257 -0.1664 1.85204 0.0431774
2294 1 -21.5185 9.85723 -16.0029 0.461963 2.98799 -3.82965
2296 1 -20.8775 -10.7957 -16.6259 -1.16917 -3.80021 -2.39957
1129 1 -0.5767 -12.7598 -23.2502 -0.948257 -1.02912 2.92572
2317 1 -1.47475 -8.97213 -8.98476 3.26736 0.226021 2.23855
2328 1 -7.88248 -7.20981 -2.82637 0.138513 2.90221 -0.0237182
419 1 -21.6474 2.83633 -21.5798 1.2922 -2.2411 0.287957
2361 1 -22.0455 8.17211 -10.5505 -1.58746 0.771058 0.553317
2368 1 -6.91322 -21.079 -6.4974 -1.0434 -1.72235 0.082999
1724 1 -18.5848 -23.5929 -5.30372 0.186218 2.16098 3.14689
1293 1 -7.41212 0.12386 -1.02817 -4.63985 -1.21821 4.48551
1890 1 -22.7278 9.61136 -21.2024 0.760629 0.498915 -1.08855
2377 1 -4.71893 -8.04908 -4.29596 6.75438 0.216612 -1.40653
2390 1 -21.8092 -7.36232 -9.04874 0.990521 1.05821 -0.224607
681 1 -1.03067 0.301096 -5.21572 1.5799 2.10567 -0.133335
3886 1 -9.09532 -16.419 -9.65486 0.788881 -1.85519 -5.25093
821 1 -21.8318 -22.9741 -22.8817 1.70891 -0.0960034 -1.47804
2248 1 -1.09265 -8.5495 -13.7166 4.30864 2.69443 0.166795
2408 1 -22.9589 -2.10163 -13.9825 3.78062 -4.60085 1.22406
411 1 -0.549491 -5.52674 -9.86759 1.46547 -1.8503 2.57138
279 1 -21.1436 -2.26005 -3.2226 3.80495 -1.54303 -0.315671
2425 1 -13.0753 8.38833 -21.2496 0.346738 2.68602 -0.449759
2429 1 -11.0265 -9.72267 -11.0879 -1.93796 -4.19606 -1.95843
3812 1 -5.02942 -13.2007 -1.83328 2.66869 3.1861 -0.0607519
231 1 -23.1831 -2.72913 -22.1049 1.08579 -4.66348 -2.77847
2442 1 -3.56518 -11.5906 -16.0809 0.995554 4.07634 -1.14747
2454 1 -4.97681 10.2045 -18.684 1.8979 1.52098 2.57381
2465 1 -7.11631 -13.4499 -10.6396 0.660888 -3.43012 1.02522
3944 1 -13.3419 -7.44345 -14.2283 -2.76466 -0.0380243 0.528856
2474 1 -4.49243 -8.82272 -16.3335 1.98957 -2.41085 3.3339
2298 1 -0.558796 -20.8144 -4.56573 0.283983 1.58908 3.32557
317 1 -9.99621 -12.3506 -22.3754 -2.42776 -6.42467 2.60818
2481 1 -14.2247 -7.95862 -8.46749 0.225638 1.77057 -1.76555
3993 1 -3.86419 -10.9452 -3.79296 1.57234 -1.13216 4.08861
689 1 -1.86655 -2.23947 -6.2436 -4.02625 4.5491 3.98102
2713 1 -23.4489 3.9988 -7.41019 1.47113 -4.32377 -6.05351
2510 1 -21.5033 0.875814 -1.44385 -3.28367 -2.63246 2.46385
3099 1 -20.585 8.37546 -22.7983 2.94106 -0.996837 -1.13338
2520 1 -20.148 1.51069 -7.19319 2.74337 2.27589 -6.18358
3207 1 -0.422672 -6.07244 -17.9008 -0.732608 4.53401 -2.55649
2525 1 -13.6302 -17.0996 -7.81799 -0.454828 -0.566997 -4.84179
2526 1 -10.3865 -7.64176 -13.2763 -1.6437 -1.59978 -2.4695
2529 1 -20.0672 -10.9228 -5.29074 0.882775 0.189855 2.42241
2531 1 -17.1782 -7.70008 -20.0623 3.00831 -0.403025 0.100183
2534 1 -16.6563 -11.8711 -2.4877 3.11995 2.83857 -3.88048
2572 1 -22.9338 -15.2502 -5.97658 1.00317 2.09414 0.215521
2542 1 -13.9365 -7.36485 -21.8706 1.01221 -0.409464 6.42537
2543 1 -16.9523 -8.58786 -7.8698 -0.51727 2.96337 -0.180539
2550 1 -21.7096 -17.9907 -18.5676 -2.42367 5.27769 4.8836
2558 1 -19.6006 9.49094 -18.0043 -1.1091 2.95101 -2.21503
2562 1 -21.9976 -3.45197 -11.5645 1.06907 -1.99622 -2.70582
2564 1 -9.25168 -15.0074 -12.3555 -2.97689 4.86841 -0.43557
2567 1 -12.7011 -3.21177 -17.4316 -0.781238 1.57165 -0.291605
3874 1 -19.8133 -22.9917 -14.3242 -5.76599 4.02459 7.07956
329 1 -0.816038 1.51565 -9.6618 -0.737575 -0.234502 0.150817
2578 1 -17.1804 -15.5674 -5.64933 0.647183 6.27721 1.48326
2584 1 -11.7031 -21.7015 -11.6189 1.20063 0.249657 1.97305
2476 1 -5.12213 -24.2444 -21.4583 -1.26927 2.71568 1.48499
2595 1 -1.93463 -19.4015 -17.9444 -1.46735 4.10622 -1.38613
3864 1 -1.61412 -2.28614 -11.9523 0.605099 -3.34699 -3.63431
2597 1 -21.0388 -3.1906 -15.7597 3.98493 0.435032 1.62398
2602 1 -8.38126 -12.1332 -2.20675 -0.42475 7.68803 -3.93587
2924 1 -1.36269 -16.3542 -21.9238 -2.85407 4.60782 -1.25584
2609 1 -10.9227 -4.35611 -15.2157 -0.237286 0.256726 -3.4021
2618 1 -8.73098 -18.2501 -12.0614 1.98054 -0.15311 -1.0683
2374 1 -5.98032 8.20687 -0.845579 -2.88793 4.19312 -2.76356
2633 1 -4.26825 -16.8063 -12.1446 -0.796387 3.59426 -0.613513
2403 1 -11.2739 -0.331083 -21.0098 1.45669 -4.53757 2.17487
3671 1 -2.67609 10.5625 -15.3424 -1.24225 -4.1458 1.59785
2652 1 -21.8425 -5.74938 -16.1635 -2.72124 4.80862 -0.42418
3635 1 -0.871613 -17.2084 -19.3619 -0.520584 -1.68374 1.2667
2656 1 -3.96857 6.77541 -19.0426 0.356786 -2.2437 0.608195
2667 1 -8.58918 -2.71409 -3.75105 3.22962 -5.27222 -1.17913
2668 1 -8.84303 -17.8602 -18.4727 1.97104 1.16274 -0.000258813
2673 1 -14.7625 -22.2875 -2.96461 0.211985 -4.88482 -1.07984
3401 1 -21.8179 -23.6763 -12.2954 0.0159877 3.01907 -4.17776
2681 1 -15.2128 -7.93347 -17.7029 -1.12832 0.0718768 -0.830479
2683 1 -18.1892 6.88684 -17.5271 -3.58097 2.77207 2.71606
121 1 -4.83247 -18.9591 -22.3208 4.07344 -8.64688 4.56493
2689 1 -5.54806 -3.47441 -7.56405 -1.10776 -4.86532 3.34439
2690 1 -15.84 -14.5213 -19.2978 -0.379587 -0.216578 3.02631
3146 1 -1.68992 8.47932 -8.3276 -0.773854 -1.63562 -1.79458
2714 1 -17.1892 7.12072 -10.6575 4.06149 0.528377 -1.39989
2720 1 -11.4269 -11.4016 -18.6483 0.251028 2.43743 0.0606098
266 1 -21.7098 5.76236 -13.1619 -0.913321 -2.68167 4.60691
302 1 -0.57696 8.31674 -2.33543 -5.09181 1.19853 -3.40184
481 1 -0.780685 8.68453 -21.164 1.93871 2.7003 0.864389
2729 1 -4.01595 -22.6784 -17.8707 2.43949 -1.84922 3.0755
2733 1 -6.72227 8.03197 -20.0389 -5.10717 4.8143 3.93907
2735 1 -4.09295 8.28318 -16.5734 3.75614 1.44731 3.23164
2740 1 -12.2156 -16.1502 -20.6799 -2.33111 3.7428 -6.82153
2744 1 -16.2551 -19.1307 -19.5474 0.786466 -1.93249 4.26629
2748 1 -4.13496 -1.48505 -11.1003 0.582643 1.4718 -4.38014
2758 1 -20.6029 -17.0622 -9.13541 -0.122092 -2.49121 -2.26571
2767 1 -12.1554 -20.6065 -19.2626 2.33559 -0.789643 -0.45371
2771 1 -18.5831 -12.0988 -18.5309 3.29874 -3.91255 -0.513253
2780 1 -12.2284 -3.59604 -6.50663 6.32296 1.00137 -0.95375
888 1 -6.55904 8.66847 -14.8408 2.36953 -3.62393 -3.46852
2790 1 -8.38284 -5.47273 -13.9728 2.41136 -0.972825 1.13017
2798 1 -20.8908 -0.719768 -5.84274 -3.16357 -2.03268 -0.54259
2313 1 -8.69136 10.2386 -20.4595 3.32156 3.83959 0.125687
2800 1 -10.132 -15.8447 -16.7244 -1.46272 2.91398 1.03339
2805 1 -14.256 9.33079 -8.74997 0.160424 1.85002 0.242008
3343 1 -22.6799 -5.9336 -18.7271 2.08641 -0.525795 4.72735
1317 1 -12.7954 10.1986 -12.2655 1.68416 3.74055 2.964
3862 1 -4.0501 1.21361 -15.503 0.21109 -0.454987 6.56938
2839 1 -14.0025 -0.669153 -23.4686 0.339648 1.84335 4.7817
2842 1 -4.78017 -14.8505 -9.83039 0.655097 0.485546 2.458
2306 1 -0.914529 -2.12874 -21.4435 1.31187 -4.94616 -2.10441
2855 1 -16.5649 -4.77011 -23.3951 -0.504575 -3.49517 -6.39706
2417 1 -2.93045 -4.51273 -1.5485 -0.925884 -0.0945035 -6.06338
2885 1 -6.91433 3.13799 -9.31628 0.238157 -1.22044 0.508144
2888 1 -10.9488 4.25097 -23.875 4.47259 0.701339 1.29834
2890 1 -3.02974 -8.02341 -20.8832 3.93895 1.34369 -5.55908
2898 1 -9.7144 -7.46952 -21.2478 -3.53812 3.22792 2.92578
2901 1 -13.8278 -15.9298 -16.3269 -2.26986 -1.20508 -1.09902
2902 1 -14.4027 3.25341 -21.4402 -4.05076 4.51691 -1.35791
2909 1 -11.7921 -5.48274 -21.5607 -0.0176247 2.51941 -3.56501
276 1 -23.9373 6.3436 -5.83727 -5.78139 4.14489 1.92353
2518 1 -0.911596 -3.32346 -3.55783 0.284834 3.43779 -0.674728
2926 1 -10.5719 6.59935 -11.9812 -1.3488 0.464862 1.27361
223 1 -22.0117 -7.33041 -3.03398 -2.6637 1.88283 -1.73854
79 1 -22.7505 0.702108 -17.4335 3.38175 2.13241 3.99647
2937 1 -19.5878 5.06059 -15.6287 1.44399 3.80061 0.607777
2938 1 -6.65148 -4.70235 -2.39788 4.84129 0.9681 -4.25969
2941 1 -5.05328 1.40759 -7.74017 -5.15155 1.462 1.3945
1233 1 -2.0423 1.59275 -20.9929 -0.792898 -4.62996 -1.0316
1289 1 -23.0059 -11.7471 -12.6814 1.43201 1.32535 0.673793
2960 1 -13.2945 -1.69337 -19.759 2.54965 -5.24699 -2.73724
2961 1 -12.7227 -13.3883 -21.468 0.593676 -1.90023 0.861848
2962 1 -9.17341 -1.89863 -14.1739 -1.52637 1.56371 -2.37485
2972 1 -8.50634 10.1692 -12.0683 -0.196621 -1.06302 -1.90593
3922 1 -17.8863 -14.3957 -16.9902 -4.95817 -1.23161 1.76381
3007 1 -5.84962 -21.4577 -21.1739 -0.00308745 -2.98621 4.81335
3010 1 -13.7587 -18.9311 -11.7373 3.36631 3.2292 -1.93397
3011 1 -8.76164 -2.66041 -11.4528 -1.79206 2.84884 -0.143544
3018 1 -22.4946 0.474836 -14.5768 -2.63207 -2.37116 -4.35219
421 1 -14.8832 -22.6774 -13.5063 4.05262 1.53714 -0.139252
3034 1 -10.8336 -6.99956 -16.1245 -0.770355 -2.0811 -4.10051
3103 1 -3.98603 -14.382 -23.7124 -0.114084 0.751935 -1.41246
3049 1 -11.5258 -20.0728 -16.4554 -1.65067 0.267346 -9.45368
3051 1 -18.2724 0.00466701 -12.3611 -1.58992 -2.1884 -2.97645
3059 1 -7.67012 -22.9037 -4.28037 6.71322 -5.00361 2.16911
3071 1 -4.51224 -5.26333 -4.09769 1.86763 0.946599 -2.29971
3077 1 -13.9894 -21.9986 -6.85282 -1.52411 -3.89789 -2.64153
3078 1 -22.0869 8.44049 -13.4587 -3.17767 2.65747 4.32873
3085 1 -16.2176 -3.45447 -6.52299 1.37927 -3.91415 1.17107
3093 1 -10.4008 6.34878 -19.6402 -1.57983 0.385736 -2.30368
3095 1 -14.8451 -14.9444 -4.31447 -2.65278 1.28051 2.27492
3097 1 -7.37611 -11.0134 -17.1345 -0.654862 -2.21551 0.772668
3991 1 -15.5851 9.59956 -22.3256 5.52898 2.90333 -1.38154
1891 1 -7.97269 -15.8913 -23.758 3.86272 -3.84405 -1.83367
3120 1 -13.6399 -9.0353 -19.6516 -5.29927 -1.1012 -3.23413
3125 1 -2.90595 -15.0875 -1.03187 1.92236 0.13167 -1.08176
3135 1 -18.9056 -13.3385 -6.57374 -2.83589 3.24502 -1.90439
3958 1 -0.470932 8.22604 -5.58571 -1.35534 -2.95915 -2.26764
751 1 -19.1429 9.22567 -13.6628 0.807737 1.14295 0.697942
3963 1 -14.279 -14.7214 -1.13582 -0.802964 3.16879 -0.44301
3161 1 -8.99292 -17.3645 -3.58045 2.15756 -2.16628 0.565039
3162 1 -12.0172 -13.6603 -16.8124 0.395734 3.18679 -2.61718
1412 1 -19.1806 9.99585 -7.33943 1.89251 -0.459496 3.18728
3202 1 -14.9218 -16.1805 -11.1472 0.828654 0.677253 3.19441
3205 1 -10.5748 1.43353 -6.7765 5.31898 -4.78711 -0.0366451
3210 1 -14.9308 10.2222 -4.05408 -1.85032 2.31374 -2.7708
3212 1 -11.2236 9.0741 -16.3871 -2.20718 0.524172 -2.44885
3213 1 -2.41488 4.97125 -12.56 2.30007 -1.82109 4.12735
3219 1 -7.56315 -21.6844 -14.5036 -2.62506 4.23561 -4.70994
3221 1 -3.26045 -8.70187 -1.73005 -0.100575 -0.740541 0.704749
2536 1 -23.6991 -18.3917 -23.9038 1.82254 -3.96112 0.658699
2646 1 -4.77967 10.3244 -2.4174 0.334288 -0.522455 2.88821
3229 1 -11.3962 2.4187 -4.0097 3.43753 3.48759 -1.4243
1942 1 -2.41003 10.2768 -1.19911 2.00397 -3.70636 -0.0654772
3240 1 -13.6065 -22.6582 -18.0249 1.71339 1.95483 -2.51552
3247 1 -3.71334 9.88793 -12.3052 -0.78543 -0.27578 0.906967
3261 1 -15.8061 -3.77571 -14.1862 -0.68323 1.30095 -0.314013
2625 1 -5.83435 -8.21255 -20.6327 -4.40266 3.05565 -2.07536
3294 1 -19.5241 3.73472 -12.8321 3.0938 4.62529 -3.87966
3300 1 -3.09983 5.72653 -7.99429 2.73259 -0.653491 2.28581
2288 1 -23.3324 -7.13997 -11.7945 -3.86751 -4.59266 6.50363
3326 1 -23.2214 6.45748 -20.9212 -6.21431 1.44229 2.12408
3331 1 -18.1653 -4.99471 -2.38195 0.451463 1.44752 -0.537065
3838 1 -8.0338 5.21524 -5.3596 -0.176579 9.95993 2.06095
3823 1 -5.88312 -19.3756 -8.60576 1.50469 2.04197 -0.0253424
3355 1 -15.9011 -19.3746 -3.59431 -3.41759 -2.14186 -2.3733
3362 1 -6.91528 4.96413 -14.2913 -0.178006 0.693878 2.43763
3364 1 -19.7494 -9.07974 -3.20397 -0.405208 0.971091 -5.41345
3366 1 -22.4757 -22.0556 -17.8462 0.098162 5.84491 1.55968
3888 1 -7.93073 6.77564 -22.8115 1.53019 1.38448 0.419791
3370 1 -18.7655 -14.8648 -12.6758 0.575431 -1.09115 -3.29061
3381 1 -2.10777 -19.1997 -22.3695 -1.55932 -0.914354 1.31184
3385 1 -3.31065 -19.8692 -7.57187 -1.58472 -5.1562 0.0339113
3389 1 -15.6395 -11.1961 -12.6473 -0.663791 -1.91749 3.48277
3392 1 -5.76336 1.16491 -18.1265 -1.24197 -4.1474 0.673299
3396 1 -20.4904 4.68181 -2.99954 -4.584 1.53822 -1.66324
3398 1 -5.2562 -19.5622 -3.22386 -6.54512 -0.496228 -2.50392
2070 1 -21.779 -1.88031 -0.493844 -0.353049 0.106181 0.764506
1438 1 -4.27625 -1.24697 -14.206 -6.85074 1.96686 1.70438
3413 1 -3.30501 -19.4127 -15.4272 0.509726 1.26348 -1.34856
3414 1 -17.9505 5.06477 -5.74968 -0.659313 -2.0767 -2.92189
3415 1 -17.2725 -0.108103 -15.7177 1.28356 3.13986 1.16738
3431 1 -10.8959 -2.77382 -1.75423 0.322572 -0.514163 0.834608
3433 1 -7.54225 -1.87963 -20.7654 3.77538 0.44269 0.666897
3445 1 -12.311 2.22941 -11.2347 1.62813 -4.63909 -1.81979
3446 1 -2.382 -22.4693 -15.2811 0.787805 2.64489 0.0175385
3447 1 -8.3671 6.63401 -7.69669 -1.98413 1.61385 -2.31091
3450 1 -1.19791 -13.5815 -12.1296 -2.02191 -4.01411 5.39215
3452 1 -13.0342 -0.437365 -13.9502 6.67937 -6.44422 4.05104
3466 1 -11.3489 6.41897 -7.87611 -1.50539 0.118541 0.487048
3470 1 -16.8658 -19.9838 -7.42881 0.587131 -3.62333 -1.48807
3471 1 -16.5525 -20.3166 -16.9499 4.99821 0.480175 2.30058
3472 1 -14.8637 7.51007 -14.1296 -8.14148 -1.26005 3.10499
3477 1 -19.7798 1.30968 -14.5194 -2.06333 1.91927 -1.32595
3491 1 -10.148 8.32886 -22.0871 -2.1324 0.724291 -0.816811
3496 1 -10.3043 8.73746 -13.5116 0.088537 2.19819 -2.24464
3508 1 -1.80351 -12.3239 -20.4934 3.41243 0.624923 -1.87074
3509 1 -20.702 -19.2032 -21.66 0.452302 -3.63974 1.55626
3513 1 -20.2223 -20.0017 -14.7302 4.10761 2.63106 -0.199781
3516 1 -22.447 4.87165 -16.8356 3.14032 -1.67507 1.02713
3952 1 -5.05631 -6.55813 -18.2405 -0.390734 -2.65422 -1.33432
2479 1 -21.0444 -6.70447 -0.336655 0.743879 -0.39717 -0.271438
3980 1 -23.2204 -15.5332 -13.7734 3.88697 2.2275 5.61673
3558 1 -19.2437 -15.9359 -1.83446 -2.00934 0.665981 1.90235
3569 1 -4.41439 4.18639 -10.3185 2.88616 -0.16965 -1.00123
3572 1 -14.541 -17.0123 -19.1341 6.36862 1.23719 5.15322
3574 1 -17.1963 -4.28113 -11.7446 1.26351 -4.17228 -2.96477
3575 1 -9.28171 -11.8896 -11.7603 -0.882447 -0.884186 0.260642
3577 1 -9.18782 8.90021 -4.14912 -2.45748 1.46248 4.74482
3579 1 -16.813 -12.9391 -8.49733 -3.40831 -1.39511 0.991515
3588 1 -21.21 -7.73132 -13.9342 0.578184 -0.425834 2.23949
3589 1 -12.8094 -0.306416 -10.4179 -8.76551 0.756057 -5.70532
3592 1 -7.01041 -18.5132 -5.28813 -8.94865 5.35721 1.18695
3596 1 -6.29158 -12.5078 -4.57756 0.133298 3.68585 2.3261
3598 1 -13.9482 -10.1956 -10.2179 2.44817 -1.65374 3.74273
1228 1 -24.322 -17.8305 -6.30408 1.72511 -1.67963 0.617511
3829 1 -9.20914 -17.393 -6.99872 -1.07279 -4.59343 0.155896
3626 1 -13.9623 2.84337 -5.80917 -2.66133 1.87893 -2.97626
3645 1 -17.8723 -17.6816 -9.00533 -2.748 3.42291 -0.550777
3649 1 -17.8693 0.22332 -18.8219 3.66694 2.16989 -1.99466
3663 1 -21.14 -16.0121 -11.6513 3.26635 -2.85604 -2.93836
2478 1 -2.84665 -21.8849 -0.217642 2.89278 -0.236674 -1.92328
2688 1 -15.4473 -5.11236 -1.54605 -1.61488 -1.11721 2.00418
3961 1 -1.78373 -19.8074 -2.01675 -1.27723 1.7749 -1.87982
3690 1 -11.5654 7.63396 -5.14228 0.330097 -0.527518 2.60279
3694 1 -19.2495 1.15739 -9.85643 -1.58635 -1.9673 -4.42857
3700 1 -6.43847 -18.8427 -13.4441 3.76309 0.0738751 -3.0804
3702 1 -4.84866 -4.46965 -10.4659 0.455392 3.52705 -3.10722
3706 1 -12.2155 4.78428 -17.7676 -4.68441 -4.15065 -0.355527
3724 1 -4.39679 1.13524 -3.47124 3.0077 -1.98385 -2.7051
3726 1 -9.0459 -11.6691 -14.7479 -0.939958 -0.994822 -3.62845
3729 1 -20.2696 -10.6215 -13.6402 0.536992 -1.83987 1.69397
3404 1 -18.7962 -10.7374 -0.815987 -0.560396 -0.710359 6.67388
3742 1 -2.00914 -17.667 -13.8051 -0.0898629 1.30763 0.966182
3748 1 -16.057 -2.23541 -18.9123 -1.47366 -5.04244 1.66255
3881 1 -15.643 0.295581 -13.296 8.42006 -5.58487 -2.17182
3759 1 -11.3762 9.29323 -19.1248 0.364366 -3.9126 -0.537848
3950 1 -4.8046 0.945106 -20.8868 -3.70397 -7.14658 -2.58278
3906 1 -17.4645 9.30082 -5.20426 1.4594 -5.75385 4.65428
1030 1 -15.6689 -16.834 -23.2979 -2.23429 -3.61796 -3.22804
3794 1 -5.00656 -19.7864 -11.2864 3.86613 -3.07403 3.90108
3796 1 -12.0643 -12.6278 -10.9442 -4.40399 0.223377 -0.0741506
972 1 -7.61968 -19.2399 -1.55728 -5.42944 4.36682 -2.39244
3064 1 -3.04552 10.9205 -20.9228 -3.22471 -0.166393 1.42946
2127 1 -22.899 -9.98978 -22.9827 -1.11895 1.45724 0.885867
1852 1 -1.01185 -3.25549 -18.6142 0.942619 -5.05162 2.80753
2100 1 -1.02864 -4.83113 -22.3382 2.33725 1.07661 -2.61966
1908 1 -15.5199 -7.91827 -0.761609 0.573843 4.16123 -2.1401
2893 1 -9.31896 -18.4021 -23.0769 -2.88722 4.267 0.607926
81 1 -1.05287 -10.5696 -15.8945 -0.0290495 6.19186 1.09044
518 1 -22.4268 -19.5712 -0.153951 -2.58754 -4.13167 3.15756
2813 1 -0.699106 -8.99984 -18.2337 1.83692 0.494234 7.35692
2404 1 -18.6194 -6.87877 -23.4591 -1.05426 -7.36097 0.572776
1147 1 -10.8795 9.93132 -0.177971 -1.12778 1.64106 -5.40618
3228 1 -10.7764 10.7162 -10.2448 2.51229 -4.32427 -0.485845
1120 1 -6.36099 -16.7715 -0.170727 4.04486 -2.33371 4.45857
1322 1 -0.531775 -13.3376 -7.45054 -3.15052 -0.1963 -2.32203
2915 1 -13.8117 -12.9459 -23.9195 -3.32795 -3.66294 -2.86658
3008 1 -0.422523 -20.8524 -23.8106 -0.32268 -1.31851 2.30558
1371 1 -20.8268 8.51281 -0.0538207 1.35508 -0.866095 -5.87605
3224 1 -5.18554 -5.24026 -0.0401376 0.0104248 2.41886 3.17367
1149 1 -1.22174 -13.73 11.1199 -0.538526 0.21909 0.271155
9 1 -15.3516 5.7727 6.03244 3.04016 -1.15669 -2.82204
13 1 -18.879 -13.6478 11.9042 1.56848 3.21422 1.815
16 1 -17.792 -0.805583 6.8667 -0.188093 1.37113 -0.242503
3084 1 -15.228 -23.087 6.53474 -1.97433 -6.62123 0.675438
76 1 -23.4039 -3.38477 3.27983 -1.27621 1.31051 4.33046
28 1 -18.4763 5.97934 2.86428 2.70561 1.06821 1.26163
34 1 -19.473 -22.9779 15.8632 2.73434 4.02401 -3.12621
1685 1 -18.5284 11.0109 23.1343 3.97704 -0.12871 0.746187
43 1 -13.3916 -5.91718 0.493831 1.70667 6.7812 3.96182
46 1 -22.154 -21.6035 18.5406 -0.539347 -5.39616 2.77615
47 1 -4.48307 0.968039 19.5315 0.962006 0.484647 -1.06614
51 1 -7.61406 -4.9165 19.1163 -1.17304 2.31093 -2.33481
56 1 -16.6203 4.28798 4.10137 2.18085 -0.105212 1.95304
1407 1 -23.4356 7.57153 1.39351 1.54852 2.77245 3.03907
2383 1 -23.9726 -17.4482 6.96291 0.580117 4.05538 0.640939
1208 1 -22.9573 -8.56112 8.97555 1.7304 -5.73852 -4.98545
2512 1 -9.21341 10.9201 13.3984 -1.95191 7.05945 -1.7274
71 1 -9.43902 1.73269 3.21849 -1.43827 -4.12641 0.345897
73 1 -10.6788 -17.9616 13.8018 -0.576531 3.51433 4.37439
3939 1 -22.7284 -1.07788 15.1771 -7.28106 -1.87292 4.41617
1540 1 -17.5441 5.40172 23.9406 2.87273 0.273577 -1.68599
3896 1 -5.2315 -7.99844 0.270387 0.780627 1.99005 -0.727429
3965 1 -4.89827 -0.640972 0.14892 -1.69992 5.08407 3.54032
1777 1 -24.2445 -12.0927 17.1899 -0.735456 -5.10768 -0.668403
113 1 -6.3272 -7.5096 19.4909 -6.2124 -2.12156 -2.41239
114 1 -20.7712 -17.9462 18.8575 2.19306 -1.68843 2.93249
315 1 -13.8982 -23.4925 2.83892 -1.28677 0.594628 -2.17695
122 1 -3.02852 5.68624 20.2423 0.270264 1.73886 1.92335
133 1 -17.3463 3.81098 15.0275 1.14462 2.80945 -0.232735
146 1 -12.1212 -9.28221 14.39 -0.457631 0.0529034 0.387747
152 1 -6.61957 -4.48477 16.4004 -0.126843 0.114343 3.29692
159 1 -17.8903 -8.69496 11.5658 2.88595 -0.335008 -2.92391
162 1 -14.2149 -12.6881 19.6958 0.762403 2.0488 4.29784
3494 1 -19.0917 5.32811 21.6929 3.56516 3.08779 0.189749
171 1 -13.497 0.665893 15.4209 -0.210842 1.72957 1.95402
488 1 -1.55625 -13.563 21.2097 -1.9238 1.68042 -3.22766
177 1 -2.41998 -21.3598 14.515 1.6984 1.45845 3.17626
1920 1 -22.5084 -13.4009 1.21854 1.45256 -0.975454 -0.842046
182 1 -19.1433 -3.02425 14.3107 -2.44392 0.199802 -2.79587
189 1 -4.54081 -3.06978 1.89169 3.24468 -0.278649 -8.03778
1153 1 -3.61389 -19.4528 1.27693 0.902663 2.26169 -6.45075
264 1 -23.4406 3.63411 16.5166 2.09663 4.10175 -8.17075
2691 1 -18.8232 -22.8928 20.8528 -2.94012 2.58155 -0.0886579
1151 1 -24.0425 -22.8002 21.6605 -0.44225 3.76226 -4.54957
232 1 -2.91276 -17.5256 12.6997 -0.798062 0.603717 1.72111
241 1 -21.7971 -16.0681 10.022 2.14643 -4.33671 -5.56509
243 1 -4.97456 -10.5941 8.30156 -3.43419 -3.14454 4.73954
986 1 -2.87994 5.29761 12.4296 -1.54382 -0.512236 -0.552026
247 1 -22.7562 -7.19902 12.9855 2.63761 -1.7349 -2.52479
827 1 -0.872452 0.0936522 5.15063 -2.99518 0.217869 1.03611
1999 1 -0.974846 -8.51023 21.9373 -1.08318 -4.5544 -1.33031
1994 1 -22.6757 -16.5699 4.57608 1.78456 -0.996746 -2.99234
270 1 -22.181 -16.9694 16.3914 1.66283 1.31403 2.96037
273 1 -15.6163 -12.4538 13.8012 4.28223 1.76894 2.08833
289 1 -3.76241 -22.9491 10.1067 5.85516 5.26986 -2.32123
291 1 -9.24022 -20.3299 13.8942 -2.15237 -0.596462 -0.527074
304 1 -19.6256 -20.3042 12.8736 0.527261 -1.06385 -2.20441
308 1 -15.9829 -21.7569 3.38155 -2.59167 2.54887 1.40215
1991 1 -21.5039 -21.8583 21.2394 -1.97849 -2.57761 1.08177
319 1 -11.0525 1.71018 14.724 3.33431 6.43274 2.07467
2376 1 -14.0101 2.50016 22.6927 1.96411 2.16971 -0.864772
323 1 -14.7909 0.348597 3.3852 3.3029 5.65471 2.83988
325 1 -0.610466 -22.3084 19.0088 1.30369 -4.52187 2.56871
326 1 -18.6288 1.39978 1.97045 1.525 -1.13811 1.77915
327 1 -3.58148 -11.6067 21.2311 -1.72594 -1.27951 -2.70522
61 1 -11.4826 -1.03819 1.6902 -3.49734 -0.160354 -2.17385
345 1 -11.0587 -5.17714 13.5939 0.809653 -1.02978 -1.35419
348 1 -10.0061 -5.70054 9.09293 4.62268 -4.73608 -4.92672
765 1 -23.6513 10.9595 8.32724 -1.95665 0.503509 -0.346446
351 1 -15.3492 1.17355 13.4307 2.4637 -1.23184 4.34823
355 1 -3.75868 -3.17436 7.34101 0.169636 0.361528 0.241456
427 1 -14.0542 -24.2222 21.0295 2.77015 -2.05361 -3.65511
1659 1 -4.47238 -23.1758 7.01038 0.864374 0.774226 2.42409
363 1 -17.865 -19.6103 8.03245 0.986109 -0.768937 -1.99328
3893 1 -7.93455 6.79501 7.62604 -3.19973 -4.85127 4.12615
806 1 -1.57376 -13.8425 15.9452 -1.79949 -0.379277 -0.343968
585 1 -9.66772 10.1814 17.0233 -6.41402 7.7932 3.8549
224 1 -12.9991 -3.11777 23.0078 0.38253 0.973738 2.05368
381 1 -22.675 -19.5067 12.8014 -4.65619 2.48309 -3.48276
385 1 -7.47886 1.94821 19.4992 3.3167 -0.8205 6.27761
3087 1 -9.34738 -24.1046 13.281 3.39408 -0.350695 4.08027
389 1 -13.869 8.10119 5.21553 -5.12941 -1.52647 0.866734
5 1 -19.9021 -19.4218 21.2008 0.753238 0.00952443 -0.798966
2485 1 -1.50228 -18.7136 6.34867 -4.97114 -0.297395 -3.39476
404 1 -16.3227 -1.86432 1.44904 -0.192559 -1.99152 2.63534
531 1 -24.0199 -9.6361 13.0388 -0.719283 5.84824 -2.50274
412 1 -17.0067 -6.02309 5.51853 -2.87236 0.223974 -4.4192
417 1 -11.178 -3.17188 10.0861 -0.977377 3.23424 0.196696
3155 1 -5.6016 -10.8153 0.0931926 4.72936 -1.55745 0.631923
423 1 -6.39104 2.10605 4.30112 1.86 -2.36884 -0.681549
1148 1 -10.4088 10.9864 7.5677 5.98917 -3.40755 1.90135
3749 1 -21.4509 -3.09186 12.6053 2.10451 0.165515 -1.44247
448 1 -15.1847 -1.44906 12.7168 5.50163 -6.41769 7.22508
462 1 -7.21655 -20.7007 21.6035 1.70146 -0.035856 0.904889
897 1 -12.0485 -23.9943 10.246 -1.25078 5.69725 -1.59076
1223 1 -22.372 8.12607 12.0994 3.03965 -3.07133 -1.13495
467 1 -1.52552 -9.84918 11.5454 3.06759 0.666925 0.815469
472 1 -15.396 -5.59337 18.2856 -3.8565 -0.383593 1.93834
2793 1 -3.77878 3.75508 5.21235 0.594773 -1.09297 0.451293
491 1 -15.7819 -13.7115 11.024 -2.09279 -3.28078 -1.96569
500 1 -5.75728 -16.4962 9.73119 -1.85949 -1.03617 5.89953
504 1 -4.01107 7.0793 3.13469 -2.51982 0.0537571 -3.43612
513 1 -19.603 -14.9714 14.6945 0.217648 -2.54935 2.74855
482 1 -24.1601 -2.11525 20.4535 4.6837 1.96016 2.46553
524 1 -3.45361 -3.58908 18.8562 -1.772 -5.30106 0.709986
529 1 -7.6437 -14.4936 8.82051 4.57135 -2.08646 0.585907
530 1 -9.22106 3.18266 10.2671 -4.89425 -0.711157 1.39999
533 1 -13.4826 -23.4472 12.9314 -0.864706 0.826569 -5.94879
538 1 -16.6329 -6.97487 13.4872 -1.0403 4.31293 -2.38335
540 1 -9.41501 -10.614 3.4629 0.16302 6.92492 1.74685
541 1 -13.7238 -1.56766 16.9983 -0.277428 2.82746 1.24033
549 1 -20.1392 -5.0445 6.67832 -4.07762 1.07783 1.97219
1971 1 -22.7023 -3.10425 8.73825 -0.0380925 0.0840408 -2.3559
558 1 -5.57527 -15.2055 13.5777 0.845174 -1.18707 -5.04189
559 1 -7.7063 -19.6303 8.13326 -2.9728 1.05178 -2.35251
564 1 -10.1331 -21.8082 11.4495 -0.388 -9.24009 -1.31588
581 1 -16.5397 -8.52279 16.0551 -0.817176 1.76129 -0.192218
592 1 -12.3797 -13.8955 13.9064 -0.80184 2.19906 -5.75079
593 1 -10.4742 -22.1304 19.3401 1.76111 -3.43182 3.51558
594 1 -20.1039 -1.55536 3.67584 0.101647 2.93502 0.452759
596 1 -11.0819 -20.764 7.6915 4.77843 1.11518 -5.38323
602 1 -8.41226 4.59194 19.1897 -3.37117 0.812722 0.783038
605 1 -21.2496 -2.51012 18.5173 0.0895006 0.606809 -1.68305
3130 1 -23.331 -10.9405 10.5864 -3.57597 -0.876447 -0.804097
622 1 -21.0085 -9.41128 0.869871 -1.16114 -0.103521 -2.24864
631 1 -4.69326 -17.4323 15.073 5.07876 -2.15187 -1.40043
632 1 -13.4355 -19.4551 4.79536 7.27708 -1.30724 3.82496
634 1 -9.22812 -2.64256 17.9052 0.511192 5.12732 -2.58844
642 1 -9.3308 -1.85848 8.1698 1.88936 -3.88827 -2.20082
650 1 -8.34777 -0.979132 20.597 -1.68383 2.87899 -0.79165
664 1 -15.2519 -21.3568 14.1047 1.43544 2.90706 -6.56763
665 1 -3.38466 -6.68238 19.3346 -1.25421 -1.57886 -0.411789
2247 1 -21.3635 -13.0895 10.5179 -1.38711 -2.85919 1.71612
686 1 -16.4173 -1.75477 16.7784 2.16285 -3.76953 -1.86587
687 1 -12.4406 8.77649 11.1502 1.36284 0.569978 2.20213
692 1 -7.33092 -7.28701 3.46145 3.83832 -0.515616 -3.7427
696 1 -4.84935 -20.6668 8.46285 -0.484963 0.0728664 0.716652
699 1 -14.0612 -13.3641 16.2163 -1.05891 -1.43466 3.961
702 1 -16.0229 -5.65873 11.0283 1.55093 -1.43898 1.75074
704 1 -7.71002 -10.595 15.636 2.1664 2.57143 -0.657826
707 1 -15.0589 2.6364 18.9377 0.441839 3.17148 -1.31282
710 1 -2.28694 -7.42206 9.70202 -1.2245 3.51985 3.46263
2010 1 -7.64979 2.13979 23.8552 -4.32774 -0.217701 0.964468
718 1 -12.3396 -7.26592 2.65477 2.55664 0.536169 6.40359
726 1 -3.60248 -11.2005 18.4157 -3.3263 -2.67004 -0.408745
733 1 -12.4078 -17.6978 6.77353 -5.09921 -1.84606 -0.709505
738 1 -12.3967 5.10875 16.7956 -5.68846 1.6298 0.707903
739 1 -16.323 -16.8575 2.26174 1.04117 2.22042 -2.76182
3222 1 -13.6408 -18.065 2.61917 1.74578 1.87683 1.53775
2219 1 -11.2185 -22.9307 15.0522 -3.52053 -4.852 0.492409
3842 1 -21.2261 0.341839 22.3631 2.37694 -0.843918 -4.4549
748 1 -10.8119 -22.3543 22.3392 4.08074 3.37646 1.89613
2984 1 -1.95148 -2.92713 20.9355 -0.143892 -1.4196 0.577075
758 1 -12.8829 -19.4256 20.7101 -4.92936 0.407729 -5.47784
3306 1 -9.85196 10.0606 23.6921 0.377033 -1.61943 -0.840964
768 1 -6.21907 9.68241 8.62144 -1.03575 4.70836 -1.8854
781 1 -15.5428 -1.05457 8.44364 -0.86083 -0.561157 -5.51958
788 1 -20.9882 4.67902 5.54215 -0.670724 1.17735 0.0267819
797 1 -16.4166 -15.4914 13.5902 -2.86932 1.8319 0.903594
800 1 -16.5677 -13.4445 17.87 3.64782 2.89715 5.8812
802 1 -17.8792 -19.6115 17.4971 1.98531 3.75519 4.61408
992 1 -23.5913 10.0672 2.95828 -2.56368 0.636105 -2.81118
818 1 -10.4905 6.37452 18.5279 0.696305 4.07259 0.298879
825 1 -23.9279 4.52384 4.05478 -1.27135 1.39867 -0.775399
1006 1 -23.7126 11.0827 20.0718 -3.36512 1.19841 7.15603
828 1 -6.21554 -19.9078 14.6023 4.62225 1.6297 0.839589
830 1 -10.7176 -10.232 21.8952 2.36442 2.53138 -1.84012
832 1 -1.79983 -5.14698 11.2977 -0.872744 -3.37963 -1.84686
854 1 -21.4935 -11.5212 3.03906 -0.196915 0.108684 1.01839
3673 1 -3.29493 -22.6682 19.5767 0.699731 -0.778368 -0.0502463
864 1 -12.1355 1.57679 18.8248 -0.943616 -0.245876 -4.22907
3475 1 -22.2704 -14.2965 17.8312 -0.513971 2.08806 -1.69424
881 1 -2.33264 -4.83819 23.1989 1.58188 -1.37825 0.323976
889 1 -12.853 -3.48636 15.4385 0.14518 0.889922 0.720707
891 1 -22.3671 -0.907083 2.12519 1.63456 -2.91023 2.97153
108 1 -10.1572 1.02872 23.0743 -1.35975 2.13569 2.09088
2283 1 -23.6726 -11.8052 6.96578 1.19583 1.67767 1.36639
908 1 -7.45471 -18.4677 12.3988 9.05255 5.45248 3.52664
916 1 -16.6638 -17.9867 20.9653 4.34931 -1.22137 0.444796
1290 1 -0.660809 6.58172 8.46291 -1.35245 -0.647279 -4.71424
3223 1 -22.9925 8.18078 19.2096 0.921646 0.564461 1.44718
2674 1 -7.66003 -21.4312 0.266899 -3.20306 -3.07419 -7.43454
946 1 -13.1532 -9.17134 5.91274 1.37559 2.97824 3.62928
950 1 -19.5953 4.77241 11.9092 -2.53726 -1.39204 -0.807755
957 1 -6.2471 -1.66463 15.0931 -1.50507 -4.29794 1.89294
2067 1 -23.218 6.84423 22.9065 2.44735 -2.58529 2.80542
960 1 -2.95796 -22.1113 4.68813 -3.26208 2.11638 6.09269
966 1 -15.0643 -5.37168 15.4242 1.14862 -6.78279 -0.13463
973 1 -11.5606 -4.12725 17.9394 2.8698 -1.56778 -3.12348
975 1 -8.78989 -10.2648 6.30083 4.0466 -0.452915 1.25574
976 1 -15.9771 -8.10584 9.11104 1.53575 0.395813 3.00962
982 1 -4.72663 -8.30138 3.09053 -2.33881 -2.38263 6.07314
983 1 -19.6127 7.09042 18.5307 -6.10212 -0.391116 -2.11036
362 1 -21.8897 8.26528 4.665 -3.51496 -1.24869 0.620012
987 1 -21.4534 -20.6994 10.3768 -3.54693 7.59656 -0.816468
988 1 -9.51387 -23.1419 8.75749 1.8198 2.14836 -0.818476
991 1 -3.84926 -6.78289 5.50907 -2.53992 -2.16137 -0.678822
3591 1 -5.79277 -13.2047 21.3696 -4.40773 0.677594 2.26803
3469 1 -0.679805 -6.35431 1.00336 -1.01476 1.38256 -0.717331
1864 1 -6.05716 9.29337 22.5513 -0.784685 -3.67758 -2.58724
1002 1 -11.3349 -15.338 5.38507 2.18192 -0.152149 1.56974
3971 1 -5.0069 -5.41048 23.6897 -1.44984 -2.59378 4.07173
746 1 -14.6161 -5.76402 22.5097 -0.517537 -5.53573 1.97249
1016 1 -18.9956 2.62731 6.57501 5.20911 0.382863 -0.52608
1017 1 -5.6902 2.67442 17.103 3.60393 3.13158 2.61338
1018 1 -21.3664 -20.1433 5.21478 -0.594968 0.900153 -4.07394
464 1 -12.674 -24.0687 5.27886 4.34683 0.442371 -1.27288
1027 1 -20.0562 -7.03981 11.6926 2.34041 2.60744 3.88329
1020 1 -19.2936 -24.2687 8.10949 -0.860027 -3.22846 3.30513
1037 1 -10.334 -16.9553 16.6543 0.130433 -4.62862 -2.51513
1038 1 -3.43653 8.14327 10.8312 -0.666919 -1.72588 -3.08591
1014 1 -20.9689 -21.6233 1.2682 -0.414057 3.70347 1.03081
1047 1 -15.0056 4.7324 21.0089 -2.11321 3.7582 2.84355
1060 1 -16.2828 -12.0125 8.72985 0.747033 -3.83309 1.59759
1062 1 -8.42761 -1.64983 10.8284 1.9243 -2.28834 -2.37319
1067 1 -18.5611 4.49198 8.86326 0.146688 -4.80689 1.00603
1070 1 -7.42883 7.55978 10.2981 1.49721 0.630764 -1.578
1079 1 -13.3218 -4.89867 11.5436 -0.0587877 -2.68681 0.942071
1089 1 -16.2761 5.98651 16.6679 0.154459 0.745943 1.74161
1075 1 -1.98923 10.3471 12.5344 -6.35194 0.624932 0.841076
1098 1 -11.8634 -6.00812 20.2844 -0.400406 0.529986 -0.253967
1104 1 -20.5091 0.0762022 7.30826 -0.4085 -4.62073 -1.11495
1106 1 -15.096 -16.7777 6.86442 4.2088 5.45221 4.22034
1109 1 -19.3685 -13.4531 3.46628 -4.69193 2.18445 -1.84931
1112 1 -2.85538 -14.2531 18.5657 -1.2708 1.52715 -0.672502
1114 1 -17.7829 -3.82794 10.1497 -4.28043 0.319807 -0.549749
1116 1 -12.3567 0.886689 8.49387 -0.547375 -3.85952 -3.22307
3056 1 -22.4841 10.5764 10.7982 -3.30375 0.412877 -1.55716
1138 1 -22.881 -21.6998 3.35841 -2.85524 -4.2739 -2.26908
1832 1 -21.7655 -12.6829 23.9405 -4.27302 -0.567494 0.658374
2653 1 -7.76166 7.68047 1.56956 -2.10174 -0.0202756 1.8755
3518 1 -3.3419 3.37081 1.20847 -2.87083 5.13516 -4.56879
1996 1 -8.56562 7.91574 21.9239 0.863728 5.194 -4.37469
3751 1 -2.16778 -0.984652 0.172812 -0.435042 1.99371 -0.610131
1478 1 -3.92456 7.66287 5.88286 -4.13489 0.776606 2.60961
1158 1 -17.1725 0.512036 18.6565 2.75077 1.48384 0.712971
2948 1 -1.20539 -17.2889 1.43998 -1.26428 -0.200703 -4.71876
1164 1 -18.8229 -16.2739 10.6117 0.223202 0.242605 0.265997
2170 1 -7.821 -17.2779 2.22493 5.09068 0.207368 -6.28853
1178 1 -3.32217 5.49926 9.41798 5.7079 -0.36215 -1.62799
1205 1 -4.52415 -21.4626 12.6875 -0.764366 -2.31719 1.77841
1211 1 -13.1572 -12.2171 11.8388 2.82942 4.1725 2.54773
859 1 -14.2449 -10.1425 0.583271 -1.53646 -3.79575 4.62364
1236 1 -4.36659 -21.9533 17.0899 -5.57701 -7.09794 0.699416
1995 1 -0.506276 3.68961 13.0292 0.384252 -7.0188 0.57966
1240 1 -5.0907 -23.1568 2.99585 -1.06385 0.660294 -3.13537
1244 1 -17.1152 -1.23966 10.9376 6.34225 1.67616 -1.51545
1246 1 -4.48265 -15.1633 6.04902 2.37225 3.37046 -1.24218
1254 1 -19.9875 -17.7923 4.19255 -0.653574 -1.68094 -1.14383
1255 1 -1.63 -8.79446 5.20093 3.9954 -1.93793 -0.652821
1258 1 -13.3778 9.31975 18.9245 0.907008 3.25037 -5.45272
1272 1 -21.2759 10.2313 18.1428 4.66853 -0.556557 -1.12081
1033 1 -2.86399 -14.9005 1.96612 -3.35135 1.51651 -1.70976
375 1 -23.9861 -6.71424 22.8704 -5.67203 -0.645458 4.1922
1305 1 -5.22184 3.17868 10.0155 2.36768 0.623148 -0.545295
1308 1 -17.714 -3.80922 7.22084 -4.07734 -1.28434 3.72323
1312 1 -16.1783 -10.4287 3.68434 0.0546838 -0.403357 -4.87695
1608 1 -21.4556 4.83619 8.33495 -0.236758 -4.71941 0.372287
1361 1 -7.26491 -22.3093 7.00819 -5.01533 -3.24221 -2.43833
1367 1 -6.07868 -13.0521 15.5182 6.26421 -1.05782 0.498197
1373 1 -15.0047 -9.70369 13.672 4.7354 4.61427 3.54643
1379 1 -16.9744 -17.8632 4.75284 -3.64547 0.191607 -3.62264
1386 1 -17.7376 8.83432 3.39161 -1.36333 4.50806 1.73893
173 1 -18.6375 1.7698 22.8523 0.175025 5.85546 4.54887
1396 1 -15.7514 -10.013 6.84357 3.5383 -1.65448 0.233061
753 1 -16.1513 -19.3478 23.4471 -4.57777 2.63221 2.99129
1415 1 -7.36547 -20.9276 3.16218 -0.272388 -0.0192437 0.634109
1416 1 -18.8114 -9.02533 8.54297 0.055018 -1.02169 -1.02045
1428 1 -4.17773 -20.3538 20.9602 -0.604641 2.08505 1.15429
1429 1 -18.673 -17.023 6.96043 -7.56617 3.17725 -0.442674
3163 1 -21.9546 0.0992288 17.7482 -1.15983 -0.851131 -4.19762
320 1 -1.6782 -1.11445 7.59068 -1.68563 -2.98184 -2.22438
1441 1 -18.4291 -14.0978 20.1813 -0.844399 -3.90053 -0.545515
1448 1 -17.4734 -0.390085 3.85855 -0.724631 -2.63574 3.98826
1462 1 -9.21217 -19.3715 10.4851 1.52913 -0.215969 0.564166
1470 1 -2.26063 -12.1244 2.93911 -2.47764 -6.2352 4.6074
3403 1 -12.2337 -22.2122 0.90387 4.72423 0.262612 -1.14669
1486 1 -18.0898 -6.26368 17.0548 -1.11524 0.251547 -1.88249
1488 1 -17.5541 -17.9476 12.6445 4.23712 2.2343 -3.71524
1495 1 -21.6761 -8.73088 22.175 -1.34448 0.754327 -1.87605
1498 1 -14.1797 5.07249 10.6851 -0.542351 -0.136324 0.908641
1800 1 -0.988087 2.06242 10.6851 2.45775 -3.98797 -1.21961
1513 1 -19.6436 1.86047 18.828 1.16814 2.44587 2.64437
929 1 -8.64976 -13.2558 0.479216 -0.880608 0.970257 -1.10209
1239 1 -1.58347 -23.1858 6.921 -1.216 -5.40783 3.20584
1521 1 -8.22555 -9.01932 18.1128 0.0298112 -1.95161 2.00036
1523 1 -5.72427 4.8866 13.6607 -1.4194 -1.56568 -1.21654
3015 1 -3.95884 10.9676 9.67764 -1.42415 1.50766 1.80039
1529 1 -7.14348 1.19787 10.8496 4.57807 -2.22062 -1.15239
1534 1 -11.7611 -8.95689 9.63887 -3.31561 1.65485 -0.00935866
1542 1 -21.2907 -6.70896 20.2705 -3.35904 2.692 -0.565388
1545 1 -8.22425 -14.7412 16.1666 -2.37187 1.46716 -2.04591
1546 1 -14.5366 -14.9158 21.1669 -2.35286 -0.493576 2.54333
1560 1 -17.4978 -20.5441 20.0302 3.72847 2.59359 0.912587
1563 1 -3.681 -5.01188 16.2247 -5.83083 1.78714 -1.7639
1572 1 -0.773951 -18.9525 13.6111 -4.18883 -6.58722 1.15652
1573 1 -8.91947 -11.2104 19.776 -1.59117 5.13245 3.38505
1581 1 -6.21414 -6.04169 11.3675 -0.786923 0.610296 0.54814
1584 1 -4.03236 -5.62409 13.3186 -0.770099 0.759385 1.89372
1585 1 -8.00305 -11.8514 22.6396 0.391624 -0.451087 -3.4211
216 1 -17.6868 -24.146 5.56874 5.96446 -4.49153 1.52514
1599 1 -20.4547 -4.39625 10.0962 0.438981 -3.82321 5.54728
1612 1 -22.9177 -19.5137 15.6817 3.70047 2.1645 -4.7313
1614 1 -14.974 -14.2864 2.49661 -0.286708 0.609405 -4.23153
1621 1 -17.3883 3.00844 12.39 1.38061 -0.134353 0.037356
1623 1 -7.73125 -18.5622 16.6705 -2.49363 -1.79043 0.0857825
373 1 -15.2402 6.56755 23.2266 1.45192 2.29807 -0.416632
207 1 -5.74784 6.55335 21.3615 0.875434 0.288212 1.6381
1644 1 -19.0263 0.825275 11.9252 -3.76329 1.75982 0.802142
3912 1 -6.90443 -11.529 2.4628 1.72812 0.933253 -6.28369
1665 1 -6.56599 6.66217 18.2485 -4.60761 2.0738 2.13307
1667 1 -12.7078 -6.39894 9.09879 -3.59096 2.6206 1.64879
1671 1 -13.2489 9.97936 21.6177 3.65956 -2.54213 -1.46165
1690 1 -6.72453 -23.3878 13.3805 -1.65902 -0.491577 2.39989
1691 1 -15.213 -14.0345 7.21007 -1.72577 -0.723036 -0.0278458
1697 1 -11.4493 -21.4834 4.81434 -2.7057 -1.08785 3.76916
1704 1 -5.66019 -12.6898 6.09122 1.8779 0.338956 -0.341689
1707 1 -9.98091 -6.70377 17.991 0.614582 4.29469 2.48795
1711 1 -5.61628 4.62729 2.61188 2.85646 -4.23392 -0.812333
944 1 -14.6019 0.0419332 21.7367 -0.970079 -2.49404 -2.23059
1729 1 -15.5932 8.40686 15.0475 -4.57779 1.27924 -2.59953
1733 1 -11.3518 -17.2753 10.8251 0.374008 -1.88957 3.82708
1739 1 -7.01523 -22.1938 16.1232 -3.90998 -1.95734 -2.83998
1756 1 -15.1686 1.74322 7.93196 5.52873 2.87827 -1.19686
1763 1 -3.63807 2.69575 13.5776 6.18135 -0.371543 1.43219
1766 1 -17.3191 0.908312 15.7187 1.20565 -2.76567 1.34423
1770 1 -9.22997 -5.71977 21.6401 0.721517 0.625557 -0.113649
3289 1 -17.2667 -23.7562 9.96002 -0.545597 0.163013 1.63429
1788 1 -15.3517 -18.2415 16.9779 1.05141 -3.56042 -2.34317
1792 1 -14.3248 9.77748 7.78271 -0.70775 2.99742 3.24821
1807 1 -17.8769 -11.8854 22.0233 -4.4992 2.42578 0.216623
1813 1 -16.6959 8.65537 20.0055 0.445295 4.64727 -1.25722
1818 1 -20.6116 -10.2896 5.51107 -6.25181 1.98368 -4.25422
1819 1 -12.2489 -12.5763 18.0483 0.2203 2.14368 -2.99507
1824 1 -15.6304 -18.3756 9.2924 -5.27414 -0.689519 -4.21742
357 1 -5.67855 -14.0662 1.0164 2.84294 0.898695 -1.4433
1833 1 -7.82695 3.55683 15.4981 3.83446 -1.40939 4.36159
1857 1 -1.66301 -19.8165 3.47602 2.33416 -0.0835254 3.09678
1844 1 -4.74999 -4.1754 4.75488 0.398269 -6.17891 -3.3197
1865 1 -8.73939 -3.25617 4.60205 0.425067 4.99936 -3.86053
1868 1 -1.58702 1.39445 18.6303 0.257329 1.30295 1.45718
1870 1 -16.6595 10.5624 13.2055 6.4082 -1.3337 2.31032
1877 1 -14.5454 -6.5872 6.96017 1.93358 0.455937 -0.535831
1882 1 -11.4478 7.97611 16.2681 -1.11559 -1.1404 -2.77038
1889 1 -11.5855 1.78251 10.8232 4.92061 -1.94991 3.49185
3933 1 -1.58778 -9.20367 19.0695 1.44212 0.873249 -3.69047
1895 1 -19.7347 -8.25269 18.1888 -0.961915 -5.05843 1.34463
1900 1 -11.7203 0.461863 4.01197 2.63308 3.36182 -0.615832
1904 1 -9.45774 -20.9131 16.7517 -4.05775 -1.39646 1.01893
1510 1 -15.6726 -12.4218 0.363765 -2.89568 -5.61559 1.3018
1907 1 -21.1975 -10.8477 14.9129 2.08987 1.52225 3.52448
21 1 -22.6224 -0.606074 12.0356 -6.11093 0.13592 1.86184
1910 1 -5.25831 -9.62655 12.7358 -0.332647 0.647086 -3.10311
2747 1 -2.27217 2.85293 16.2982 2.13951 0.471918 0.114644
2522 1 -5.36918 9.43282 1.86494 -0.720429 0.906251 0.955463
1945 1 -22.9778 -16.1179 19.9563 0.0804626 -4.76281 5.64397
1951 1 -5.63517 -13.5593 11.283 -2.89382 2.6265 0.750351
1955 1 -10.7718 -19.5298 22.6684 0.342655 4.91163 -3.80272
1956 1 -4.05206 0.0873658 8.29881 5.71531 -3.39977 -0.172143
2601 1 -1.64973 9.08279 5.7008 -7.15867 3.58681 2.01027
1969 1 -4.80947 -8.41096 10.3004 -2.16447 6.94506 2.00848
89 1 -9.38378 -3.60568 23.592 -0.319068 -5.10304 -3.55695
1982 1 -21.426 -2.35868 21.3851 0.705219 -2.45967 -0.357886
1987 1 -21.9006 3.31078 10.7812 -1.6116 -7.0912 -5.1879
1989 1 -8.53285 -16.105 13.8352 -10.2522 3.45842 -2.74207
1681 1 -15.2205 -8.39006 23.6358 3.36053 -0.227605 2.36087
1912 1 -15.1499 2.99651 2.03002 -1.99 1.58507 5.88801
3425 1 -23.831 -9.7258 18.7906 4.11493 -0.154731 -0.608662
3932 1 -24.1724 5.21287 13.982 -0.403866 0.059521 0.812765
3936 1 -0.814516 -23.5112 23.2416 0.602595 -2.02712 0.93304
2014 1 -7.84956 -8.4191 13.6818 1.16678 0.801904 1.13893
2018 1 -12.8685 -1.84433 8.08221 -0.304303 -1.87771 3.87372
2023 1 -19.2146 -12.6806 6.57854 0.738097 1.07382 5.07534
2032 1 -8.55149 3.71642 5.16412 0.732788 2.13046 -0.0788081
2037 1 -16.5006 8.43636 11.4748 1.33688 -5.33522 2.77604
2041 1 -12.2801 -15.1109 23.0074 -2.63309 -1.04588 -1.81674
2047 1 -2.91641 -11.3163 6.35992 -0.124509 1.01859 6.74146
2064 1 -13.4571 -16.5929 12.8318 4.62681 4.94028 2.80572
1159 1 -24.0864 -3.72533 15.3625 2.12857 0.846535 2.05677
2071 1 -20.5948 -12.5923 19.3735 -0.762519 3.11809 -0.240664
2072 1 -20.8943 9.76643 22.6377 -2.82492 3.12461 -0.370575
402 1 -1.15538 11.1881 17.0207 3.3428 -2.22643 4.76588
2077 1 -17.1575 -5.22472 2.89766 0.0310105 -6.42327 -1.29843
2086 1 -10.1187 -14.8249 10.0928 6.15777 3.99473 -2.36679
2091 1 -9.71964 8.82655 11.7061 -0.502946 4.3374 -1.64675
2095 1 -19.7951 -8.33693 3.29669 3.40815 -1.05194 1.91326
2097 1 -7.26296 4.9408 11.3184 2.88962 3.645 2.74632
3495 1 -22.7282 -4.99165 18.3639 5.47575 -3.06611 -0.167786
2101 1 -22.0335 -8.83579 16.6701 2.00468 0.232149 -0.368802
3342 1 -1.24258 4.71332 3.80343 4.18939 2.45961 -0.776094
1401 1 -23.5831 -19.231 19.7405 -1.57561 -1.12158 0.650389
2109 1 -3.75811 9.17603 19.8153 -2.57147 -0.813009 2.75738
2112 1 -10.1119 7.01374 13.7686 0.488726 -3.82586 3.9144
2113 1 -17.3686 -0.0946308 21.2043 1.51782 3.17618 1.2533
2075 1 -5.81231 -15.8079 22.5731 -0.948486 -1.66976 -2.38117
1730 1 -3.56347 -9.4186 22.8857 -2.38442 2.24116 -4.26098
2133 1 -12.332 -13.0263 6.91801 2.90216 2.6094 -0.546798
2136 1 -4.25561 -19.5783 5.83222 1.42554 1.55673 6.53767
1139 1 -10.9948 10.8728 2.90153 0.678705 -1.08443 0.964933
2142 1 -17.3859 -11.2523 16.0242 -0.274058 -2.6001 5.7983
2160 1 -18.6271 -2.7506 21.5589 0.659783 -3.53301 5.41411
2655 1 -2.6012 -10.571 0.469038 -1.02864 1.3129 -0.797616
2171 1 -2.99526 1.28817 3.47184 -0.0239804 -0.0262359 0.91232
2181 1 -14.8279 -21.5448 19.787 -5.59897 4.94062 -3.05723
2182 1 -2.66251 -0.977576 13.4599 -1.74342 2.71302 0.50368
2188 1 -12.3878 5.92156 8.70449 -0.295496 -3.37326 -1.89012
3718 1 -18.2653 5.17437 0.132733 -4.01039 -0.745496 -1.02985
2200 1 -2.01288 -23.3381 2.18989 2.13858 0.175609 1.6171
2218 1 -17.0573 -6.40915 20.6351 3.36015 -0.802393 1.32875
589 1 -2.26183 6.17595 0.994497 -0.189059 1.25218 -0.624907
2239 1 -14.0436 -10.2423 20.6554 3.05525 -0.0742118 -0.270716
2242 1 -12.0031 -15.772 18.7119 -2.70576 4.07923 -5.58006
3498 1 -19.8863 9.29938 8.83863 -2.50375 -4.02479 1.50934
2259 1 -19.0787 -9.49066 22.968 -2.10688 3.05813 -3.57553
2784 1 -11.791 1.55264 0.257934 0.696029 -4.42211 6.35706
2266 1 -20.0868 8.8787 13.7708 4.19518 0.455522 -2.88711
2273 1 -20.4229 -20.2059 16.6524 0.131957 0.0177742 -2.60693
2274 1 -6.05846 -2.53038 19.6698 -3.39617 -0.519161 1.94681
2966 1 -2.95255 -24.4565 16.3326 -1.47475 1.76442 0.415435
2277 1 -12.238 5.91729 20.6612 1.22001 -0.634857 0.349256
2279 1 -11.1115 2.16921 6.41068 5.04051 -3.19421 -4.51786
2753 1 -1.62734 -7.41264 13.2101 3.54334 -3.31399 6.53996
2312 1 -19.3267 -21.6684 6.41718 -5.83243 -3.22443 1.97901
2314 1 -16.26 3.2465 9.99651 -0.584148 0.0201988 3.31946
2316 1 -18.0509 -11.719 1.74955 1.04575 3.80306 3.46433
2331 1 -14.8747 -19.1341 12.0898 0.337648 0.498598 0.177052
2346 1 -0.641927 -22.5706 9.7285 2.11984 -2.43723 3.35983
2355 1 -8.33686 -0.75999 3.16967 3.14579 -1.46455 -0.5446
3643 1 -0.434538 3.62616 8.24416 3.19903 -2.18787 1.18252
3181 1 -19.5919 -16.8591 22.7183 -2.69071 -1.18097 -0.311612
397 1 -1.23689 -19.4503 18.8554 3.14754 0.641681 -2.2842
1511 1 -22.0996 -6.05662 15.5822 -3.37808 3.54786 -8.2243
2387 1 -9.00122 -6.2089 11.85 -3.93558 -8.15527 -3.04283
2391 1 -6.8246 -5.21442 8.61582 4.53719 1.6441 -2.19456
2397 1 -16.7385 -9.26323 20.9105 2.16935 -3.14681 -1.32214
2398 1 -8.9497 -0.260041 15.2327 0.589455 -3.28388 -6.06385
2399 1 -9.11467 -11.2675 10.988 -1.74201 -1.32395 -0.739161
2407 1 -10.7099 -11.5938 14.8424 3.77223 -0.932974 -5.2648
2422 1 -14.5279 3.17606 16.3022 -0.280894 -2.79417 3.47999
2430 1 -14.9114 -8.33625 18.4962 -4.33771 0.97767 0.280876
2436 1 -6.43206 9.523 18.5047 -0.281553 -2.72375 3.48826
2437 1 -13.4815 -6.95171 13.4387 1.02039 -5.68936 1.80013
2446 1 -2.06244 -7.35032 16.7601 4.33341 4.3172 -1.40738
316 1 -23.5874 -6.26749 3.22953 6.40792 1.0772 -1.10021
2453 1 -0.805966 7.72777 12.3985 -3.83422 -1.12906 0.574499
2457 1 -3.63709 0.879428 11.3947 1.39812 -3.39754 0.475154
3634 1 -2.99302 2.74043 7.8269 -5.17719 0.783406 -0.390574
2472 1 -19.8344 -0.28453 14.55 -2.11006 1.66587 -0.444829
3924 1 -10.3301 -8.80429 12.1455 4.23029 2.1571 0.80006
745 1 -22.1521 2.91108 23.6417 4.66125 -6.46144 2.06074
3461 1 -12.9816 -23.3493 18.2465 2.91308 2.95266 -1.28626
2486 1 -2.50971 -19.2937 9.16666 1.43979 0.375146 -1.73957
2498 1 -7.52676 9.53335 4.04219 -0.721233 -1.11077 7.18305
2499 1 -22.2091 -14.1236 7.93182 -3.8105 2.55239 0.0653226
2502 1 -2.3045 -11.6486 9.14321 -4.77574 1.55778 3.01492
2509 1 -1.95461 -8.46913 2.3503 -1.13428 1.32775 -0.345987
2749 1 -13.1878 -10.3099 23.5098 -1.6613 7.67877 3.58593
2517 1 -9.40535 -12.5969 17.2019 -3.23088 4.09183 -4.95612
2708 1 -11.3834 3.05405 21.3002 3.87794 3.47457 -0.218604
2532 1 -12.1962 -14.5736 2.68973 2.13399 -3.38049 -2.57788
2974 1 -23.2703 0.742147 20.3556 -2.62039 3.56437 1.53355
2546 1 -13.3133 3.20249 12.5214 1.93468 2.27039 -4.73554
2547 1 -13.248 -3.30932 4.7315 0.376534 -1.92713 2.0354
3642 1 -0.906523 -14.0352 8.12312 2.67733 -9.26829 -3.56159
2556 1 -7.25981 -11.9924 12.98 -4.4575 -3.7074 1.14037
2559 1 -17.4697 6.63087 7.5752 -0.211602 2.0534 2.13763
2561 1 -7.68729 -3.69931 12.5616 6.53729 -0.988513 3.9846
2579 1 -10.6778 7.97574 1.80833 1.82121 -2.90302 2.16858
165 1 -16.6604 10.9044 16.3154 1.63465 -0.467012 1.26432
3267 1 -18.3832 9.77358 0.563361 -6.9387 7.41371 6.06226
3876 1 -22.4897 -11.1092 20.762 2.10708 4.78198 1.467
2599 1 -6.30898 0.198246 6.65314 -0.101322 -0.000814087 1.31042
255 1 -23.1898 -23.1127 10.5188 -2.00715 -1.67493 -4.93877
2612 1 -12.3945 -20.7304 16.8301 -2.31403 -4.79401 0.523123
2613 1 -22.0712 5.92932 17.4784 -1.88743 -1.6628 5.06141
1048 1 -1.3106 -1.40737 18.0071 -6.92022 -0.507026 -2.04448
1359 1 -19.0797 -23.5765 23.8086 0.826204 6.02426 2.34897
3845 1 -2.4197 3.4501 23.4733 2.32656 2.81305 -3.77228
3686 1 -22.8724 10.467 0.16161 -2.15241 -0.287361 -3.0661
2629 1 -21.2192 -2.39615 6.26715 -2.46979 0.456257 -0.362363
2630 1 -12.8813 -9.90349 17.1704 -1.51574 0.199634 -4.42429
2636 1 -13.386 -18.9859 14.7018 -2.35493 -0.661384 -1.54309
2642 1 -5.38138 -15.4791 3.37832 -1.06963 0.89773 -3.93984
2647 1 -11.5082 4.48278 4.2541 2.38594 3.18239 2.01467
2650 1 -5.98524 8.36998 12.7596 3.26137 -0.167211 -3.39645
2651 1 -19.6119 -17.9513 14.7975 -4.65163 0.355459 -0.0222049
42 1 -12.3794 -16.2316 0.512281 -5.4585 0.75548 3.44695
2657 1 -9.75371 -5.61276 6.16268 5.21346 -1.30231 -4.46065
2658 1 -4.33821 0.546524 15.1385 -1.30877 -3.39693 -3.45369
1562 1 -1.78294 -3.8288 1.08201 1.44451 5.62541 -0.133542
2663 1 -8.95893 8.64511 19.2207 4.60094 -1.30736 0.971131
93 1 -18.0779 -24.3682 18.1469 4.11022 -3.30186 -5.50915
1631 1 -22.5054 -20.0622 7.73822 0.787453 -0.45788 1.27324
2682 1 -21.4843 1.90336 15.1754 3.57205 1.03421 -4.5146
1742 1 -0.910143 -5.90306 20.7409 1.81053 1.23203 -0.619392
64 1 -9.02555 -1.62714 0.482016 5.68623 1.38322 1.34199
2694 1 -3.00553 -16.9603 21.7729 3.10903 -6.97277 -2.27302
2700 1 -5.44333 -18.6307 3.38952 -4.12559 -1.19622 -0.409024
420 1 -0.455597 -2.75021 12.2472 -4.90098 2.5161 2.08093
2707 1 -9.41477 -15.0552 2.87048 -1.72939 5.79432 4.57213
2684 1 -24.0989 -12.0456 4.23089 -0.211273 1.65607 2.44393
406 1 -5.68085 -18.5754 22.8564 2.2516 -6.65719 -0.834084
2724 1 -5.42266 5.6036 6.99937 1.05998 -1.17966 1.0516
2730 1 -5.0653 -19.0773 11.162 1.49252 1.32749 -6.61166
2538 1 -6.41007 4.68093 23.5089 -0.6339 2.34934 -0.987637
2738 1 -7.66566 9.39084 15.1394 -6.36341 2.23343 1.45032
2739 1 -11.468 -9.01306 19.3113 5.51016 -3.36487 -0.403843
2741 1 -7.19782 6.3865 4.50325 -3.82854 5.14083 2.98233
1661 1 -19.106 -3.39309 16.9792 5.57696 3.65362 -1.55616
430 1 -21.7932 -4.48881 23.5754 1.2354 5.9743 -2.16441
999 1 -22.0636 7.29488 9.28827 5.46421 2.22042 -0.413107
2759 1 -16.7788 -15.6121 9.0261 2.27461 -2.77416 5.10797
2761 1 -8.39122 -14.1834 19.6551 -1.90457 -0.667544 3.64737
2762 1 -9.39591 8.67532 6.18499 -2.01347 -0.735539 -1.85738
2763 1 -5.73827 -13.546 18.5134 -2.60315 5.81652 -0.69575
2775 1 -3.0342 -19.4358 16.3092 2.12244 1.84649 1.90166
2792 1 -7.23813 -4.51068 2.84431 3.0044 -0.981537 -6.69384
3695 1 -7.98189 -4.16025 0.107979 0.0840249 -0.928934 -3.47212
2566 1 -22.838 -12.3423 13.1045 1.89698 -0.963818 0.922788
2822 1 -14.7677 -3.91251 2.37912 -1.97002 1.40504 1.14762
2830 1 -21.417 6.05072 2.61425 -3.70697 -4.5628 -0.203643
2833 1 -22.4939 1.14325 5.65669 -1.50368 4.75231 -3.54498
2834 1 -9.12327 -18.4503 20.8595 -2.8826 -3.70296 -4.09128
2846 1 -23.1734 1.64804 3.01728 0.69333 -0.921435 0.959487
1045 1 -6.89517 -3.89508 22.0975 1.68275 -2.40394 5.34963
2860 1 -20.8936 7.52205 21.1268 -3.15771 -2.66602 3.20786
2869 1 -18.3067 -16.7386 18.9456 1.01921 4.40248 -1.13024
2873 1 -11.0112 -1.69975 5.75914 -0.815519 4.08495 0.755847
2880 1 -5.00909 -2.96763 12.8154 4.07715 -5.1161 -1.29773
2882 1 -20.9526 -14.294 21.671 3.09571 -0.339241 -0.209721
3017 1 -11.6416 7.89342 22.7191 5.35573 2.61541 -0.897941
2894 1 -7.64936 6.43283 15.3777 -3.08568 -0.43116 -0.632717
2896 1 -10.3138 2.95977 17.1883 1.57367 -6.48643 0.780051
2899 1 -5.38443 -19.5422 18.3218 1.88401 -2.2397 0.948007
2903 1 -11.7791 -11.9551 4.01609 -0.388132 -3.97905 3.93351
2910 1 -14.3339 6.73198 18.8033 2.49133 -0.772873 2.0225
2917 1 -11.1249 7.3986 4.39636 1.66881 0.926462 -5.76591
2923 1 -12.8238 -1.02204 19.7271 3.06081 0.76828 0.84047
2954 1 -14.8089 -3.77605 7.14027 0.0438787 -0.726238 3.19241
2592 1 -1.90057 -16.5096 10.139 1.47847 -1.22259 -2.12936
3873 1 -3.94637 7.02784 14.527 -1.33027 -1.71449 2.4056
2969 1 -4.27919 -1.08511 17.6099 2.96288 2.52924 -2.40078
2981 1 -13.4367 10.1082 16.0125 0.925398 4.60135 -1.21848
2982 1 -12.2219 -6.14293 5.10494 -5.16069 -1.61673 7.85302
3785 1 -3.48057 -22.9016 22.2958 -0.903362 -0.697338 -0.0582086
2985 1 -9.71706 -13.6198 12.8734 2.4134 4.27584 4.38502
2997 1 -6.00919 -17.432 6.94617 -2.36848 0.899178 2.99551
3390 1 -24.1821 -24.1412 15.0754 2.60413 -0.875528 -2.15722
3009 1 -14.6134 -23.2254 9.14798 -2.20226 -2.23058 1.42636
1515 1 -6.69913 -23.5626 20.7871 1.23741 -1.43546 2.1626
59 1 -18.5165 9.8956 18.4545 3.43769 -0.434322 -0.86861
3019 1 -18.6824 -21.2629 10.1518 -1.30021 2.26666 -0.190277
3020 1 -11.1634 -10.5349 7.46848 8.03008 0.478531 3.58103
3033 1 -13.3115 4.0142 6.66305 1.77233 2.53692 4.84358
1940 1 -18.7625 -22.2243 3.50738 -0.526109 -5.07631 4.3992
4000 1 -16.0363 9.27011 22.7373 -2.02501 -1.21499 1.54182
3074 1 -7.83889 -7.60804 6.07512 1.01101 3.91899 0.154284
3081 1 -19.1507 6.97739 5.50108 -0.114931 2.87968 1.76176
2438 1 -5.70627 -24.3713 23.4664 -0.127597 -2.28284 4.17489
545 1 -23.4722 -16.9008 11.9749 -4.46253 -2.94719 -3.48906
2622 1 -1.28843 -19.4437 21.7406 3.0842 -4.45816 3.42285
3091 1 -4.48142 3.27857 21.5311 0.508209 -0.992299 1.93646
3092 1 -8.52359 -8.40294 22.7352 3.30793 -0.307223 1.18258
3098 1 -9.64563 -18.3324 6.55472 3.2054 2.50246 1.56941
3869 1 -6.73715 2.88789 7.35365 -2.05722 -1.45381 -2.09335
3104 1 -18.0434 -8.90982 5.55744 -3.86756 0.753771 -2.14714
2537 1 -1.10056 -24.1522 13.9817 4.98819 -2.74578 -4.29672
3119 1 -4.6022 -10.9849 3.86176 4.47071 -3.38709 -3.17852
3907 1 -21.1013 0.757046 10.0196 -3.78172 -2.61117 0.974767
3129 1 -2.77844 -14.8671 13.4161 0.806374 0.43709 -0.143615
3136 1 -15.885 -20.3424 5.86257 0.42007 5.34362 -5.01674
3903 1 -16.6393 -13.2246 4.61932 -4.1249 3.95472 -1.38317
2930 1 -21.899 2.68793 0.616139 -1.39998 0.241158 2.61189
3164 1 -20.5552 2.89483 21.1322 3.35116 -0.253684 -2.67353
3168 1 -15.3748 -21.1044 17.0737 -2.72817 -4.00426 -1.68763
3172 1 -6.64286 -2.92804 6.79321 -1.57781 -4.61626 2.51988
3943 1 -18.8758 -19.5938 2.06123 -0.282597 -2.87314 0.785431
469 1 -22.4769 -15.2719 14.052 -1.00464 1.31832 -0.520745
3187 1 -19.0062 -15.9346 2.32066 4.73043 -0.14598 4.80564
3194 1 -17.3303 -8.02707 1.85042 -2.40014 3.66949 2.02625
628 1 -21.1409 -16.1965 0.38509 -1.73322 0.958114 -0.692612
3197 1 -5.28672 10.3131 6.03435 3.14726 2.86839 0.0608539
3201 1 -17.0015 -3.24743 19.3364 3.69505 0.195939 1.40671
3204 1 -14.3279 -9.9807 10.7367 1.87204 -0.469837 3.93494
3220 1 -3.5126 -11.9832 15.5392 -2.73722 -3.39532 0.03871
1967 1 -15.4725 -23.9847 17.0384 1.91618 3.10123 0.444114
1393 1 -2.05548 -2.96927 3.82113 6.36356 2.43998 2.83103
3225 1 -10.1248 -7.44138 15.4208 1.0998 -1.06484 -2.13805
691 1 -0.904242 7.08929 15.164 5.37418 0.0016897 -0.739912
3239 1 -12.9244 -19.0845 9.22554 2.28492 -2.57895 2.39942
3257 1 -8.91963 4.99169 21.9513 -1.9669 -2.75715 -2.05974
3258 1 -19.3477 -5.48064 22.0396 -5.83512 -3.4278 -0.147906
607 1 -1.84475 -2.7633 15.5018 -4.97177 -1.19398 -4.08394
3277 1 -1.54072 -15.9367 6.01924 -0.442643 3.6682 -0.275224
3281 1 -3.29344 -11.943 12.4948 -0.446436 1.98147 0.45303
3283 1 -5.42493 -1.28678 10.5146 -0.52141 -0.731978 -3.80588
3287 1 -5.93654 -16.1303 17.3945 3.76684 0.976898 -5.51384
3070 1 -23.6922 -6.79244 0.648234 -1.39168 4.43528 4.44532
3296 1 -17.2121 -15.8448 16.3924 3.82386 -0.0689491 3.96125
3302 1 -18.5348 -10.5425 18.9496 1.38133 -5.0042 2.06935
3861 1 -17.0349 -15.4404 22.5422 -4.08776 2.70061 1.24984
3312 1 -21.8368 6.72683 14.6722 -0.460292 -2.01368 3.49798
3318 1 -9.39456 0.260057 18.0394 -5.34564 0.953235 1.82341
3321 1 -10.9372 -19.0582 18.6315 -2.06264 6.13299 0.834318
3332 1 -2.25633 7.97499 22.0405 -0.757162 0.859665 -2.96879
1931 1 -7.50454 4.93542 0.464363 -0.892998 -1.13802 -5.28882
3348 1 -9.51116 -19.4293 3.83375 1.31264 -0.14225 2.98994
3350 1 -3.47766 -8.97291 14.8137 -3.15898 2.07144 1.10131
3351 1 -19.8925 -12.9153 16.4788 4.48867 -5.09717 -1.04698
3353 1 -22.7129 3.83599 19.4919 1.3798 -1.99162 -0.565219
3360 1 -7.38001 -21.5557 18.9449 2.53846 -1.24576 -8.21064
3371 1 -9.6618 4.1391 13.2334 -1.32114 1.15585 3.23711
3376 1 -14.3072 6.99381 12.7054 -4.8909 -3.45986 0.713603
3983 1 -19.1878 7.50604 11.6264 0.102424 -1.46249 3.74459
3387 1 -19.5603 -4.0951 2.78626 1.41339 2.34429 -1.68755
3388 1 -19.4386 -5.98238 14.4577 -0.54626 -1.59059 -1.43882
3391 1 -7.61678 -13.7766 4.38587 1.98661 5.85481 -2.79823
3394 1 -10.5162 -0.0756141 12.6012 2.11045 -1.44842 0.0154656
3397 1 -4.23159 -1.06434 21.5648 1.74783 2.547 4.07285
416 1 -23.2743 2.21044 13.073 2.4255 6.84296 8.43447
3409 1 -3.53139 -17.3105 18.7966 -2.06564 0.788124 3.10683
3410 1 -18.5071 -11.0866 13.0987 5.02877 -0.477435 1.04006
3411 1 -5.84475 -7.70488 22.4574 3.29694 1.76934 -2.82747
3417 1 -18.9077 -11.9842 9.28084 1.66723 -0.334526 -1.48231
3419 1 -9.60825 -7.9324 2.26129 -4.87647 -2.75959 3.38734
3420 1 -16.8735 8.99181 8.72408 -3.84262 4.12908 -2.71853
3423 1 -12.625 4.0026 1.59809 1.71509 0.411177 -1.88024
1296 1 -0.602113 -12.6671 5.37985 -4.45006 -4.04666 1.99364
3426 1 -20.8944 -6.08942 4.069 1.16674 -2.897 1.8174
3430 1 -14.2536 -17.2715 19.5082 1.02737 -0.886279 -1.34493
3432 1 -1.7363 9.42365 8.60925 -4.509 -2.99833 -2.27864
3436 1 -3.22485 9.70905 15.5723 0.672114 -2.36012 -1.98406
1536 1 -6.87676 -0.824777 23.207 -0.343708 3.54134 1.95714
3442 1 -5.40607 -0.300249 2.98376 5.36917 -1.39797 -1.21471
3448 1 -20.0951 4.35301 14.5733 -1.93628 -1.80151 5.18763
1103 1 -22.2532 9.46755 15.6686 -0.714183 -6.14068 -4.70547
3464 1 -17.7712 -22.3837 13.7608 1.15529 0.348564 3.55482
2643 1 -1.60347 -15.1947 23.3914 -0.215226 -2.15486 -0.915617
3555 1 -23.0194 -17.7899 2.09029 1.96773 -4.07662 0.994654
3105 1 -24.0466 -6.94058 19.9401 -4.93528 -1.71963 -3.8169
3490 1 -16.7072 1.74615 5.54136 7.40786 2.8837 -1.44437
2265 1 -1.47477 0.299195 21.3555 0.445617 4.60784 -1.2993
2711 1 -11.7407 -5.66289 23.372 2.46411 0.494333 0.295051
3510 1 -12.331 5.31837 14.0885 0.621481 -1.22741 1.95655
3512 1 -20.4814 2.90302 3.11906 0.994637 -2.25041 -1.68654
3519 1 -4.20504 5.24947 16.9709 0.626283 -0.795615 2.19602
3520 1 -6.87782 -16.5385 20.0028 0.491936 -1.61208 -5.93549
3523 1 -13.0418 -21.3123 10.9832 2.81048 -0.419584 -3.60662
1928 1 -24.0104 -2.84171 5.85205 -0.719147 -3.50496 2.76051
3549 1 -14.7117 8.95937 2.72545 -0.934122 2.05581 3.76901
3556 1 -10.4757 -15.7903 21.0338 1.53296 1.55791 1.40713
3566 1 -8.6855 -15.5247 6.50225 -1.21132 -3.14412 -5.03943
1586 1 -15.9855 -19.6367 1.38081 2.34631 1.01556 2.45599
857 1 -20.6888 -7.01734 8.78427 0.852253 1.0828 0.637387
515 1 -2.76445 7.52794 17.7926 -1.34667 1.49273 1.21771
3595 1 -3.8198 -14.5525 8.85828 -0.526257 1.12143 3.80243
3603 1 -4.40622 -4.15972 10.149 1.4236 -3.11353 6.10117
3607 1 -17.269 5.6244 19.6048 -0.788564 -2.30665 4.39729
3616 1 -9.68018 -13.9573 23.2131 3.27913 4.08082 2.04139
3629 1 -1.00677 1.58822 1.32935 1.55661 0.651967 2.12703
3632 1 -13.1883 -16.1659 16.0173 -1.97955 3.25054 -3.07913
3863 1 -12.5051 -2.47907 12.704 -0.290094 -1.31662 3.48331
2933 1 -23.8367 -4.6166 12.6664 0.841852 4.1215 -6.53424
3651 1 -11.8808 8.67541 8.53261 2.99743 0.414814 0.933734
553 1 -12.3019 6.35582 0.100693 3.85565 4.38462 3.24296
3668 1 -13.9608 -3.89613 20.119 0.363999 -0.547228 -4.86131
3979 1 -8.89057 -22.8516 4.6762 3.29098 -2.66223 -0.02764
3737 1 -2.63654 8.99311 1.49294 -4.37207 5.12723 0.576332
3678 1 -18.4512 8.20877 16.0888 0.243904 -1.22653 -1.18119
3681 1 -6.8922 1.49941 13.6944 -2.59782 -1.75065 -0.646078
2815 1 -23.2235 8.1513 7.03787 2.6537 0.44087 0.746027
324 1 -23.6903 3.43054 6.82611 3.52273 1.91023 1.18601
3698 1 -19.1856 4.57185 17.2629 2.32476 -3.04125 1.70442
3699 1 -8.95393 -3.35658 15.216 -0.944081 -2.01269 -4.84836
3710 1 -5.242 -9.21807 17.1137 -1.89195 -2.08592 -0.569686
3714 1 -10.7717 -1.53223 22.0158 0.94248 3.1538 6.16434
935 1 -23.6301 -9.58937 0.336278 -4.73916 1.35479 2.15334
3738 1 -5.98578 -7.03798 15.2356 1.90074 0.314385 2.1117
1421 1 -23.1406 -9.06793 6.10448 -3.37674 0.982357 -0.0906761
2153 1 -9.93973 -10.5252 0.626179 0.102531 0.111037 2.02691
3754 1 -9.91461 4.71584 7.94767 0.00654587 1.32935 -0.0917117
3767 1 -11.4452 -19.6695 1.49923 -3.79843 -0.818328 4.24489
3769 1 -20.3448 -18.5282 8.81581 3.67994 -3.1049 0.447629
3770 1 -5.48331 -7.49821 7.50693 -1.95999 -2.16428 5.02686
3779 1 -8.90411 0.859777 8.33892 -0.614564 -0.407371 0.683396
3781 1 -1.85285 -5.36147 7.61256 1.24956 1.12909 1.1385
3792 1 -7.56714 -11.6739 8.47868 5.44107 0.275155 1.42882
3797 1 -11.4333 -12.3699 9.66189 -0.893835 -0.720567 -0.55678
3810 1 -16.4943 -3.21675 14.4015 1.92166 0.0833499 -0.939381
96 1 -24.3173 -16.2266 22.4588 3.39632 3.09623 3.38842
3816 1 -13.398 -9.88652 3.17419 -0.812885 -0.973491 2.34419
3844 1 -20.3757 -15.1545 5.85098 1.46198 -0.958747 2.83663
1176 1 -0.714028 -11.0178 15.5987 0.51358 2.17868 -1.24575
2108 1 -13.7522 8.86568 0.107211 -4.06616 -1.9666 3.23929
2635 1 -1.23712 10.6016 19.7901 -0.784445 1.34212 1.35865
742 1 -8.20698 -22.858 23.5839 -0.411021 3.69272 -1.66388
3195 1 -18.8227 -1.11989 0.053103 -4.697 1.35182 0.282632
1267 1 -24.1142 -14.6282 3.27885 1.96868 0.240603 -3.32621
3314 1 -0.510386 -3.29802 9.3059 -1.54828 -2.10107 -3.46489
667 1 -21.5917 -20.3773 23.8535 -1.83981 0.900213 2.71299
3913 1 -9.11572 2.55451 0.337943 -1.58327 -1.46192 -0.731394
1519 1 -9.68131 -18.0615 0.0729179 -0.823129 1.76498 2.22121
842 1 -5.46166 -23.0216 0.0870368 0.570575 0.00797298 1.72486
3998 1 -13.0584 -2.98605 0.262925 -1.25003 -2.25091 -2.89807
3014 1 -23.6318 9.47117 23.8657 0.546752 -3.32397 -3.81599
959 1 -13.3949 -19.6831 23.8189 -1.66393 -2.26809 -0.0196817
2415 1 -24.0138 -24.1926 23.9519 0.667166 -1.11667 -3.25991
1409 1 -1.40559 6.00399 23.9047 -3.83257 2.32528 -3.34156
814 1 -19.9602 -3.99787 0.0784254 5.9356 1.04074 3.10144
1927 1 -7.31994 45.7673 -20.7154 -1.17642 -0.889695 1.02982
36 1 -13.4426 19.2671 -17.9289 2.22671 -2.6062 1.42416
45 1 -11.7398 12.6164 -3.97092 3.69142 0.148355 -1.28487
1034 1 -13.7706 13.4257 -7.83278 -3.3825 0.469979 2.81109
67 1 -14.2139 23.2925 -10.9048 1.84246 4.62952 4.82479
1799 1 -10.4265 11.6567 -15.8027 0.00723511 3.72482 -0.243388
70 1 -16.6718 15.2509 -15.8707 2.9781 -2.86146 0.646002
3756 1 -11.7274 46.8494 -18.8464 -2.51249 -1.28982 2.81517
78 1 -20.0952 13.3373 -9.18919 0.588496 2.98694 -1.46131
80 1 -12.4089 12.6794 -14.0301 -1.52835 -1.67979 0.886649
1580 1 -17.2952 46.8804 -9.22761 2.42057 -1.4744 -4.56614
88 1 -10.7219 25.315 -17.5358 -2.70121 -3.18658 2.15727
109 1 -12.7659 16.5401 -14.7132 0.0668383 -2.29838 0.144399
130 1 -6.52728 18.0141 -18.186 2.07712 -4.7053 1.39755
154 1 -8.39882 20.2318 -6.50393 -1.77466 3.89276 1.8473
172 1 -20.2307 22.3238 -17.923 -2.04732 5.74676 -3.07266
176 1 -6.73607 23.0013 -2.80508 0.28877 -2.27983 -3.23501
209 1 -7.1 19.0623 -15.4359 0.337194 -3.23886 1.80052
3273 1 -19.3014 11.5553 -15.0891 3.54528 6.39004 2.43641
212 1 -17.8432 25.1804 -3.42804 -4.16534 0.358935 3.63809
4182 1 -2.13179 36.4546 -1.13423 -2.8857 4.30893 -4.16257
245 1 -8.341 25.5837 -10.5433 1.90415 -2.17149 3.41171
267 1 -11.844 18.0383 -10.2943 -1.21274 0.45233 -0.427536
268 1 -20.6055 21.1265 -11.3222 1.55372 4.42124 3.35575
210 1 -18.9984 12.7121 -1.27007 -2.09891 1.65534 0.567266
301 1 -7.22289 22.6179 -18.6533 2.47688 -3.28816 1.03996
1226 1 -23.105 14.473 -1.86656 -2.81586 -2.91852 -6.95283
374 1 -7.06349 18.2058 -11.0002 0.328925 -0.797311 -5.47234
2551 1 -6.8664 11.7329 -17.4634 1.70395 0.403694 2.57279
4205 1 -3.32462 38.9848 -1.73654 -1.62009 -2.25243 2.41548
2983 1 -5.06381 13.5322 -23.5122 4.65867 2.24051 9.00988
439 1 -3.46424 23.4084 -7.36769 2.97924 0.590848 -3.79151
440 1 -10.0338 14.3155 -12.8509 1.74211 1.09876 3.63185
489 1 -10.6208 23.6721 -10.6511 -2.61242 -2.64682 0.558128
2760 1 -1.16172 13.985 -17.4322 2.32688 3.16497 2.22127
521 1 -10.9464 22.9698 -6.4217 -0.992943 2.72616 -4.03386
526 1 -22.3421 14.3582 -4.70287 1.36076 -1.22328 0.310173
527 1 -5.59182 13.5083 -6.56157 2.95713 1.56253 -0.386249
528 1 -16.4914 15.3658 -10.9507 3.41889 1.38312 4.80191
556 1 -11.3782 16.3287 -1.94314 -0.181155 1.63776 4.5401
1068 1 -7.13998 18.929 -1.36951 -3.88242 0.959908 -1.87788
569 1 -5.70405 26.2287 -14.4291 4.90183 2.19466 2.40636
612 1 -5.90305 14.9192 -12.8697 6.14462 -0.634946 -2.54967
617 1 -12.785 23.9582 -18.7781 -2.70974 -1.76263 2.99151
621 1 -7.63755 16.9344 -13.6416 -3.3252 0.299136 -1.84944
4198 1 -2.2521 41.5696 -8.60999 -2.68743 0.568716 -2.18758
2506 1 -21.6252 11.2599 -10.5114 -0.53489 -1.36545 1.50217
682 1 -3.13907 19.0967 -3.33702 -0.141148 -0.243302 3.47289
1998 1 -14.9106 12.3465 -0.377119 -1.43815 -0.296334 -2.10663
637 1 -9.23481 46.9487 -22.4882 -2.3116 4.32788 -7.79333
724 1 -10.9102 20.4583 -7.73917 0.149405 0.279925 1.12296
728 1 -11.4128 17.7334 -7.43533 1.59477 0.171622 0.204341
731 1 -11.5348 12.8599 -22.063 1.46297 0.489002 -1.41996
757 1 -19.862 12.8669 -5.01585 -4.73351 1.12126 0.486788
4221 1 -3.44987 44.0813 -8.52829 -5.77758 -0.585666 1.71933
766 1 -7.91793 14.3742 -14.7568 2.17326 4.04172 -1.63308
4151 1 -0.641667 32.1537 -9.63503 1.42732 -2.25928 -1.53143
4170 1 -2.25518 36.6889 -5.67305 -2.05748 -2.01727 -0.649657
792 1 -22.8159 16.1893 -6.78923 -4.21716 -1.70633 2.59852
799 1 -12.619 20.4853 -3.20344 2.3067 -3.48324 -3.47219
809 1 -5.76876 26.5969 -17.6575 1.33281 -3.50809 1.82833
813 1 -14.1721 23.7213 -16.2608 1.42358 1.56459 -3.52877
3744 1 -20.4136 18.6137 -0.727533 0.135697 1.63339 5.91086
848 1 -4.51251 17.3176 -11.7581 -6.36261 -1.34183 0.392878
851 1 -21.692 16.7467 -15.262 -5.90473 -3.40971 -6.48026
855 1 -16.5488 22.9617 -20.3384 -1.06051 -5.36114 -2.38909
4230 1 -1.03359 45.2591 -0.856184 -0.174622 2.36785 2.96271
3880 1 -8.72548 19.7831 -22.2383 5.71478 4.01164 5.59946
903 1 -8.22996 25.5095 -19.1377 -1.37305 3.07236 -1.94528
912 1 -15.5803 20.7692 -11.0955 1.18388 -0.908838 1.7142
4088 1 -5.6374 39.0366 -0.355206 -2.17562 1.42834 -1.75925
955 1 -11.9923 21.2041 -19.3844 -0.123947 -1.62361 3.62401
963 1 -17.6631 23.3186 -12.8749 -0.53557 -1.0616 1.5095
968 1 -2.7093 23.3604 -16.0196 0.90934 -0.311479 -2.95175
984 1 -17.9558 16.6397 -4.33851 2.89233 2.89132 7.85375
1836 1 -9.97129 45.4694 -16.8919 -0.70614 -2.14822 -1.30816
1044 1 -8.16014 20.8383 -11.0912 0.329794 0.868824 -2.56726
508 1 -2.04396 19.3357 -8.68917 -0.188918 -2.72265 0.635498
1071 1 -18.5245 23.0289 -15.6683 -4.885 0.456166 -1.66204
4016 1 -6.35035 25.2127 -1.29586 0.865611 -2.35536 -3.28477
4218 1 -1.65358 45.9407 -4.83748 -0.500723 -2.18229 8.20352
604 1 -1.41267 27.4451 -23.8155 2.65547 -5.66942 -0.408883
1095 1 -11.1138 20.7934 -10.7905 3.50313 -3.39701 -1.21294
1122 1 -10.7667 22.6161 -3.40709 3.25009 2.12379 7.0666
1124 1 -3.35253 13.4197 -15.4276 1.08243 0.316307 -1.89298
1130 1 -3.61128 16.0351 -14.5158 -1.10592 -3.01889 -1.21985
1187 1 -14.3271 17.1994 -7.64822 2.44269 -0.240615 2.25541
1210 1 -4.38546 18.2507 -0.904175 1.12305 -3.63769 -1.68757
1232 1 -18.9158 16.6325 -21.5094 -1.26882 1.5332 -1.56967
1265 1 -9.75207 13.6205 -8.16274 2.67955 5.10794 2.24694
1277 1 -15.1377 21.0243 -4.66077 -2.02573 1.14563 1.54765
1279 1 -20.3998 16.7922 -12.8885 -4.23043 -4.29822 -2.00327
1292 1 -5.69833 20.2452 -3.90883 1.27638 -0.492732 1.46114
1311 1 -3.21592 19.6507 -12.6962 1.28735 -4.2814 0.148263
1327 1 -9.45357 22.1499 -20.5308 0.516939 -3.5268 1.54201
1330 1 -9.10646 16.0524 -7.37721 -0.581928 2.5026 3.55987
1335 1 -14.9119 23.2928 -13.6719 -1.94833 -5.09767 3.22741
1161 1 -7.83504 46.9365 -17.9481 -5.74019 -2.13746 -0.157438
1400 1 -12.4852 15.4135 -22.837 -2.16591 -1.12453 -1.5064
296 1 -2.662 15.9155 -2.79353 -3.44043 5.63854 -1.19121
1420 1 -11.7484 19.7218 -21.8866 0.10663 0.25992 7.47232
2172 1 -1.67018 21.6471 -4.15521 -2.39482 -0.8146 1.54982
1465 1 -22.6923 21.9326 -14.2428 -2.4207 1.10598 -4.74965
1476 1 -20.3316 14.3268 -20.8572 7.45823 2.78672 4.1084
1855 1 -0.722293 22.2622 -17.6431 5.36567 -2.75406 -0.771176
4040 1 -6.55248 29.5754 -1.27577 0.835629 0.424733 -3.98947
3408 1 -17.7045 13.4399 -23.4401 0.403122 4.28618 -0.60541
3524 1 -1.50186 23.6582 -1.95874 0.730949 -3.14808 -4.42875
1537 1 -4.51861 24.0096 -18.0325 1.27888 -2.25062 5.27417
1544 1 -5.34201 20.4786 -17.5056 -1.86789 -1.85612 5.18044
1553 1 -9.32661 18.397 -17.0565 -0.637212 0.251352 2.941
1565 1 -9.73653 16.928 -11.7203 -4.15041 6.95422 0.514679
1579 1 -5.49133 15.1774 -4.3483 -1.79167 -1.41931 -1.06295
770 1 -5.83244 23.2207 -23.2187 -3.99036 0.616589 0.458062
1610 1 -14.0047 20.4578 -13.5972 -1.36588 0.821748 -3.50611
1637 1 -4.14595 22.7769 -4.36599 -0.172176 -0.717653 1.30681
1643 1 -7.046 21.5769 -8.73573 -3.13383 1.87866 -6.99842
1496 1 -2.93924 11.37 -10.0941 0.29756 2.19833 3.12443
3653 1 -1.43039 16.694 -0.151132 -0.290373 -4.27002 -0.488712
1734 1 -8.84725 26.0734 -21.5897 0.0245667 1.27024 1.37558
1764 1 -13.9551 14.8522 -12.5834 -2.88749 0.879993 -1.84068
1803 1 -18.4325 18.027 -8.72196 1.13485 0.601841 2.20941
1817 1 -2.29673 16.3198 -19.198 1.53428 -6.27026 1.79285
4173 1 -4.48415 34.7407 -9.34245 2.35139 -0.746659 -0.676471
1899 1 -8.78013 18.7006 -3.85449 -2.41058 -0.0497726 -1.48385
1933 1 -5.31195 21.991 -20.8487 0.950132 3.03273 0.280555
1947 1 -17.2024 13.331 -13.8432 3.1379 0.105066 1.87773
2002 1 -22.2648 24.6262 -9.41236 0.563658 -4.07014 3.81961
2007 1 -11.2364 13.5457 -10.4759 0.346617 -1.69293 -2.8794
2987 1 -23.5998 45.3837 -9.06568 3.81228 1.79928 -4.49769
2062 1 -20.4691 19.8283 -6.35172 1.04064 3.89126 -3.2313
2076 1 -14.464 24.1619 -8.10043 3.02454 -0.471557 -1.8391
2154 1 -10.0482 17.034 -21.6561 -1.25436 1.25264 0.593025
2092 1 -18.9101 23.4946 -22.2071 -0.848673 -3.31025 8.0393
690 1 -0.838395 22.9636 -6.744 -0.458023 0.419816 -2.90097
567 1 -23.0599 19.0002 -7.11188 -5.37314 -1.34028 5.70601
2156 1 -21.1946 19.4414 -9.24519 -4.21989 6.52179 0.99038
2166 1 -15.3977 19.9529 -16.0192 -1.30576 -1.40056 -1.10851
1083 1 -2.65102 20.2112 -18.8585 -1.86939 1.74425 -1.63548
2224 1 -17.5034 14.0615 -5.89154 -3.04215 -6.83825 2.12496
2232 1 -23.3585 23.2565 -16.7056 3.3238 -0.282485 1.10742
2249 1 -13.8786 14.0815 -16.3566 2.30042 -1.25999 -3.76535
2258 1 -8.03479 16.1893 -19.7839 -4.33473 1.51026 -1.53565
2275 1 -12.1336 23.779 -13.0183 -2.66829 3.48916 -4.04864
2768 1 -9.1277 21.7617 -1.37751 -3.04275 -1.7963 -4.2414
2289 1 -1.62685 13.2254 -22.1088 5.02667 -3.38273 0.211738
2303 1 -14.0638 17.7798 -12.3734 0.00597111 -0.595293 4.85541
4064 1 -6.00897 34.3155 -0.709001 -2.38581 1.79992 -1.34593
3506 1 -23.7808 19.9508 -4.4192 0.608652 -3.13941 1.4209
2382 1 -11.7075 17.0563 -17.4567 -2.0093 2.80493 -1.14457
2401 1 -18.937 23.3121 -5.18373 1.08824 -1.54622 -0.218903
3480 1 -24.2924 22.7755 -4.64198 1.56803 -3.12101 5.72613
2431 1 -22.2481 17.2653 -10.8443 3.41661 -2.45937 -2.91526
1828 1 -13.144 45.2693 -20.8211 6.78146 -1.52937 0.820871
2459 1 -19.3682 15.7575 -7.3136 -6.25757 1.06569 3.08555
2461 1 -20.872 17.2008 -4.98069 3.94182 2.47059 -2.52765
2471 1 -1.75741 23.8495 -22.1457 -0.645221 2.38131 -2.11168
2533 1 -15.1509 24.6172 -2.28337 2.31766 3.62824 4.9169
4181 1 -3.54809 34.3491 -2.15329 -2.66911 0.871624 -0.389922
3052 1 -20.9877 12.661 -13.0829 -2.38742 5.66438 -0.131085
2570 1 -22.6459 15.429 -19.1091 -0.256201 2.23891 -3.57766
1880 1 -2.73328 22.7673 -19.9062 0.687044 1.70391 -1.49976
384 1 -11.6514 12.0144 -6.72167 -2.52621 -0.476874 0.0703859
2611 1 -22.8567 24.5946 -21.0178 3.28574 4.68257 -1.78266
2614 1 -9.40403 15.0357 -17.3702 1.47998 1.71781 2.84189
322 1 -13.444 14.8063 -3.67836 0.924806 0.824003 2.52898
2623 1 -21.0425 17.727 -23.0294 0.928298 -4.51413 0.669064
2624 1 -20.7437 19.884 -3.4143 -2.526 4.17028 -5.67375
32 1 -8.88564 12.3369 -22.6802 -3.11366 -2.51647 2.48681
2649 1 -18.0421 22.1438 -10.4919 -0.759672 -0.174599 -1.57063
2699 1 -18.1925 15.2993 -1.71333 1.6591 0.891767 5.41131
2702 1 -6.32513 19.1949 -20.9734 -0.997068 2.56946 1.65746
2722 1 -11.4572 17.9117 -4.46061 -1.29633 -0.47731 1.45291
2750 1 -14.4111 24.7515 -20.8857 -1.66042 -1.56081 2.96951
2752 1 -11.1986 20.9212 -13.7343 0.339083 2.05539 -3.32005
4193 1 -3.39914 39.075 -4.85553 -5.11659 1.17062 -5.47472
2848 1 -18.7543 45.8142 -11.2836 -0.974018 -3.38538 2.86829
2772 1 -14.1213 18.6332 -20.6717 1.15496 2.07438 4.96646
4206 1 -1.42921 40.9264 -0.70768 3.37451 4.59759 -0.972514
2804 1 -19.1181 14.396 -11.9405 0.901737 1.64615 -3.42932
2806 1 -4.56688 21.5031 -14.8925 4.95928 -4.9987 1.73549
3041 1 -21.6871 22.8195 -3.42571 -2.9081 -5.42431 4.84834
2836 1 -14.1099 17.1896 -4.7962 -1.32397 -2.48385 -4.27115
2866 1 -21.2767 22.3714 -6.57076 3.06372 -2.04245 -2.22462
2867 1 -18.4089 18.6504 -12.9931 1.10889 -4.64426 2.6806
2870 1 -13.0674 15.5479 -9.71562 -1.95361 2.00115 4.33927
2878 1 -19.9025 20.9194 -14.0351 0.90536 -1.12663 -0.615283
2881 1 -16.7848 14.5946 -20.9799 -2.14474 -1.12637 -5.04946
4013 1 -12.3549 24.8469 -1.63177 -0.508348 -1.57727 -2.50971
2904 1 -7.42503 13.5991 -1.26653 -1.27318 -0.147698 -0.274689
2907 1 -17.0579 22.96 -7.67317 0.828898 -1.71316 -1.4237
394 1 -9.14703 11.6856 -3.45585 4.90324 -1.92092 4.20336
4222 1 -2.10642 46.2381 -7.51398 4.18255 3.67854 6.16365
2959 1 -18.1429 18.9588 -19.9711 3.23567 -0.549563 1.62447
4229 1 -2.68681 43.308 -1.74072 -3.56566 3.37269 4.50458
2976 1 -20.8728 19.258 -16.3355 -2.89192 1.4893 4.28392
789 1 -15.9859 18.788 -0.656102 0.761105 3.44132 -2.3958
2986 1 -4.53866 17.7807 -22.7092 -1.36695 -6.09118 -1.28649
4197 1 -3.75327 39.291 -9.09384 2.44898 1.57569 -1.7971
3021 1 -20.2197 24.4015 -1.7872 2.46065 -1.64114 -2.71814
3030 1 -16.737 18.2977 -10.9783 -0.0192866 1.56107 -3.11661
3044 1 -8.17914 16.0168 -4.73435 -0.0550729 -2.90491 -5.64644
1180 1 -9.141 46.1343 -9.92091 2.29514 3.13565 1.91453
3060 1 -23.798 23.4367 -7.53352 -2.52536 -2.17695 -3.00672
3061 1 -10.0034 24.4201 -14.952 6.99401 -3.21037 -2.90987
3062 1 -5.77651 14.229 -16.8965 4.82297 -0.450828 0.50113
4217 1 -2.96262 43.5647 -4.4286 -1.9944 2.48314 0.98356
1516 1 -10.4386 23.942 -22.7846 -1.88845 -3.53562 -3.19703
3115 1 -17.4646 18.0078 -15.5183 -0.151551 2.87363 0.805873
3824 1 -8.99686 46.7669 -5.91325 2.21032 -0.272144 -1.19131
644 1 -6.28232 12.4194 -3.74565 -2.65262 -0.222562 -3.29282
3133 1 -2.70958 16.5259 -9.56919 1.66925 2.77769 0.354062
3152 1 -14.3222 15.882 -20.8186 -3.77401 -2.58243 2.5175
3165 1 -6.71634 22.1575 -13.1435 -1.01591 -3.54023 5.93072
3171 1 -6.06078 14.3582 -19.9764 1.74621 2.73588 0.579583
1074 1 -9.41247 12.308 -18.3403 4.24781 -3.18498 4.30569
3185 1 -16.2555 20.3064 -21.5257 -0.468909 -1.98452 -5.88333
3188 1 -22.5004 14.9421 -9.31882 5.10243 -4.58603 0.813266
3190 1 -22.8034 20.7487 -17.756 -5.74887 -0.647525 3.4914
3218 1 -4.26422 20.923 -8.54226 2.45547 2.5209 -1.38666
3226 1 -22.7889 22.8883 -11.3741 -5.8196 3.44899 -1.05772
228 1 -13.0776 19.7457 -0.47015 -0.110731 0.946361 -1.89234
587 1 -21.2365 46.265 -10.1916 0.354784 -1.62333 8.67479
4014 1 -10.7317 27.1452 -1.04095 3.01046 -1.11586 0.894261
3256 1 -6.83071 16.9079 -8.58857 -1.62809 0.735038 2.88483
3299 1 -15.4083 24.0413 -5.09711 0.262969 1.60175 1.22306
3308 1 -18.0259 20.8431 -4.02749 0.240282 3.24403 1.68193
3330 1 -8.62516 21.6673 -15.0525 0.276951 4.13593 2.92021
2458 1 -23.1341 22.4783 -1.02854 -0.00265391 -2.29359 1.83184
3383 1 -21.701 24.5819 -18.4659 2.39048 -5.65324 3.59356
3393 1 -12.9808 14.6424 -18.8057 -5.14534 4.49251 -3.90751
3116 1 -13.7602 16.6704 -0.293244 0.368141 2.25451 -0.277065
3435 1 -3.18132 25.339 -14.0289 -0.556826 -1.00832 1.41193
3462 1 -13.3705 21.73 -6.92855 4.91525 -0.240736 4.05945
3532 1 -7.6854 11.7628 -7.69729 1.25355 2.32102 -0.133355
3499 1 -20.8607 20.0817 -20.1713 -4.57296 0.822011 1.83386
3501 1 -17.3118 19.8897 -6.93772 0.272994 0.715886 -0.267856
3502 1 -8.35443 22.7638 -5.1337 -2.14427 2.01688 1.47788
244 1 -20.5891 12.615 -23.1638 1.70927 -0.304218 -0.256198
3514 1 -4.45598 21.8772 -11.2895 0.234294 0.522453 -1.15375
1054 1 -17.482 23.7246 -0.611664 -0.575031 2.54106 -1.4659
3174 1 -23.9365 13.0242 -10.9221 -1.90179 0.955275 4.30498
2295 1 -13.5848 11.5069 -23.6596 1.77262 -1.52742 -1.56098
3543 1 -16.2464 15.1493 -8.09436 -2.97095 0.643299 -3.57745
834 1 -0.846191 12.3478 -2.79945 0.550738 -0.887848 -2.40946
3553 1 -9.709 14.5461 -3.27651 1.61162 1.22354 -1.20776
3560 1 -18.1834 14.5841 -18.4354 -1.51376 -1.63993 -2.6145
3600 1 -19.7649 23.8271 -8.46594 3.98153 -0.771122 -1.64997
3611 1 -16.2078 22.3779 -17.5076 4.56812 -3.0817 -5.01598
3612 1 -3.52542 17.2479 -5.36777 -0.0936953 0.210311 -0.896319
3620 1 -5.0174 14.8464 -9.02898 -0.111102 -0.436238 6.95565
3655 1 -7.81756 24.8436 -13.3501 -0.641945 -3.13397 -0.137255
3675 1 -14.8994 19.8248 -8.46508 -5.60133 -1.99603 2.97903
3717 1 -3.73943 15.3125 -21.5343 4.25414 4.86167 -1.77206
3525 1 -16.8101 11.6876 -20.246 1.86917 -2.30823 -0.955002
815 1 -22.2666 12.2831 -17.5076 -1.27926 -1.24498 -5.45055
3725 1 -16.0186 18.5039 -3.39375 5.00688 -0.00532037 -2.05071
3719 1 -1.5999 15.5751 -6.83401 3.75052 3.90462 2.17865
3747 1 -18.8304 24.4565 -19.3831 -1.67888 2.58372 0.991911
3752 1 -20.7792 15.0519 -17.085 -1.51116 3.70375 0.287583
3791 1 -10.2962 18.0899 -14.319 -7.28433 1.22433 1.73739
3805 1 -4.34065 16.8328 -17.2554 1.16229 3.31841 -6.74355
3807 1 -9.32932 20.9515 -17.781 2.60061 -0.0765511 6.41605
3826 1 -2.98947 18.824 -15.5811 0.675359 -1.8594 -4.74276
3828 1 -19.0888 17.2452 -17.7423 0.275227 5.34855 2.13521
4169 1 -3.812 34.5295 -4.90698 -0.479094 -2.45684 -4.02528
3929 1 -2.56772 12.7933 -7.49949 5.96554 -0.442812 -4.56579
4194 1 -2.02849 41.1963 -5.70633 -2.34512 -1.1567 4.14053
3901 1 -14.8918 12.3285 -12.4115 0.363168 -3.54462 2.63473
3910 1 -5.85272 18.9255 -6.66599 -1.92181 4.53167 2.29822
4174 1 -2.60849 36.8141 -8.49648 1.14612 -2.65502 3.86889
3940 1 -2.92936 24.0783 -11.4699 -2.23587 -3.05751 -0.976387
3956 1 -15.0918 12.8043 -5.13501 0.280499 -0.184176 2.3102
3235 1 -5.55349 12.8918 -10.946 4.9961 -2.11199 -0.34879
4112 1 -5.05681 43.507 -0.34405 2.37414 1.16855 0.274525
4001 1 -12.3823 24.8719 -4.54077 2.55677 -0.994398 -4.67195
4002 1 -11.1505 27.4966 -5.162 -2.28337 1.0362 -1.19689
4003 1 -8.2029 27.5266 -5.05922 1.1469 -1.86398 2.18653
4004 1 -7.31526 25.1331 -5.96288 1.80223 -4.21874 1.45234
4005 1 -11.7047 24.7632 -8.24555 9.39585 -1.95064 -1.93702
4006 1 -11.3267 27.8147 -7.86073 1.03881 -1.21235 1.20178
4007 1 -8.89348 28.0812 -9.43671 -1.60587 0.0383931 2.83472
4008 1 -6.70648 24.4566 -8.63635 1.97428 2.53475 0.549258
2053 1 -20.707 11.436 -20.1893 -0.446016 3.64017 -0.225122
2321 1 -3.48185 25.4447 -23.9371 1.04788 2.75774 2.4971
4015 1 -8.12301 27.2861 -2.11077 -1.15923 0.954591 1.76792
2545 1 -11.8969 12.1893 -19.5987 0.52192 3.28473 -0.272289
4025 1 -11.8415 30.2346 -4.22064 -1.6541 -0.734114 3.80513
4026 1 -10.5092 32.6039 -4.92861 -5.80781 -0.653098 -0.250317
4027 1 -7.67644 32.1471 -4.63859 0.980261 1.96079 3.04009
4028 1 -6.83991 29.8543 -5.5876 5.62149 -5.97537 -3.0832
4029 1 -12.539 30.2312 -8.41673 -1.11877 1.23277 -1.20213
4030 1 -11.1303 32.6878 -7.75308 3.57635 -0.430731 -0.847049
4031 1 -8.39628 32.5564 -8.71488 -1.08109 -2.53096 -0.0247508
4032 1 -7.10097 30.2393 -8.42611 3.98693 1.55153 0.549629
4037 1 -10.7813 29.8232 -1.76198 1.26392 5.08767 -0.214849
3780 1 -22.7389 17.9651 -20.6947 -0.166514 0.60426 -4.07123
4039 1 -7.49216 31.8962 -1.86013 -4.11454 0.249867 -2.51451
2617 1 -5.04477 12.0105 -13.7498 2.66174 4.26292 0.315576
4049 1 -12.037 34.892 -4.11162 5.12266 1.03759 -1.48252
4050 1 -10.4511 37.223 -4.3647 1.76852 0.748672 4.51174
4051 1 -7.53149 36.9463 -4.20955 0.83119 1.26369 -0.0892544
4052 1 -6.5061 34.5678 -5.43741 3.00059 -1.18023 -2.74856
4053 1 -12.5506 34.7236 -6.93876 1.86299 0.608308 -4.70117
4054 1 -10.9589 37.2993 -7.21018 0.0895645 -0.549377 -1.66696
4055 1 -8.31209 37.2331 -8.11684 -0.243793 4.43587 -0.832184
4056 1 -7.03725 34.7519 -8.02892 1.17281 0.152049 2.70732
2284 1 -21.4138 22.3273 -22.1367 -0.444911 -5.85388 2.27532
974 1 -0.63312 22.8655 -13.827 2.54632 3.11558 -0.554313
4063 1 -7.1647 36.832 -1.31366 0.641289 1.09688 -0.790404
2787 1 -15.3987 14.8082 -1.47508 1.10168 -4.64156 3.63574
4073 1 -11.6513 39.7937 -3.89296 0.183673 0.929592 -3.96948
4074 1 -9.61177 41.6661 -4.64091 1.35347 -1.93672 0.939251
4075 1 -7.03843 41.5711 -3.73439 -0.510052 -2.07775 -2.443
4076 1 -6.31354 39.2995 -5.07988 1.90231 1.8781 1.32525
4077 1 -11.8978 40.0658 -6.90789 -1.2616 3.69275 -4.36385
4078 1 -10.0955 42.2663 -7.60242 -4.31999 1.73873 -0.547045
4079 1 -7.47103 41.8226 -8.58929 0.666002 2.66751 3.59696
4080 1 -6.33314 39.2755 -7.92925 1.55697 -3.95348 -0.232744
4085 1 -10.8706 39.6037 -0.847302 1.94543 1.40186 5.86632
1314 1 -15.174 11.7689 -17.0577 -0.952357 1.652 2.93735
4087 1 -6.99839 41.4512 -0.892848 -1.43595 3.51468 1.05181
226 1 -24.2641 15.8204 -14.6252 1.21498 -0.197207 0.990693
4097 1 -10.0283 44.1063 -3.19071 -2.47959 -4.25171 -0.855053
4098 1 -11.7798 45.5168 -5.07997 2.90411 -0.238775 -0.0791069
4099 1 -7.49902 45.6719 -3.48121 -2.36873 2.87687 0.804132
4100 1 -5.78777 43.8513 -4.71268 0.85611 -1.7194 -1.28314
4101 1 -10.851 44.8527 -7.64416 -0.217474 -1.51079 -0.071546
4102 1 -7.99035 42.5768 -11.456 4.63011 -3.72181 0.361029
1919 1 -23.1682 13.1607 -14.9797 3.81033 0.898937 1.77609
4104 1 -5.94268 43.9125 -7.58545 -3.86089 1.29042 2.37343
4109 1 -10.0809 44.0697 -0.247095 3.20817 0.176212 0.850305
2056 1 -6.5643 25.9121 -23.5558 -2.97122 -1.39901 1.51524
4111 1 -6.38897 45.8481 -0.860071 6.75367 -0.649356 3.58785
2945 1 -7.67601 11.3687 -14.6251 -1.60228 0.41584 1.49358
4121 1 -4.61267 25.5048 -5.54625 1.88888 -4.57638 -2.42401
4122 1 -2.89156 27.5977 -5.88784 6.59703 2.98279 2.37166
4125 1 -4.19418 25.3086 -9.3657 -0.425271 1.13762 -0.909862
4126 1 -3.41979 27.735 -8.75492 -4.897 -3.18798 -6.79093
4133 1 -3.75094 25.3474 -2.80007 3.11962 1.72147 -1.93529
4134 1 -2.42857 27.6541 -1.82767 -1.35235 -3.68828 4.16233
4145 1 -4.12572 29.9481 -4.87825 -1.1403 7.42076 1.37467
4146 1 -2.97222 32.045 -5.70796 2.3091 4.71701 1.27448
4149 1 -4.6563 30.124 -9.53023 2.92143 0.792963 -0.554115
4150 1 -3.17535 32.3505 -8.54584 -1.48021 3.55411 3.13826
4157 1 -3.81537 29.9639 -2.17753 1.35588 -0.0797029 -1.00593
4158 1 -2.11549 32.2057 -1.26845 -3.30934 2.06269 4.55129
951 1 -7.97095 45.3303 -12.3106 5.01651 -1.13466 1.23031
2061 1 -16.0917 45.3786 -21.4153 -3.8187 0.288804 -1.65547
3984 1 -6.13211 11.6279 -21.2489 -2.70692 -6.71058 4.7665
4061 1 -11.166 34.712 -1.30631 3.2546 0.55364 4.61889
3857 1 -12.2464 46.3674 -9.90848 0.453052 1.44671 -4.02772
286 1 -5.29536 15.4142 -1.47761 -2.93048 -0.0249862 0.586182
3151 1 -10.2589 46.4964 -13.9346 0.333515 0.71113 -1.24519
3255 1 -17.8325 11.8823 -17.6938 0.942444 3.34244 1.34996
2952 1 -13.2476 24.1161 -23.3887 0.0147053 -2.61963 -3.84228
3544 1 -10.1917 19.0203 -1.06193 1.73759 1.17454 4.1491
3160 1 -11.6486 45.5861 -23.2211 1.56974 2.59187 -0.736819
74 1 -0.735865 15.5617 -13.5793 -1.22218 3.35261 1.21715
1291 1 -20.886 16.1377 -1.99033 3.89294 2.71798 4.21661
2956 1 -18.0482 20.7707 -0.932335 3.57848 -2.50099 2.32803
2837 1 -17.799 12.3049 -8.26405 -0.0496512 -2.24508 -0.425108
3080 1 -21.4477 11.6444 -6.86038 1.87328 -1.56825 0.828342
60 1 -0.592165 18.9775 -22.403 -1.96501 -3.43628 1.49297
4062 1 -9.88774 36.9945 -0.221212 1.36136 -7.19729 0.372488
4103 1 -7.02028 46.3596 -8.13077 5.07943 0.836743 -4.80219
3736 1 -23.8399 12.7295 -7.99594 0.773408 -2.75279 1.69452
673 1 -1.37862 16.3781 -22.7901 0.200046 -11.3854 5.25396
2580 1 -23.1278 12.9804 -20.2753 -1.33624 -1.24903 1.18163
886 1 -6.59381 21.4397 -0.104285 0.213112 0.413378 -1.24108
3124 1 -15.3315 11.8268 -9.52405 3.95473 -2.70008 0.876286
3947 1 -24.2263 13.8727 -22.9622 1.49513 -0.565161 6.64915
4127 1 -0.684263 27.3394 -9.18819 -3.03544 3.61293 -1.90644
3721 1 -0.780231 18.2617 -6.29653 1.8304 -4.42652 0.411461
3978 1 -0.475807 19.9775 -13.1049 -0.897082 1.0811 -7.61879
1383 1 -5.86293 46.8347 -13.2843 -2.91575 1.97777 0.761696
2081 1 -23.7159 18.6111 -16.0265 1.18162 2.11329 -1.50398
4038 1 -9.98055 32.2345 -0.6588 3.42385 3.00864 1.21334
1377 1 -12.9047 21.4361 -23.801 2.69265 -1.16641 0.399486
577 1 -11.6667 22.4396 -0.127919 1.38612 0.314403 1.76874
2 1 -8.57664 14.7798 4.55604 3.61216 -6.66074 -1.73474
19 1 -15.8364 23.0297 19.9353 -1.12893 -0.0138663 5.13042
2754 1 -14.5305 23.577 0.285635 -0.976259 -3.2663 2.50941
53 1 -3.33937 24.5423 13.2396 -0.909937 3.62798 3.82225
69 1 -6.63081 14.292 9.64554 3.27894 -0.72699 -3.09704
98 1 -3.36035 15.8128 12.3443 1.36988 0.797926 1.97431
148 1 -17.246 15.1337 11.1658 -0.912857 -3.70591 4.9977
2129 1 -12.7483 44.5605 13.9305 -0.57271 -1.30102 0.262146
196 1 -18.3981 24.2644 4.23562 -1.35917 -5.52134 5.63257
4115 1 -4.04722 45.1453 12.3502 0.77205 0.0263848 2.87096
219 1 -6.67652 25.1125 21.7017 1.17212 -0.65372 -0.292212
230 1 -8.44802 15.1846 20.1725 -5.45962 1.73276 -8.95201
233 1 -13.7664 18.2918 12.5926 -1.5795 3.11796 0.728174
234 1 -8.16848 19.7503 9.18878 2.4705 -5.46641 2.15164
237 1 -18.897 23.3537 1.67315 -2.09251 -4.61309 -1.92072
239 1 -20.598 19.0999 17.4981 1.10974 -1.90637 -0.440884
285 1 -15.9944 19.493 13.5835 -5.95455 -4.05756 -4.36734
371 1 -11.9115 46.12 16.5216 -0.286447 0.0338759 -2.2699
2528 1 -11.508 12.5374 5.17001 -2.92402 0.841169 -0.418754
372 1 -10.921 22.2347 6.80904 0.250552 0.801371 -1.37475
2307 1 -15.1486 13.6193 23.4632 -0.427057 0.349196 2.95968
4166 1 -1.78077 31.2736 5.99475 0.235063 0.230556 -0.821823
425 1 -19.8332 14.4345 17.2349 3.29199 -4.66733 -3.15338
453 1 -20.4686 14.2464 7.49895 0.471005 -2.7667 -2.07987
3840 1 -10.6677 45.2324 11.8496 3.13608 0.23288 -4.45044
514 1 -14.5832 20.498 19.4882 4.6598 1.88064 -2.96528
1432 1 -10.5569 11.4245 21.1296 -0.0867173 -0.962681 -0.849458
410 1 -17.4711 14.8389 2.27535 2.1804 -0.768625 4.63766
583 1 -21.2483 24.2634 13.75 -1.22899 -2.87653 -0.932485
2362 1 -18.0759 13.4896 15.255 5.62067 2.43702 -0.178691
588 1 -18.7607 22.2975 5.99448 1.69336 -5.64057 2.77103
590 1 -5.99581 19.652 21.6439 -2.43624 1.75083 -3.56545
600 1 -22.3548 24.7617 16.2469 -1.43503 -1.39643 1.76029
630 1 -22.8407 24.0413 11.3786 1.35672 3.36075 -0.543499
641 1 -17.178 18.5418 5.06535 -2.52787 -5.97915 -4.01752
668 1 -11.6792 14.5878 18.4908 0.203098 0.0808047 5.47538
693 1 -10.4769 22.9991 2.3957 -0.910132 -2.37909 0.0571952
729 1 -13.2808 17.6126 15.5273 -2.40176 -1.8872 -3.28809
734 1 -20.428 24.1725 20.1891 0.46821 -3.4661 0.25056
2701 1 -23.8201 24.3817 2.23981 3.14367 2.951 2.31236
754 1 -14.8522 24.8217 18.0361 0.523347 4.69861 0.834031
785 1 -4.13769 21.6389 23.1452 -0.514634 -2.81405 0.082806
3529 1 -22.8077 12.0014 22.9234 4.29014 -0.921281 -0.0679804
791 1 -3.91109 25.2129 15.9064 1.49163 -1.83421 3.42047
3131 1 -9.60039 12.4844 0.530138 0.547164 5.7372 3.22991
4110 1 -8.65862 46.082 0.665572 2.43332 0.62605 0.207563
3672 1 -13.1512 11.2909 11.9139 -2.45353 1.90342 0.733876
913 1 -6.63296 24.6328 16.6978 -0.533175 -5.2792 2.81286
914 1 -22.136 14.737 11.9083 2.74788 -1.25993 0.465985
919 1 -6.84084 17.6288 13.3597 0.248743 -1.30567 4.11712
924 1 -7.85311 15.9989 7.23301 2.41158 -1.15927 1.70003
932 1 -18.7215 15.7251 13.4335 1.52267 -0.116746 -1.8294
941 1 -21.0245 22.6619 9.89121 1.00595 0.159719 -0.799499
947 1 -10.7301 16.5188 16.4282 -2.61943 -1.94981 -3.27225
949 1 -3.39386 14.79 20.8715 7.17607 2.10599 -2.06111
961 1 -8.34642 12.1986 3.12616 -0.31034 -4.15739 0.00107471
965 1 -17.6921 13.0772 6.55999 5.46858 -1.35385 -3.7767
985 1 -17.4475 20.7104 11.4437 -2.99302 1.82664 -0.810096
23 1 -11.4795 46.2095 21.7177 3.02508 1.60975 -3.95028
1055 1 -10.9194 16.8718 12.1621 7.66388 0.817975 -2.27328
1056 1 -8.88567 19.0959 3.7092 -1.30603 -1.20721 -3.35581
1063 1 -2.25698 20.8294 8.31056 3.36321 -6.36392 3.46775
3581 1 -15.3149 11.5943 3.35757 -1.46414 2.56047 -4.2791
1088 1 -21.2822 22.3193 7.1086 2.57856 3.33001 -3.32908
1110 1 -12.1531 23.6592 8.99311 -0.412621 0.182423 0.578508
4214 1 -0.744631 40.6151 6.96654 3.79774 -0.871984 0.670311
1117 1 -8.59354 14.9446 12.7535 0.549103 2.1857 -0.601484
1150 1 -15.6922 14.7971 5.95703 2.23869 -1.5705 -4.70992
1152 1 -13.8451 14.9947 20.2983 3.2389 1.28125 2.72758
1166 1 -17.4599 25.1844 16.7981 -0.183591 -2.80978 2.80435
178 1 -14.2094 12.2759 5.95868 -0.780912 1.40486 -0.679594
1481 1 -7.45301 16.4075 0.418262 2.19123 1.89371 0.810221
1197 1 -21.0599 18.425 21.3151 -1.14332 -1.74529 0.966387
1204 1 -4.33663 20.7055 3.81646 -0.590428 2.5217 0.140521
1220 1 -22.5123 21.033 16.5857 3.15405 -5.79958 -1.66455
2426 1 -2.032 19.3151 19.4694 -2.44863 2.45786 -3.3167
1237 1 -19.2342 20.2732 15.4289 -0.543602 -3.70361 -2.9193
1642 1 -2.24066 23.0774 6.68454 0.457084 -0.723688 4.48717
1285 1 -13.5271 24.2966 15.3425 -1.48375 -0.822461 0.321885
2441 1 -21.7909 12.9353 18.736 -0.0292462 -1.10173 -0.547767
1325 1 -3.73739 13.7726 8.69588 3.92973 -1.17457 0.438099
1340 1 -20.4837 17.4962 10.3867 -2.58995 -0.677505 3.01647
1355 1 -9.73539 22.9134 18.6802 -7.28869 -2.84775 1.53238
1358 1 -8.82904 23.7381 22.6627 -0.199993 1.89632 2.48011
1372 1 -12.71 15.4058 2.22232 -0.17544 -0.565142 2.73987
1374 1 -20.0233 25.5432 17.831 0.249781 -4.87218 -6.12493
2475 1 -17.1628 11.8037 8.97892 -3.95729 2.24732 -0.270387
1385 1 -16.9692 26.7537 14.2126 0.921762 -5.13252 -3.8837
1391 1 -12.4383 20.554 21.4655 -5.92076 -1.30008 1.75412
1456 1 -15.6589 17.4673 10.6353 2.91701 1.5097 -0.916378
350 1 -23.3759 17.0988 22.3417 -0.861233 3.9099 0.592239
1461 1 -13.8856 16.0769 22.7564 -1.42252 3.80828 -3.04872
1492 1 -11.2449 12.4048 9.73456 -6.83624 7.85385 0.305793
1500 1 -17.7207 17.9056 14.8172 -7.10062 -4.77823 4.18065
1091 1 -11.7988 17.1923 7.26258 3.5127 1.13271 2.93832
1575 1 -19.8365 15.455 3.68333 0.0630096 -2.79456 5.65383
3615 1 -0.684955 22.8308 2.8452 1.56185 2.58383 -0.396817
1622 1 -17.4992 22.69 15.4965 2.81865 0.178712 0.20774
3656 1 -9.27233 46.8377 20.1959 -0.500884 0.919194 3.27537
1655 1 -2.38822 16.8432 16.0244 2.09321 5.97679 -3.87072
1917 1 -23.8432 23.2817 18.0356 1.27333 -0.421337 3.98331
1658 1 -16.3205 21.9586 7.32417 -4.45075 1.938 -1.41249
1668 1 -11.0052 19.8358 8.41636 0.954022 -0.162123 -0.282036
1679 1 -11.0498 23.2503 21.0907 -1.90621 0.828 0.118782
697 1 -21.6273 15.2531 23.894 -0.0333045 0.140301 2.95298
1705 1 -1.37111 24.9862 20.4801 -0.514781 -3.32722 -2.45777
1708 1 -9.01773 26.0147 15.7453 2.41671 4.2338 0.19785
3774 1 -13.0165 12.6475 1.75899 1.77493 2.32946 4.16556
1167 1 -2.03883 14.6299 14.4752 -1.53877 -1.99346 4.1911
1784 1 -8.64702 12.55 10.8754 -0.930641 1.41276 -2.39752
2897 1 -4.06876 13.9718 0.765801 4.21331 3.72452 1.2335
1869 1 -2.03831 24.0312 17.6615 -4.26057 1.80557 -1.49775
1873 1 -10.9178 15.4735 9.51424 1.52105 2.65546 -1.23872
2117 1 -24.0265 23.528 7.51899 2.44915 -0.0443998 -0.383356
1898 1 -19.7049 19.2282 12.6179 1.25074 4.68324 -0.413186
1916 1 -5.07897 16.8264 6.94017 -1.76692 -3.84751 2.4892
4142 1 -2.63185 26.8302 5.15433 -2.2263 -1.79817 2.36344
1769 1 -23.9006 15.8318 14.9572 2.39646 2.39337 6.84697
1963 1 -3.31521 17.8824 1.66874 -2.85471 -1.66094 1.05303
3497 1 -14.3809 11.9071 18.1492 -3.46363 -2.06808 -0.107881
2492 1 -24.0996 15.5596 3.33835 -0.594385 -0.874619 -2.18368
2008 1 -8.99167 25.0265 13.0933 1.23977 6.09389 -1.70467
2013 1 -16.0679 25.4084 4.66803 1.69288 -1.49978 -5.82664
2575 1 -0.903463 17.7534 3.13587 0.611709 1.50802 0.866407
2046 1 -11.3928 14.6727 14.2115 4.28874 -3.3349 -5.18225
3711 1 -11.7987 11.6871 14.3993 -3.71253 -1.9826 -1.8599
2082 1 -7.23838 17.0112 3.19862 0.332993 0.0492975 -2.81902
2119 1 -13.0207 19.5942 2.33704 -2.84428 -3.42366 1.44654
2157 1 -3.54231 16.7853 18.6464 1.36397 1.44836 -2.93924
2158 1 -15.4768 13.8418 14.175 0.891351 -2.18569 1.20434
2168 1 -20.236 17.8332 2.11916 -5.38724 1.79172 -2.4507
4233 1 -1.53051 42.912 10.0098 -3.62238 -2.97381 2.8335
3028 1 -14.5761 12.4009 20.8914 0.0525396 0.0174233 -4.01527
2231 1 -12.8594 26.841 11.1705 5.39298 2.75254 0.83252
2264 1 -4.87453 17.7047 4.20756 -0.429068 -2.15929 0.406437
2270 1 -7.22524 21.3842 4.05645 0.406653 -0.383863 -0.71696
4209 1 -2.34618 38.5876 10.2229 0.62193 5.19779 -3.04705
2282 1 -8.00748 22.4513 6.47538 0.9939 -2.30658 -0.0246019
2285 1 -23.0629 17.6497 1.5873 -0.365196 -0.601795 -1.74817
2305 1 -12.7908 20.2287 10.8254 1.58797 -0.634549 1.51914
4119 1 -5.38866 45.7729 6.41878 -0.0574308 0.787103 -3.82323
2315 1 -13.6643 15.5112 12.7556 -5.58389 3.91616 -5.24151
3831 1 -4.27438 20.4866 1.02575 0.836365 5.29479 -3.90746
2322 1 -5.76262 20.8796 19.0931 -1.06712 -1.21134 -1.56817
2334 1 -9.55359 18.9607 13.5227 -4.65332 7.20805 1.74589
2335 1 -3.85707 17.8986 21.3054 -0.40632 -2.93981 1.05703
2349 1 -11.1202 24.5504 16.6687 2.09188 -1.83017 -1.96849
456 1 -5.66339 16.1214 23.0753 -2.71027 -0.267087 3.01361
2413 1 -7.74959 22.9926 1.92361 -5.06743 1.34279 0.6022
2199 1 -17.3231 12.2191 1.31977 1.53011 1.51439 -1.34178
4202 1 -1.17988 41.1258 2.13584 2.70951 -3.87178 2.3775
2435 1 -15.5892 24.2159 10.9953 -2.3858 0.348758 0.40184
2439 1 -14.4224 22.1909 9.49043 -1.15339 1.04164 0.303463
2980 1 -5.35592 12.2803 2.97204 1.84965 -1.00452 1.05756
2462 1 -14.3387 25.3156 2.47847 -0.0812428 3.85717 5.4682
2488 1 -11.003 20.075 18.7786 -2.58139 2.81641 -1.7108
2490 1 -12.5458 25.1701 19.2724 2.22269 3.47306 6.37956
2505 1 -11.7512 17.671 21.8766 0.983909 2.6254 -6.57181
2519 1 -21.3395 21.4701 13.884 0.919595 -4.37359 -3.48476
1885 1 -9.91329 16.4037 23.7125 4.90163 2.68904 0.558842
2581 1 -7.93956 17.4451 21.8839 5.29751 -1.82671 -1.29992
2586 1 -13.6524 15.2253 9.95267 4.39965 4.15316 -2.70474
2620 1 -9.2003 18.296 6.4776 -3.59985 4.65548 4.09151
2660 1 -14.5148 25.7045 13.078 1.78529 1.384 -0.398437
2664 1 -15.9082 17.7863 23.1413 -1.19167 2.28437 3.46128
4189 1 -2.56233 33.9523 5.50728 -2.69458 -0.687057 1.31472
2710 1 -7.42597 14.6373 17.6914 4.62852 -3.1818 -2.6318
2723 1 -8.23866 17.9251 15.8847 -1.27725 0.433702 2.08543
2742 1 -18.5852 15.9542 6.07839 5.21406 -1.73999 0.488634
2745 1 -15.0723 21.7601 2.80728 2.10908 -0.905125 4.26922
2769 1 -15.5151 15.9712 16.0489 3.64633 6.71873 1.1687
2777 1 -15.8441 18.2812 2.54149 -2.49279 2.91699 -0.895246
2778 1 -23.904 15.7359 18.7989 -3.2328 1.29849 1.22772
2788 1 -21.399 16.8382 13.7354 3.25344 0.914741 2.98079
2809 1 -13.1622 20.1056 16.8236 2.5995 -3.30538 -6.79992
4162 1 -1.59065 31.4645 8.91038 -0.660734 -6.27531 3.40522
2820 1 -14.4163 25.9286 8.95108 1.96995 1.15848 0.638766
2851 1 -6.89342 23.5275 19.1229 -0.777172 -3.03492 2.87772
2853 1 -4.01249 24.2649 21.6646 -3.17313 1.22538 2.34105
4118 1 -11.3547 46.1978 7.51724 -2.68561 -4.79471 2.45925
2379 1 -19.786 11.7722 10.6512 2.09207 0.353643 2.36576
4178 1 -1.4974 36.3762 1.67145 3.54086 3.28355 4.10786
2895 1 -18.9457 19.4494 19.8288 3.55044 2.16094 5.21134
2905 1 -18.4464 22.3309 20.6571 -2.87478 -3.01873 2.22422
2921 1 -18.2472 23.4489 10.6718 2.62374 -2.10618 -1.49342
2939 1 -13.6583 21.7034 5.43868 7.17227 -1.03824 0.886795
2942 1 -22.8971 14.4107 21.1045 2.1947 1.31096 -2.30455
2950 1 -19.3618 18.0853 7.84578 -8.18471 5.60847 -1.12676
2971 1 -2.72478 20.012 12.534 -0.852125 -0.530087 -2.62681
2973 1 -10.4613 17.2031 19.3201 -1.61929 1.10612 -2.68361
261 1 -1.77276 46.8844 11.3124 -0.387207 -2.01004 0.257908
3530 1 -11.1818 15.2911 4.89532 -0.077999 -1.21337 -0.502596
3002 1 -21.6851 16.4447 16.8515 -2.27012 -0.861461 -2.96218
4225 1 -2.32087 43.2454 3.43277 -0.260746 5.45571 1.36677
3619 1 -4.32043 21.1106 10.4126 -4.07299 -2.97118 -0.846416
4185 1 -2.58392 33.9751 9.84353 -0.0872194 1.63781 -1.98392
3042 1 -11.0206 20.8579 15.2237 1.06941 0.445755 0.225103
3297 1 -18.0198 21.8646 23.6163 -4.87834 1.86517 0.278377
3076 1 -11.1217 22.224 11.6041 -0.834217 -2.38372 -1.73234
3122 1 -13.9431 24.2388 21.7377 -2.50556 -3.33184 -1.60796
395 1 -9.45828 45.5809 17.6871 -3.97816 1.01652 -6.67978
3144 1 -3.46511 15.3865 3.20265 3.18878 -0.783145 1.65471
3150 1 -21.1082 11.2848 4.36188 2.27434 -0.45077 1.24618
4201 1 -2.40643 38.6289 3.11394 -1.19751 2.30689 -0.87817
3186 1 -6.01041 20.9001 7.92573 -1.71001 2.21428 2.51458
2591 1 -5.19333 46.0747 14.7434 -2.36224 2.83145 9.12152
3211 1 -6.70273 22.1632 15.3694 -1.32179 -3.57622 3.77784
3214 1 -6.0103 17.4657 17.6153 2.37247 -2.16106 1.99293
3232 1 -22.8607 15.4917 6.88364 -0.423326 -0.853674 0.799548
3233 1 -1.34585 17.4452 9.1242 0.432596 -1.26973 5.42456
3245 1 -8.37484 16.733 10.1371 -3.22258 -0.26239 3.53224
3286 1 -19.6804 19.9934 4.09351 -0.63454 -1.32982 2.28978
3290 1 -15.0779 21.589 15.2442 -3.43161 1.73588 0.636087
3292 1 -22.934 21.4923 4.61623 0.31271 -0.925842 -1.35771
1175 1 -7.85757 12.4656 21.2663 2.28102 -0.854748 4.08243
3928 1 -17.8984 16.1867 23.887 -0.811093 -3.85401 -2.21757
3323 1 -5.06714 19.9951 16.3856 -5.7386 0.346167 -2.57648
3325 1 -13.1586 17.8495 4.6926 -0.213577 -1.39406 1.50271
3621 1 -7.78959 12.0275 7.99798 -1.20293 -2.01173 4.00667
3356 1 -11.154 21.0485 4.14355 -4.68441 -0.134129 -0.933997
1606 1 -23.8569 18.9748 8.46478 1.33697 7.812 5.29751
3359 1 -7.33094 22.9301 12.7185 2.06125 0.438385 3.63985
3361 1 -5.14918 23.5863 11.3351 -1.55268 -0.0666556 1.72041
83 1 -21.703 13.1146 0.236748 1.45902 2.01892 0.134446
3428 1 -5.5906 14.1851 12.3701 1.41625 -0.637548 1.28283
3444 1 -21.9381 13.5221 2.93637 -1.4552 0.00818072 1.36366
1984 1 -0.658934 21.6618 21.0427 -4.35894 3.10512 -1.12286
3455 1 -18.1939 14.8203 19.408 6.04768 -0.511151 -1.02403
3459 1 -3.11514 22.0771 19.5799 -3.67195 -1.94726 -7.29693
4213 1 -2.54487 38.623 5.97886 -3.02273 -4.73791 2.43841
3454 1 -23.896 21.1826 12.4488 -3.62105 3.93674 3.48478
3517 1 -8.1172 18.8458 19.2427 2.33879 0.0829205 -2.40105
4237 1 -2.25979 43.0179 6.20157 -2.32857 2.40823 4.33581
1932 1 -4.0707 19.3872 6.6027 1.81424 2.60664 2.28279
1656 1 -5.67411 11.406 16.2441 4.07662 -1.83841 5.81491
3550 1 -14.8132 16.7107 7.80018 1.64416 0.0687234 -1.71599
3561 1 -21.5511 19.4836 6.61266 -0.987416 -1.57019 4.1845
3583 1 -16.7867 19.5478 9.01414 -1.17726 -4.43155 -3.80544
3597 1 -1.29701 13.3627 6.75252 0.252397 -3.81297 3.95541
1094 1 -19.6258 15.8416 21.5785 2.17252 -3.79653 5.25626
3627 1 -5.77144 18.5877 10.7873 2.44339 -1.11231 2.73393
422 1 -2.66952 19.1465 23.4959 1.85442 3.45566 -1.0554
3654 1 -18.5409 24.4514 13.4218 0.329791 0.596535 1.0899
3677 1 -7.47654 13.1334 14.7019 2.51684 -4.70403 0.0649386
3709 1 -19.9997 14.6374 10.0882 -0.894833 -3.70049 0.668941
1629 1 -4.85436 46.6035 18.8033 0.899036 0.88586 7.59066
2811 1 -15.0615 15.7949 3.44012 -2.41297 1.35193 -0.600636
1968 1 -19.2607 11.6596 13.4219 -1.35589 -2.51172 -1.03626
3766 1 -11.2232 23.3212 14.0903 -0.45187 0.801613 -2.82431
3771 1 -16.456 18.3382 20.2131 -1.17079 -0.292722 -0.809562
4186 1 -1.04373 36.2042 9.32874 -0.709013 5.62674 -4.04678
3793 1 -17.7118 20.6776 2.04196 -0.895092 -2.11872 0.354805
4114 1 -7.44944 46.2346 8.43851 -2.22359 -0.644066 7.57694
3846 1 -22.8641 22.7668 20.7503 -0.39038 -2.41772 4.44748
3852 1 -8.60029 20.7668 16.9993 -2.40938 -1.01611 -2.43156
3889 1 -15.8365 16.1521 18.7216 -3.26027 1.80339 -1.18471
3892 1 -14.4689 24.2699 6.48067 1.92699 -2.34091 -0.992393
3000 1 -3.78641 12.1981 14.0361 -2.02973 -0.477291 -1.51423
3946 1 -4.18972 16.6252 9.68187 -5.16811 -2.35373 -2.78369
3955 1 -8.71164 20.7929 11.7089 2.16965 1.66741 -0.991508
3966 1 -21.9254 20.2946 10.5534 -1.23185 -2.98527 -0.444994
3931 1 -3.02131 11.7939 5.09288 0.628367 3.19546 0.229277
3976 1 -3.99342 14.3197 5.90456 1.16954 -0.878419 0.675389
3985 1 -14.983 19.346 6.60966 1.69693 -3.74594 -0.660274
3988 1 -22.4287 20.0872 19.4325 -2.52703 -5.04095 -1.65712
3999 1 -4.18438 18.1307 14.2203 4.77618 0.493273 -7.44727
4009 1 -11.5909 25.2857 3.15338 -0.307524 5.25267 -1.27863
4010 1 -10.0892 27.3562 1.95628 -2.68256 1.25124 0.630521
4011 1 -7.39323 27.3851 2.61408 2.57447 -0.502276 -1.78415
4012 1 -6.2003 25.2492 1.44328 -4.15297 -5.11472 -1.60633
4017 1 -10.6074 25.1228 10.705 2.0819 0.667257 1.94488
4018 1 -9.37235 26.8118 9.07398 2.63581 -4.25435 3.4129
4019 1 -6.65401 26.874 9.86024 -2.01438 1.41543 6.54382
4020 1 -4.92288 24.9583 8.86177 -0.70301 -1.25999 -2.33434
4021 1 -11.6231 24.9329 6.05366 -2.86761 -4.03812 0.504188
4022 1 -9.82993 26.9592 6.34199 2.30031 1.66659 -6.13172
4023 1 -7.26312 26.9999 5.30549 -1.01767 5.20718 -1.12914
4024 1 -6.37467 24.5327 6.45477 4.22442 3.0966 -7.11216
4033 1 -10.8456 29.7942 2.79573 -1.58942 -2.80474 -3.31623
4034 1 -9.655 32.0531 2.0463 -1.78088 -1.81475 4.8776
4035 1 -7.0323 32.0974 2.95986 -0.596572 -1.68837 -2.70336
4036 1 -6.24794 29.7164 1.48864 -1.46986 -1.2652 3.41966
4041 1 -10.0957 29.3126 9.71069 3.25248 -1.50827 -2.65051
4042 1 -9.27373 31.8459 9.46622 -2.34965 -0.128461 -2.90564
4043 1 -6.49641 31.8408 10.01 -2.94522 -3.88358 4.03965
4044 1 -5.44913 29.2482 9.18593 -2.24633 4.21121 -4.82662
4045 1 -10.7501 29.5856 5.6168 -0.183213 -0.273577 0.429623
4046 1 -9.49441 31.6665 6.67623 -2.76693 2.85419 5.38538
4047 1 -6.70801 31.6281 5.7016 0.779815 0.938443 0.624089
4048 1 -5.83625 29.1307 6.36835 -1.49885 -0.555041 -2.71133
4057 1 -10.245 34.2484 3.72478 1.90168 4.77035 1.51563
4058 1 -9.51854 36.8479 2.53306 -3.4573 -0.411243 4.21096
4059 1 -6.79654 36.5885 3.26545 -0.923333 -2.72584 0.427012
4060 1 -5.64268 34.3699 1.96009 -5.76023 -1.44378 4.91023
4065 1 -10.4176 34.1326 10.5848 1.18306 -5.61572 4.10341
4066 1 -9.27344 36.5467 10.3805 1.23617 1.34205 3.70741
4067 1 -6.64976 36.4042 9.75014 -1.0325 -1.53927 0.353198
4068 1 -5.21067 33.8802 9.21196 1.4487 -2.76446 0.347743
4069 1 -10.3156 34.3017 6.45288 -1.06514 0.244098 -2.93315
4070 1 -8.56115 36.1954 7.47984 3.0609 -1.65671 -0.136121
4071 1 -6.24998 36.3438 5.95378 -3.31748 1.93214 2.29387
4072 1 -5.12852 33.873 6.50771 -3.60808 0.682494 -3.3877
4081 1 -10.3573 39.2144 4.01354 -4.73114 4.16802 1.43214
4082 1 -8.83439 41.2616 3.06275 2.09137 2.54134 1.60752
4083 1 -6.07661 41.3962 3.07707 3.32221 -0.41212 1.83346
4084 1 -5.31121 38.9637 2.15849 -1.21874 2.28904 -0.560501
4089 1 -10.2554 39.0354 9.88475 -5.45957 0.326222 -0.737817
4090 1 -8.57872 41.2554 9.65897 0.97839 -1.99976 -2.29288
4091 1 -5.99653 40.8514 10.5874 -1.56961 -8.87044 -0.5162
4092 1 -4.98142 38.5578 9.57334 2.66936 2.5049 0.850291
4093 1 -9.9405 38.6076 6.95793 1.60901 -0.263086 0.463308
4094 1 -8.73656 41.0365 6.8792 -3.64629 -3.80787 -0.769406
4095 1 -5.90838 41.2591 5.92555 -1.01456 2.39447 2.30216
4096 1 -5.06457 38.7898 6.61952 1.32057 -2.80813 5.81575
4105 1 -9.78951 43.4137 4.36182 -0.157891 -1.42057 1.96422
4106 1 -8.80591 46.014 3.59757 -3.32198 5.11793 -4.28392
4107 1 -6.0694 45.6846 3.65266 5.36157 0.490968 0.064457
4108 1 -4.7144 43.6552 2.25289 -1.02277 3.59801 2.5095
4113 1 -9.14625 44.1207 9.7367 0.352475 -2.31349 -0.2807
337 1 -21.2496 21.4021 2.17106 -2.59833 -2.52324 1.56405
4238 1 -0.558529 45.493 6.8343 -3.92158 1.7422 -0.240338
4116 1 -4.32804 43.1193 10.2825 -3.90488 4.36988 0.594389
4117 1 -10.189 43.6715 6.95098 1.39646 -0.869845 1.8147
3735 1 -10.7365 17.9394 1.74914 -0.988765 2.18197 -5.3997
3970 1 -7.75881 21.3208 23.3063 0.408281 -0.795441 3.03248
4120 1 -4.68393 43.2862 7.42033 1.97455 -1.46107 0.302534
4129 1 -3.8478 25.4467 2.82137 -0.814078 -1.55134 1.26411
4130 1 -2.61523 27.4201 0.95268 1.09604 1.03942 -0.165242
4137 1 -2.65167 25.6888 7.70612 -1.03023 -6.79402 3.28145
4226 1 -1.47146 45.435 1.87167 -4.03489 1.46512 -2.46611
4141 1 -4.27115 23.498 4.73113 -3.18279 0.638501 4.4715
786 1 -24.2958 19.4048 23.6243 3.1186 0.173421 -2.50195
4153 1 -3.52053 29.8293 2.08599 -0.542578 -2.32859 -0.505941
4154 1 -2.08517 31.8542 1.20467 -2.78121 0.893873 -2.67852
4161 1 -2.62208 29.1406 10.1562 3.87724 -2.72926 1.13942
3460 1 -2.3939 21.1951 16.7893 -0.0462971 -3.11734 0.00412164
4165 1 -3.49527 29.4351 4.76713 -1.59972 -1.45609 3.22321
1005 1 -17.8671 16.9074 0.556311 0.748813 -6.97367 0.250467
4177 1 -2.85888 34.0552 2.64125 0.80906 -2.71091 3.74308
1484 1 -6.52966 12.9947 5.42213 1.52845 1.07163 0.136927
4138 1 -1.08015 26.7224 9.70637 -2.82136 2.54058 1.67439
998 1 -1.6941 12.4464 10.4959 1.36653 3.17208 2.8969
2276 1 -1.36427 11.4767 2.59867 3.56385 -6.27136 1.27183
3757 1 -1.84035 22.0813 0.452152 -2.8245 5.35015 1.5738
867 1 -4.78027 13.3836 18.5511 2.81567 4.12524 -0.685126
2011 1 -2.3163 13.5605 17.2488 3.73473 2.79294 1.8523
3293 1 -7.79046 14.1014 23.4576 1.19871 -0.171533 -0.434553
1771 1 -1.09414 25.6992 12.1561 0.986638 -0.889056 0.00807607
3337 1 -14.1503 12.6978 8.65524 -1.79411 0.510441 -4.66358
2424 1 -23.0653 16.5211 9.67449 -1.9777 -1.72736 2.75745
4190 1 -1.10917 36.1334 6.5735 2.92792 0.820382 5.79549
3182 1 -16.7404 46.4771 20.7128 -2.62535 -0.974496 -2.41036
1720 1 -5.78004 46.8848 10.9183 2.321 1.37332 1.0589
3307 1 -17.5052 12.1405 20.5936 4.04 -7.31145 -2.09507
3358 1 -0.537511 21.5679 10.235 -1.46456 3.87725 -5.89093
902 1 -10.1196 15.3178 0.515556 6.24582 -1.41064 1.39619
2272 1 -0.986813 15.2046 10.9103 -1.48772 -0.130015 2.1736
997 1 -22.9251 21.9831 23.5666 0.195117 0.390051 -1.16171
3669 1 -1.42617 20.2914 4.25249 0.427236 -2.66808 -0.18047
3920 1 -10.006 13.0582 16.4858 0.351239 3.52086 -2.915
3890 1 -1.90096 22.2378 13.9709 0.257735 -1.62277 -2.29167
3582 1 -15.0731 46.1097 14.3583 -0.379698 2.82736 3.11238
1906 1 -20.2375 45.3842 12.5182 -2.87919 -5.94513 1.49362
869 1 -0.530368 19.161 6.84027 2.40809 1.66073 1.5758
1141 1 -15.7966 12.4874 11.5754 3.95999 3.05034 -0.651836
2920 1 -24.3302 13.134 6.81569 2.42302 0.794037 0.761481
2715 1 -11.5269 11.7888 18.5323 -2.62177 -2.89035 0.145546
2849 1 -21.2674 46.9061 14.6993 1.17358 -5.11303 6.36155
1113 1 -20.4924 20.0821 23.7002 -2.07656 2.28508 5.12984
2634 1 -3.42239 12.1556 22.7773 0.446757 2.68382 1.66881
1723 1 -23.9115 17.7711 5.55431 0.757557 -2.45038 -0.509872
570 1 -23.813 13.5225 16.6374 2.88638 -1.74949 -1.48697
906 1 -6.98584 46.6312 16.9562 -4.06319 2.63145 0.768286
2864 1 -13.514 13.8261 16.3511 -2.71926 5.534 -0.711244
911 1 -1.13879 16.0101 22.4555 2.25731 0.915022 0.836196
3602 1 -0.915312 27.5586 21.341 -1.47384 -1.49151 -3.9545
3382 1 -21.8696 12.1495 14.8116 -4.1167 -0.679564 0.481685
1458 1 -21.077 11.3097 7.1105 -3.90732 -2.6446 0.221559
3193 1 -21.4539 24.0134 0.856461 -1.76959 2.90231 -1.03432
2619 1 -0.803667 11.5351 23.8643 1.55716 -0.511057 1.71316
1270 1 -23.9035 12.5783 12.8881 -0.657781 -2.45746 5.56511
3180 1 -0.959253 14.7036 4.12616 -0.229676 2.84329 0.795445
1163 1 -17.5081 46.5801 12.4308 0.677131 -5.34278 -3.40717
2662 1 -20.9501 46.7491 10.2553 1.00813 -5.98598 5.73037
2021 1 -5.97395 11.3698 12.0467 1.20556 -0.953172 1.59518
349 1 -5.26703 11.3046 20.6877 4.68696 -2.04091 0.368123
3438 1 -18.1153 11.4716 4.27228 0.451843 -0.397413 -4.21118
388 1 -17.023 46.1099 23.855 -2.65551 -2.19014 0.254494
330 1 -14.2762 46.8247 23.8927 0.445434 -3.87009 1.12099
1128 1 -1.72448 12.7143 0.151745 -0.925503 -1.89729 0.486953
934 1 -1.30943 22.0715 23.8895 -0.711062 -1.65057 -0.383097
4086 1 -9.25534 41.5274 0.443545 -2.26182 1.31648 2.06907
1368 1 -22.6 20.0377 0.273193 -5.42127 1.34388 2.55671
2093 1 -5.65079 11.6684 0.0940985 0.606319 -1.11654 1.86723
2871 1 -15.4567 20.3305 23.9397 -0.623567 -2.16953 -3.20609
4 1 2.52151 -1.80146 -7.03853 3.8821 -3.20704 4.30991
12 1 17.9755 -3.59704 -23.4565 -2.72098 0.535794 3.81211
14 1 11.5291 5.21282 -6.19256 3.63802 -1.37565 -0.478386
30 1 22.0133 -1.76598 -22.3985 -3.56422 -0.10184 2.09603
31 1 4.90468 -16.0184 -18.3472 2.59871 0.51326 0.498947
33 1 -0.000977143 4.21226 -11.3344 5.52907 -0.511964 0.315187
3 1 8.78777 -8.67369 -19.9437 -7.91621 0.269809 3.88668
41 1 6.91501 -5.14 -14.288 0.00732552 -0.885705 -1.73518
48 1 6.34835 4.11448 -7.06752 -0.14603 1.56733 1.98851
52 1 12.296 2.70669 -16.4619 -4.5933 3.33698 -7.3887
58 1 1.36591 -18.9469 -3.90763 -2.61938 -1.93349 -0.737403
831 1 3.72374 -14.0096 -22.3169 -1.46685 3.102 0.833605
2150 1 18.6053 -9.22138 -0.357988 0.351629 -3.38782 2.61406
1731 1 20.8489 2.54445 -1.71454 -1.06074 1.75432 -6.59428
3648 1 23.5744 -21.4558 -1.24776 -2.03404 3.03498 -1.07245
3680 1 12.5582 5.69174 -23.1931 3.07244 -0.237188 0.543052
95 1 4.92961 1.33435 -13.6429 -2.02424 0.655257 1.44329
99 1 13.6773 -21.5749 -6.75925 1.0012 -1.1123 -0.478118
893 1 22.4337 -5.18251 -0.641109 0.840966 -0.420865 -2.87135
110 1 9.85086 -11.6301 -7.1416 1.03067 -1.86119 0.421829
111 1 19.941 -2.48072 -13.5848 -2.12443 2.95355 -5.78873
116 1 5.83984 -19.1942 -14.2943 -3.23943 -1.07066 -3.51697
118 1 4.49057 -18.6227 -11.7403 -3.4826 5.72184 -0.124592
657 1 3.83596 -1.38277 -14.1224 1.32606 -1.1119 -0.456935
3333 1 3.75078 -8.02755 -22.0557 -1.11681 -5.76813 2.40125
131 1 3.85354 -7.78292 -19.2704 1.44098 -0.0740122 -0.22772
2593 1 22.3091 -6.93705 -22.7072 -0.545298 0.892971 0.336685
153 1 8.10394 -16.371 -3.57905 -4.2134 -9.52816 1.41037
155 1 22.6952 -21.6117 -21.0185 1.55617 3.1335 -0.497165
157 1 11.2949 -14.727 -14.5334 -1.0959 2.54055 0.511083
161 1 16.0507 1.88404 -11.9789 2.38507 -0.64958 -2.91556
184 1 4.96729 -23.4681 -21.5484 6.10288 4.83904 -2.19339
2514 1 22.5504 10.4377 -21.1705 -2.33695 -0.30695 2.74378
852 1 9.32415 -2.42962 -0.554854 2.80835 -1.12901 2.11453
192 1 7.92619 5.23512 -3.70665 1.11839 -2.64945 2.6987
195 1 6.69283 1.21143 -6.26609 3.19518 -0.00585675 -4.76683
200 1 13.6359 8.0547 -15.8094 -2.56568 1.45542 -4.09072
1517 1 22.4262 -14.986 -9.90828 -0.425102 2.46468 -3.3228
214 1 16.161 -4.68313 -21.1041 -0.986763 1.72827 2.43663
353 1 17.3205 -24.204 -17.4993 -4.21579 4.64039 -3.57733
225 1 2.17579 -14.1885 -7.49977 -3.1754 6.47277 1.20743
1410 1 0.557522 -20.1121 -16.7353 -2.19166 -0.434051 -2.94163
398 1 22.4238 -22.3082 -8.2081 2.27418 -0.465151 -0.55315
254 1 8.31844 -10.004 -10.6992 1.85043 -1.23938 -0.0810091
259 1 16.0252 -13.9321 -19.5881 -2.6829 -2.80893 1.03773
260 1 11.0867 6.09323 -1.53929 -1.68754 4.87514 -2.68045
265 1 12.4906 -17.6384 -5.17962 2.43174 2.49856 -1.73294
1695 1 16.2579 -23.3818 -13.2706 -4.19536 -3.14021 1.58383
2818 1 1.78411 -1.10598 -1.02398 -0.185063 -4.4797 -1.12137
277 1 13.134 -13.8887 -20.5197 4.12933 -3.55201 2.47543
287 1 4.46818 -9.53236 -8.61462 -3.8825 0.713428 -2.72218
297 1 20.3139 -11.0407 -9.26249 0.811281 -3.26565 -1.92375
298 1 13.9826 -21.9658 -22.0241 1.03786 1.9957 -4.89877
444 1 23.4983 9.48576 -17.0765 -0.174733 0.443519 1.67115
2339 1 7.50361 10.7707 -5.35713 -4.07364 0.829575 0.604145
332 1 9.80982 2.23751 -10.0417 -0.938407 1.814 0.47105
333 1 9.16806 -8.7079 -15.0122 -2.19849 -3.54504 0.619908
334 1 5.86775 -22.1086 -3.76775 2.41745 0.57267 -1.97084
344 1 9.02298 -14.9316 -12.607 -1.53966 1.1028 -2.41192
1970 1 22.3078 -6.47816 -3.41308 3.58398 -1.47232 1.13115
369 1 9.00626 6.49549 -15.5756 0.997556 -1.77815 -5.20954
370 1 4.73218 -11.9817 -20.3373 1.51884 2.54177 -2.68377
378 1 18.8375 -14.926 -4.28521 -0.433612 0.95456 2.5479
386 1 17.8597 0.000913654 -22.6415 4.54068 0.420886 -3.06624
401 1 19.0863 -17.7158 -7.84427 0.587199 -1.77755 -1.84472
1611 1 5.20388 9.59784 -4.49775 1.73952 -3.55342 0.649235
409 1 1.0469 0.800108 -7.25549 -1.37351 -1.60969 2.69033
1502 1 23.4354 -8.75183 -9.32783 -3.15757 3.52241 1.76757
424 1 3.69134 -4.54392 -1.83128 4.70473 -2.19873 1.62876
431 1 10.757 -5.7174 -17.2413 0.745934 -3.03153 0.346613
441 1 17.3758 0.0113655 -2.89877 1.52719 0.0404319 0.136614
445 1 18.3252 -8.93245 -10.1016 -1.60013 -2.59203 -3.31053
446 1 21.9842 -12.8933 -7.90634 1.12553 2.95156 0.0942105
94 1 21.8944 3.75116 -12.1706 0.711706 -3.134 -0.306275
1548 1 14.0652 -23.4088 -8.9076 -0.495748 2.02398 2.52393
459 1 2.44348 5.70257 -12.4279 -5.45249 4.55038 -1.74377
1425 1 0.39089 6.74732 -9.53427 3.40955 -2.34674 -4.43394
461 1 1.67275 3.68072 -21.4114 2.81512 -3.45905 0.505033
2876 1 21.4059 -23.2238 -22.9009 -2.94594 0.0269049 1.68762
474 1 5.614 -3.75394 -12.0524 0.00698227 -5.46277 6.36268
1378 1 7.95975 -8.90127 -0.462814 -2.98466 1.56777 4.31339
2814 1 21.3481 -7.40406 -6.05108 -8.01169 -4.08668 -3.15533
485 1 20.9465 -21.7095 -18.7616 0.644938 -1.3956 4.50875
2069 1 23.241 -21.3469 -10.677 -2.25237 -3.84245 -0.873634
490 1 14.3879 -16.4397 -12.6045 1.11463 -0.934212 2.51204
493 1 14.3086 -1.52734 -14.0721 -1.77936 -1.4072 3.04165
496 1 6.56954 7.08735 -14.3557 -1.82513 1.71613 -1.22139
1424 1 18.9372 11.0575 -9.05302 -3.16785 2.52925 -1.53308
503 1 8.13651 -0.046127 -12.7842 -0.637421 3.39633 1.10727
3453 1 13.7844 9.99385 -19.5204 2.99339 5.27338 2.8629
534 1 16.8579 8.54939 -11.2373 1.5205 -5.01613 5.03563
2384 1 7.1912 -12.2383 -21.9492 2.03282 1.57283 0.567673
2074 1 -0.294643 10.8074 -13.7383 0.280725 -0.463338 1.56669
543 1 16.66 -15.8429 -17.4432 -0.932101 6.1411 0.570346
547 1 16.4564 -15.0951 -22.1611 -1.93762 1.84448 5.02294
2832 1 22.7475 -17.8803 -3.49686 -1.70818 1.59074 1.818
551 1 11.3022 4.94414 -19.4901 0.818688 4.86372 -1.17869
405 1 3.77466 -24.1986 -4.52957 0.509477 -4.53059 4.12788
3006 1 21.7737 7.38468 -17.5987 2.00176 -2.44206 -0.806107
1791 1 2.25627 -5.51365 -18.9136 3.44172 0.177422 1.43503
562 1 5.50559 8.42643 -21.1447 1.29783 -1.1097 -4.59561
574 1 11.1817 -21.8455 -3.81748 -1.36658 1.30577 -2.32343
579 1 3.94166 -22.6015 -9.80415 -3.70237 -2.11638 0.661495
584 1 15.9931 4.80425 -3.53069 -1.21733 3.56847 -3.17652
1154 1 1.13021 9.90779 -23.0943 -0.284329 0.0669984 -0.0727547
2210 1 20.1624 -16.6799 -0.370412 1.28208 1.04452 0.714121
608 1 5.20772 10.0362 -11.6741 9.26048 2.59656 3.24266
613 1 10.0113 8.51547 -17.5615 3.37562 -4.30941 -1.44716
620 1 22.7835 -10.2258 -11.816 1.91941 -2.90565 0.922317
2080 1 22.9312 -23.3174 -17.4525 2.28671 1.53778 -5.625
923 1 4.14533 -10.9024 -0.368011 3.99202 -3.36246 -2.21952
647 1 4.66011 6.44656 -2.05076 3.14252 3.10919 1.9861
648 1 19.6206 -17.567 -22.1731 1.40124 -1.55865 -4.90057
2420 1 1.01249 -9.92438 -9.86043 -1.04851 -4.51925 -0.522062
1126 1 1.05804 -14.7758 -15.1434 0.796678 -3.78333 -0.150605
2469 1 11.7883 -22.5775 -23.5485 -0.149435 1.16449 -0.364489
684 1 9.92675 -22.6454 -12.1529 3.14963 -3.59547 3.57502
695 1 7.81321 -14.0297 -7.40885 -5.69971 -3.05317 0.883154
698 1 22.4577 -10.2226 -5.53967 1.02022 0.274847 2.3239
3271 1 8.3596 -9.89005 -22.5073 1.18393 0.663048 4.81029
708 1 11.0889 -3.22217 -20.4233 4.83578 2.69792 -2.47473
714 1 21.9361 -6.22666 -10.4075 -0.886191 2.53062 -0.372253
720 1 3.28071 -3.49714 -20.837 -1.51049 0.545977 -6.43935
136 1 2.49536 6.25421 -4.51868 -1.91058 -1.17694 2.49264
727 1 9.31452 -2.92378 -14.6403 1.5895 -2.46201 3.20931
730 1 12.383 -20.5302 -18.0509 0.185011 2.42364 -3.1544
3112 1 0.981585 -14.2348 -18.1361 4.08618 -0.750899 -1.99981
744 1 9.76964 -10.687 -13.0051 -0.565885 -1.56634 3.38038
750 1 19.209 -3.79139 -8.83415 5.30553 -0.148888 -0.531849
853 1 12.2001 10.0231 -17.1971 -1.1121 -1.41119 0.868422
775 1 22.0468 -18.7785 -10.8614 -0.353949 1.81092 -7.16078
506 1 0.0703091 -21.3497 -14.2888 -4.37615 -4.96478 -0.562153
778 1 1.98042 -17.1823 -18.5213 3.75211 3.44176 1.82419
779 1 4.19026 4.17269 -9.003 -1.38827 2.42991 -3.50106
782 1 22.512 -7.89215 -13.5843 -1.48772 -6.1521 0.578858
803 1 17.8148 -11.0322 -8.02603 2.00735 -0.867516 -3.47714
804 1 8.93372 -20.0111 -11.3123 -3.02125 -1.72948 -1.67875
812 1 5.04421 -12.9217 -11.1047 4.084 4.13101 -0.855219
824 1 2.41482 -20.1692 -6.61656 -1.7681 -3.65333 -2.34205
3322 1 13.0537 -7.64367 -23.2003 -1.54717 -0.21629 1.68561
835 1 3.36406 7.74359 -22.9536 -7.2779 -0.880282 -6.43728
844 1 18.3655 -20.389 -19.4903 3.82051 -3.17431 1.24367
845 1 15.8703 8.48911 -1.9921 1.65248 -3.83248 1.4887
996 1 18.7591 10.0844 -16.3832 0.868178 -2.57893 1.02994
849 1 20.5228 -14.2238 -12.0355 -0.998566 -0.657815 -0.411295
2964 1 1.04387 -20.998 -21.232 1.99235 1.31815 2.84546
3753 1 8.44183 -2.33924 -23.3449 1.24169 4.33989 5.12516
1772 1 12.555 -23.5105 -0.654785 -4.12491 -1.36041 3.75077
860 1 13.7773 -4.73005 -16.7186 -1.09558 -1.06535 0.639708
2911 1 0.455942 1.91123 -19.3813 -2.53063 -4.3679 -0.949206
876 1 10.9391 -14.6167 -10.5902 2.10982 0.130175 5.40062
879 1 17.4396 9.86946 -20.4842 -3.13803 -1.48067 -6.23543
884 1 19.7783 -19.1102 -17.2326 -0.070733 -0.435556 1.37394
892 1 4.47642 -12.3556 -8.09333 5.15248 3.52686 -5.63647
2300 1 5.94304 11.1828 -0.530978 -0.299026 -1.6153 -2.11505
915 1 19.3875 -4.46625 -11.5272 3.30893 -5.46452 -3.02365
2569 1 18.4609 -18.2057 -13.7508 -0.320499 0.530333 -2.39797
921 1 9.48799 -11.439 -19.2645 1.66521 -0.838008 0.782681
931 1 14.7661 -1.28758 -7.15966 -1.70762 -1.2064 -0.923178
2884 1 7.70386 -7.19277 -23.6415 -6.53531 1.91153 1.96006
940 1 20.1779 0.375036 -8.95049 3.19373 2.95568 4.04715
952 1 11.8208 -12.3963 -9.23978 -1.41335 1.24588 -2.90751
954 1 15.283 8.58351 -7.78642 0.198013 -3.94208 1.56282
964 1 13.0807 -15.7619 -22.9405 -0.0641698 0.622706 -4.95723
967 1 17.9923 -1.69094 -15.5136 2.58636 3.69636 3.97398
981 1 6.68544 -1.32473 -2.81591 1.56897 2.41756 1.55089
989 1 6.93908 3.70264 -9.89315 1.94619 -1.01241 0.253892
1013 1 5.98751 -20.3468 -0.32116 -0.274962 0.634149 -0.760173
1505 1 18.9098 -24.4387 -22.2144 0.90717 -2.27075 -0.0934487
3587 1 21.0478 -14.885 -16.1876 -3.0717 -5.6606 0.899194
3856 1 14.4704 -19.4448 -3.75559 2.88556 -2.53625 1.11604
1021 1 19.8876 -18.6048 -2.79008 -1.16339 4.85639 -3.07267
1025 1 7.15709 5.5102 -21.1238 5.03945 1.3141 0.202346
2992 1 18.1505 11.1876 -11.6672 -3.67158 1.0492 -0.1949
3790 1 4.50232 -18.1941 -4.29314 0.199215 0.853181 -2.16483
767 1 2.51712 -12.7925 -1.70894 -0.272829 -1.48189 -1.18397
1053 1 3.35789 9.22684 -19.4536 4.60445 3.97408 -0.833096
1058 1 3.13312 -2.18596 -11.4339 0.633514 -1.37661 0.811705
2419 1 23.3984 5.06095 -18.7076 3.37915 -2.60924 -4.0501
1061 1 7.7066 9.32343 -12.9943 0.970272 0.543855 -4.2323
1066 1 13.6698 -4.09928 -22.8675 -0.668829 -0.729844 -1.8499
1072 1 15.9701 7.95706 -18.8103 -0.606402 2.14757 -1.60619
2477 1 11.7532 10.9378 -1.22744 0.149441 1.12786 3.98924
1309 1 2.5698 -12.5811 -14.0201 2.8648 -2.10606 4.19131
1077 1 14.4787 -9.74676 -6.19228 2.08288 1.02162 -2.36114
1087 1 12.4125 0.613762 -18.5695 6.10638 7.74485 3.5999
1229 1 18.0103 -14.8499 -1.34004 -0.806194 -3.97252 -0.820012
1118 1 20.982 1.53171 -13.9829 1.51452 -2.28884 1.04729
1121 1 12.7996 -2.22991 -18.2549 -5.07485 2.95623 -0.720693
1123 1 16.2696 -5.22298 -4.94308 -3.64887 1.90902 1.97915
1131 1 20.6101 -9.10773 -2.49363 -1.51226 0.997747 -1.96786
1140 1 14.6521 -5.89261 -19.0821 2.38495 1.83959 -0.21695
1143 1 2.68727 -5.81474 -15.0475 -1.61787 -1.38949 -0.242751
1144 1 12.3208 4.6209 -14.1262 -3.38581 -2.94543 -2.01307
77 1 13.5472 -23.4115 -3.33175 -3.3461 -0.752676 0.825338
1157 1 2.40936 3.20286 -7.09227 -0.278762 1.98853 -4.38121
3400 1 16.672 -22.9886 -23.5861 -3.13438 1.31134 2.33239
3319 1 0.233585 3.07929 -16.5726 2.83437 2.70983 -3.78753
1177 1 9.74988 3.26712 -17.4544 -6.37816 -1.77752 0.406327
1179 1 10.5044 -8.13594 -10.2282 5.16267 2.11369 -2.72266
1183 1 4.24711 -4.42989 -17.2266 4.11716 0.555304 1.97185
1190 1 15.495 -1.7794 -22.9069 0.259288 0.030685 2.32831
1195 1 14.7782 -12.1952 -15.6867 2.36988 2.66018 6.53856
1206 1 22.1979 -19.1766 -22.2125 0.16319 -1.05611 -1.15803
1207 1 19.2521 -0.351195 -17.4751 -1.3287 -0.268867 0.117366
1212 1 16.9348 5.55053 -10.2454 -0.545079 -1.83559 1.97497
1214 1 13.6844 -0.434964 -2.60079 -2.28242 -0.267523 -1.25569
144 1 23.3576 -7.6096 -17.6139 -3.43013 -3.07247 -0.447833
1216 1 16.0013 -7.7862 -12.8817 -3.77327 8.66809 -0.451103
1218 1 16.9565 -2.05043 -8.80898 -2.12283 1.02054 0.354922
2096 1 10.8612 -6.48789 -0.242462 -1.5786 -2.21954 -0.490786
1238 1 6.28268 0.967039 -10.9298 2.14735 -0.879226 -2.70329
1242 1 8.20572 -21.083 -16.1147 2.43798 4.46896 -0.119121
1256 1 4.59828 -20.819 -18.4485 -0.377742 -4.38723 1.34298
1260 1 3.55322 -5.76873 -12.3234 3.70753 0.362131 -0.531859
1261 1 15.2832 -11.147 -9.44436 5.12559 -4.66619 2.48235
1262 1 10.4381 -13.2529 -4.49104 3.28424 5.00835 -3.22774
1278 1 15.729 -7.73456 -22.0479 -3.18868 -0.813584 -0.795761
1280 1 1.15766 -4.0716 -5.67528 4.46024 1.01179 2.22999
1282 1 8.40525 -22.9608 -2.69913 4.23482 -2.63785 -3.04189
1283 1 3.69348 -22.7704 -6.96588 4.92399 6.11562 1.08558
1288 1 4.62499 0.626367 -17.7335 -3.47623 2.33657 2.38121
1295 1 13.6197 6.83811 -0.522512 -0.0824149 -1.71394 -1.40567
1294 1 13.8991 -12.2946 -7.14759 0.519847 1.21799 -2.21197
3800 1 14.2435 -2.7167 -4.47482 -6.77271 1.2531 3.02529
1298 1 3.57649 -7.02043 -3.3288 3.48036 -3.04836 -0.729989
1300 1 2.59958 -0.152127 -4.57944 6.42623 5.83502 -2.02106
1304 1 3.47306 3.20147 -4.26325 2.75336 3.5194 4.56801
484 1 22.3953 -14.1322 -14.0071 -3.34464 -1.56457 6.69446
1316 1 19.7855 -7.25573 -12.3012 -2.06661 -1.3596 -6.19639
1320 1 17.8676 -6.58747 -8.49327 -1.46097 1.49357 -0.0979813
1321 1 11.5185 -23.8839 -7.35789 3.56549 -0.376889 -2.76948
1689 1 4.9746 -24.3456 -2.07127 -2.74275 1.25276 -1.97792
3696 1 7.48587 1.60888 -15.3305 -0.20394 -0.580215 -0.98208
1334 1 15.0928 -8.36035 -10.2326 4.68281 -2.0706 1.66341
1338 1 1.49952 3.22869 -1.24886 -3.67689 1.26163 -2.89046
101 1 2.37713 -20.427 -10.8378 1.28808 5.35372 -0.160621
1346 1 16.1829 0.77061 -14.5495 3.53071 1.63355 3.39427
905 1 20.9831 -4.34612 -23.2 -6.58618 -2.6944 -4.48864
1364 1 13.6627 -13.5638 -13.3068 1.02813 0.270666 3.14606
1365 1 7.30918 -4.33983 -21.4761 2.31461 -1.5292 -1.62618
387 1 3.14589 -20.6171 -0.260131 -1.61839 -2.11555 -0.667895
670 1 -0.00506744 -15.9827 -0.929001 2.55589 -1.13687 2.02169
3481 1 2.53615 -22.7205 -22.8704 5.36015 -2.03892 6.34603
1026 1 -0.330701 10.6201 -9.82575 -1.92106 -2.23734 0.483099
3053 1 20.8725 -20.7705 -0.974959 1.63874 -3.24478 1.02317
3916 1 17.4365 -10.1485 -22.119 0.112429 -1.56461 -5.51959
1329 1 21.4503 -14.0156 -1.11195 1.84342 -1.7194 -2.34322
672 1 21.6074 8.78411 -11.194 0.53414 -1.73303 1.28967
1427 1 17.7486 -12.386 -3.25656 -0.986196 4.87461 1.57177
1446 1 2.81135 -8.66239 -11.297 -0.92785 -0.0967549 4.08421
1447 1 22.267 -1.36816 -19.3901 -4.48442 2.59722 -1.70061
1454 1 8.12794 -12.5588 -1.69725 0.0931731 -3.54076 3.45564
1215 1 3.3143 9.75597 -7.5675 -2.01772 0.860218 -1.16952
1473 1 12.3598 -20.1137 -15.0627 2.11284 -5.57545 -0.0081655
3926 1 11.5686 -2.4184 -23.1702 -7.07753 2.85299 -1.13611
1483 1 10.3554 -23.8986 -19.6913 1.75864 -2.11195 -4.83538
1491 1 13.5396 10.0509 -3.39272 -1.98226 -5.80399 0.686773
1497 1 11.3447 -7.91184 -18.9328 1.94021 -2.35885 -3.73975
1567 1 -0.402314 -9.62697 -20.9831 3.64479 1.88708 -3.406
1508 1 19.7301 -10.862 -4.77163 5.38113 0.417409 2.0621
3895 1 12.8013 -4.55513 -0.747179 -0.40217 1.85421 2.12152
1520 1 10.6546 1.54284 -12.8659 0.058866 3.04384 -5.48473
1527 1 0.972809 1.6848 -12.0022 3.0245 2.40559 0.181634
1532 1 17.9296 -5.32705 -16.0479 -1.90115 -2.52988 0.741107
1539 1 1.51488 10.1027 -16.0806 -0.817589 -1.39352 1.66144
1541 1 7.29781 -20.5269 -7.82798 -0.508958 -1.13405 1.06852
1547 1 12.0254 -4.18284 -3.57953 -1.47296 -1.82208 2.20746
3934 1 22.0733 6.53206 -14.8159 -2.37517 3.4912 -9.36927
3424 1 1.75279 -9.44297 -0.898695 -1.28982 4.5316 -1.79496
1551 1 9.4892 1.25162 -5.9149 -2.13498 -4.59301 -2.62602
1552 1 15.8298 9.88386 -16.3372 -0.290737 0.421354 1.70404
1556 1 17.7799 -19.0953 -9.84858 3.10696 -1.4824 2.59705
3692 1 8.24267 1.82864 -19.3097 -4.04532 -0.528422 -0.0143099
1605 1 1.1105 0.40617 -14.445 -0.275594 -1.45969 -2.22331
597 1 23.1053 -23.4844 -12.5961 3.00833 -0.51468 3.49671
3982 1 8.01506 -5.52916 -3.74395 0.195397 3.81138 -2.08221
1578 1 16.5992 2.3801 -8.23392 0.608635 -2.21144 -3.75494
1583 1 9.05754 -2.90899 -3.3293 -0.21294 -1.6148 3.34486
1587 1 18.581 -3.70744 -5.87907 0.840539 2.36698 -6.41687
1590 1 17.2897 8.21399 -14.244 1.50028 -0.703705 3.2725
1594 1 9.3122 7.79636 -3.05373 0.532199 -3.91739 -2.89956
1600 1 14.9279 -17.0054 -15.2658 -1.47976 -1.68514 2.59209
1603 1 5.91202 -7.47992 -12.513 -3.1154 0.896372 0.0806577
1604 1 18.8475 -14.3319 -18.3452 -3.7774 1.80351 -1.79587
3808 1 10.6148 -13.0636 -21.3166 0.516639 3.03645 2.0392
3303 1 22.255 -22.1395 -14.8667 0.548303 -2.96443 -5.18866
1616 1 15.9443 -9.70074 -17.125 -1.36241 0.287688 -2.98544
1620 1 11.8527 -9.16499 -7.53677 0.114654 -2.2083 1.24477
3937 1 14.3317 -18.7293 -18.7997 0.21685 5.99085 -4.99876
1635 1 6.71283 -16.9858 -10.5332 -7.77261 -3.80771 -2.78255
1638 1 15.3581 -2.40447 -19.727 -0.0430636 0.342688 -0.573415
1650 1 11.6901 -4.08783 -10.8245 -1.3391 3.20911 -0.224863
3563 1 1.21726 -24.0604 -7.16311 3.56449 -2.81646 -1.06824
1652 1 13.952 6.03319 -19.9126 -2.28265 1.68069 -2.24687
1657 1 13.7449 7.43966 -10.0527 -0.811256 4.13175 -0.26338
1660 1 1.00324 -13.3315 -20.944 0.374711 3.67396 -0.332704
1664 1 3.28686 -8.56422 -15.4735 -1.00459 -0.0632832 -2.01536
1666 1 17.7879 -2.99318 -17.9744 1.37795 0.0997785 1.21987
1669 1 14.3272 -21.2768 -13.3448 0.293744 0.779933 -4.44392
1674 1 4.97228 -3.09439 -6.62022 -5.02885 4.71226 1.64569
1687 1 18.0037 -14.7415 -10.6095 2.10479 -2.21186 -0.799289
3601 1 22.9291 -13.3675 -5.04759 -2.07612 4.0026 -0.22384
3107 1 19.9948 -10.9284 -23.7568 1.69025 -5.05483 -0.107533
1700 1 13.6759 -2.16647 -11.5217 2.43038 -2.37136 2.36331
1703 1 8.53304 7.38504 -10.7414 -3.87523 2.03868 6.48733
3775 1 3.1253 -0.205533 -9.25488 -0.210418 4.84839 1.20267
1714 1 3.57772 2.34476 -11.0374 5.72982 0.0460474 -0.0911641
3921 1 15.2533 5.98761 -15.0548 -0.0551226 -0.88131 5.12916
1717 1 11.7886 -16.6931 -0.984457 4.98487 1.49641 -6.25226
1718 1 7.23105 -21.5901 -13.3504 -1.2821 -3.46919 7.24824
3802 1 7.45108 1.60415 -23.4187 0.2399 0.498094 -2.22442
2205 1 23.0208 9.09144 -13.9374 1.79711 -0.20461 -7.64666
3126 1 2.14345 9.14949 -4.83805 5.3132 -3.64596 4.56819
1747 1 4.99556 -18.8428 -7.21646 1.47321 0.356488 -2.49735
1748 1 17.1421 -2.73036 -3.41729 -2.81259 -1.74429 2.76838
451 1 21.7354 -12.1322 -17.283 -0.0912316 1.33365 0.354335
1757 1 15.1498 -14.9846 -6.44195 -0.360659 -1.18388 0.307442
1761 1 22.5791 -17.4287 -19.9784 -0.363282 3.36637 4.19805
1765 1 3.63007 -15.299 -4.18205 4.2687 0.870974 2.16898
1779 1 6.5412 8.68787 -2.00409 0.847084 3.20626 -1.92184
1780 1 9.55103 8.70555 -5.6398 -0.454368 -0.170983 -0.118554
1783 1 18.8164 7.42406 -6.35073 0.350312 -0.583769 2.91199
3375 1 20.9857 -11.0062 -0.14305 -2.2895 6.24728 -3.54621
1790 1 7.57731 5.12665 -12.4474 0.251426 -3.61167 -0.28617
550 1 1.71149 -23.586 -13.5707 -1.70412 -1.50332 -4.02811
3772 1 14.0487 -14.7155 -1.50806 -7.58521 -1.7298 -1.49838
1794 1 17.7426 5.90117 -20.1824 0.893064 -1.9527 0.0756043
1795 1 13.0424 -0.722872 -9.34231 -0.491418 2.08073 -1.26235
1798 1 19.1962 -3.83816 -20.5035 -5.57453 -0.813964 0.862428
1805 1 12.178 4.4896 -3.77116 -0.730786 3.86788 -3.01761
1273 1 22.5664 6.38766 -23.353 -3.09602 -1.02425 3.12478
1814 1 12.5223 3.5643 -11.1456 -0.585386 2.97947 4.66727
1822 1 16.1957 -6.78794 -2.54307 -0.218736 -0.27542 -3.02938
1825 1 7.11266 -11.1329 -8.11003 -4.10447 -1.1969 -3.08932
1827 1 15.4449 -21.8848 -4.44749 0.630983 -0.00216914 2.77308
1831 1 11.033 -15.697 -3.67223 1.13208 -0.904319 -2.14484
1834 1 6.34923 -8.69814 -18.1961 -2.04606 3.05603 -4.00954
1841 1 6.59827 -23.729 -9.47316 3.0365 -2.49835 2.37901
1843 1 5.74975 -2.54844 -20.2015 1.46008 2.2974 -2.48598
1848 1 5.67951 7.10424 -17.4728 -0.543214 2.58088 -3.27737
3830 1 17.3107 -10.5538 -12.6254 3.80787 0.954155 4.01828
1850 1 15.2677 -19.5727 -8.2802 -6.86308 4.83189 -0.212328
2065 1 15.464 -17.4678 -23.2812 -1.21605 3.2692 -3.25902
1856 1 9.44427 -0.91053 -19.7127 -1.98181 1.6067 0.425987
1858 1 3.04541 -20.4027 -13.966 -2.80598 1.38974 -4.44113
1859 1 6.89172 -15.6755 -16.4282 0.115516 -1.67391 -3.2582
1867 1 5.01382 -9.23863 -4.26089 0.603799 0.0741311 5.33021
560 1 22.2486 -20.5458 -6.16272 4.6086 -0.92122 1.35963
3904 1 10.3031 -6.44601 -7.51268 1.65246 -5.86606 2.8904
1902 1 20.6145 3.04554 -21.2826 2.72136 4.99684 -2.26445
299 1 6.68797 -24.3629 -12.4158 -0.745553 3.08004 -5.40396
1911 1 23.0155 -2.57287 -6.38476 1.6058 -5.8931 -1.35741
1915 1 19.7384 -20.7502 -14.7261 3.94078 -3.95209 0.758775
1923 1 10.275 -0.422495 -9.84969 5.29249 -1.03868 -6.48103
3917 1 2.26032 -4.54604 -10.167 3.48621 0.136002 -4.00866
1926 1 11.142 -0.694662 -4.25281 -2.80878 -2.11538 2.24845
1934 1 1.56394 -13.3329 -4.48746 1.33601 0.259743 -2.70806
1946 1 11.3342 9.9319 -7.9548 -3.02816 -1.00332 0.153767
1948 1 11.8916 0.112931 -15.018 -2.1796 -2.43659 6.31888
1952 1 6.86867 -16.5222 -13.6148 0.965055 0.22977 0.417103
1953 1 17.0004 -19.1874 -2.51737 -2.44651 2.15475 2.01386
1875 1 22.1462 -2.67791 -15.1304 2.3517 -0.1795 -1.04707
1961 1 14.9059 -13.6574 -3.86217 -0.443853 4.82793 -2.46601
2774 1 22.913 1.88882 -15.778 3.82138 0.0800685 -4.15638
1209 1 1.76879 -5.66899 -21.9989 -3.94536 -4.09873 -0.168708
1975 1 10.191 -17.572 -18.0123 0.525049 -6.87277 -1.40949
3101 1 23.2457 -14.3636 -20.0576 -0.374025 -1.83847 -0.440313
1983 1 18.7403 -6.81541 -5.72051 -7.92695 -1.41365 2.31123
2357 1 -0.154172 0.78134 -1.54681 -3.08483 -2.3268 -3.4772
1990 1 19.331 -13.0699 -6.53561 -0.737029 2.97884 1.66044
2000 1 5.16037 5.60268 -23.3456 7.50876 0.0627854 -1.15346
2003 1 12.4893 -4.72421 -8.45223 -0.54102 6.76438 1.39861
2963 1 21.9056 9.24744 -4.40069 -0.371158 -1.86464 -0.850242
2006 1 9.67471 -9.04307 -5.51686 -3.28602 -0.252537 -1.69307
2020 1 8.91119 -12.8369 -14.5662 -1.92158 -3.02382 1.24462
3798 1 4.33168 2.43593 -1.46338 -1.13623 2.0179 -1.1183
2029 1 15.5672 -9.45411 -3.3765 -2.00218 0.490772 -1.80351
2135 1 16.7588 8.70105 -23.5795 -1.87096 4.91644 -0.399081
2190 1 1.01041 5.57329 -6.76992 -3.30539 -1.0119 1.44497
2045 1 8.31156 -18.3006 -16.0022 -0.284933 2.41422 2.77782
460 1 7.05807 8.58816 -23.4134 -0.575983 5.312 -2.07079
2030 1 9.43815 -16.5646 -22.82 -2.42276 3.79093 2.46429
3951 1 5.1344 4.9276 -15.7958 -0.840426 -1.33639 -3.91212
3727 1 2.08035 -10.8302 -20.2123 2.37762 -0.847103 -2.67772
557 1 9.39418 -23.5612 -9.43113 8.93762 -2.73773 0.0570512
2079 1 10.6394 -12.9835 -16.9271 -2.82406 -2.95534 2.36265
2083 1 19.219 8.18212 -9.21493 2.22873 -2.71806 -3.8258
2102 1 8.61949 5.81006 -6.50846 2.5361 -0.294067 1.1801
2103 1 9.64214 -17.8621 -13.1923 -0.210508 0.0502832 0.377827
2105 1 14.2231 9.50706 -12.1287 -2.25558 2.08182 -0.539541
2115 1 15.9604 -12.8926 -11.6171 1.17828 -0.296185 -0.985817
2122 1 12.5205 5.23625 -8.82469 -0.186396 0.945116 2.48082
2123 1 21.8833 -7.50618 -19.9472 -0.741889 -3.99803 -4.61157
2124 1 21.5587 2.87063 -18.1032 -1.76311 -5.029 0.9155
2126 1 9.57611 -7.76909 -2.86838 3.20151 2.55605 -3.37168
92 1 16.9959 -21.99 -2.06852 1.49224 -2.47365 2.33151
2131 1 19.2863 -3.7973 -2.01062 -1.04261 -3.22517 -2.65011
3833 1 17.6988 0.315795 -10.3874 0.519066 -1.21027 0.855984
2143 1 17.5431 6.45653 -16.8058 1.65454 -0.585039 -0.183409
2149 1 18.6783 -0.979889 -6.67135 4.51203 6.65085 1.59934
2151 1 12.2596 7.59126 -13.2559 -0.966428 3.33179 3.70898
3990 1 9.4563 5.89175 -23.298 0.341763 2.13788 5.23357
2162 1 19.8079 7.46371 -3.26023 2.26297 1.18947 -2.60746
2164 1 17.887 2.94367 -4.19591 -0.960911 0.263689 -1.8295
2169 1 9.40837 -6.35648 -21.514 2.56805 -2.53396 3.83554
2173 1 19.4503 3.91104 -14.0418 2.59389 -3.01077 2.92584
2174 1 1.23277 10.5431 -2.33204 -0.107233 -3.45612 -3.8859
2178 1 17.6112 -15.2831 -7.98103 -0.718338 4.84803 5.36946
2180 1 12.721 -9.98486 -10.3232 2.34251 3.45714 -2.43158
2186 1 2.08398 -9.41976 -17.7589 -5.94171 -0.410489 1.17755
2193 1 17.4879 -13.281 -15.6965 3.46413 -0.782807 -1.69684
2201 1 14.0829 -11.2893 -21.5137 -2.82311 1.63396 5.30269
2202 1 16.9789 -18.61 -17.6981 1.46442 0.441684 -0.181601
3806 1 0.890248 2.1122 -3.88638 0.223145 -0.0629692 0.725031
874 1 11.3886 -0.522625 -0.486942 0.304374 -3.94794 2.35683
3335 1 22.2236 -1.44881 -3.41675 1.39263 2.87832 4.00067
8 1 23.5511 -11.8862 -15.1123 -5.03439 1.66307 1.95783
2216 1 2.47405 4.98319 -16.5842 -4.46916 2.01745 -2.74258
2225 1 2.29082 -18.632 -21.1192 0.598952 -0.32306 0.000598949
2227 1 6.44133 4.36249 -1.08442 0.628865 3.06158 -1.17702
677 1 23.3248 -5.56049 -15.2397 0.632051 -0.164492 0.37619
2473 1 13.9336 10.355 -6.26151 2.9078 -6.3523 -1.51626
2253 1 7.1752 -19.3372 -4.15072 3.36573 4.52335 -2.54002
2255 1 2.581 0.208586 -19.8166 1.06161 0.828313 2.87945
2261 1 15.5129 -3.88753 -10.4049 -6.38932 -2.87519 1.25687
2262 1 19.6311 -22.3121 -2.93573 3.34024 -2.03335 -3.01923
2263 1 0.743648 -16.0519 -3.77745 -1.16099 -1.02042 0.230395
2268 1 13.188 1.12042 -5.67814 -2.98494 -0.425056 -2.32335
3369 1 0.420797 -1.05278 -10.4604 2.15181 3.12178 0.0436785
3248 1 9.23157 0.600155 -2.37596 3.27194 1.60136 -3.51836
1706 1 7.16799 10.9112 -21.3468 2.97728 1.97174 1.85526
3012 1 1.75331 -24.3013 -18.4128 -1.86355 -3.5956 1.55933
2297 1 9.45539 7.08648 -20.0046 1.87589 -2.57431 -0.544861
2299 1 7.57953 -13.756 -4.56859 -4.47184 3.10336 1.24746
2434 1 2.20423 -23.5732 -0.951503 -1.21639 2.60419 -0.280458
2308 1 4.8935 4.36195 -19.9991 0.335179 1.65891 0.123802
1411 1 20.7884 0.853792 -23.2374 -2.70166 1.63945 1.11238
2320 1 20.3457 5.0185 -16.5007 -0.457924 -1.34532 -0.728987
2323 1 5.65061 -3.94681 -3.96079 3.22611 -0.072518 -3.33994
2324 1 5.75371 -22.5079 -16.4866 -0.762675 1.33447 5.15607
3761 1 19.05 -11.4708 -18.5668 5.8416 3.24581 -1.17241
2326 1 21.0701 -10.4197 -14.9862 -0.920843 1.20011 -2.47565
2327 1 14.958 1.90288 -16.9393 -1.88143 -2.40891 -0.0570519
2333 1 10.4791 -22.0508 -14.7721 5.99227 0.447701 -1.38808
2336 1 14.2975 -8.88023 -19.6936 6.74481 1.88492 1.06102
3485 1 0.406441 5.47028 -2.6803 5.45886 -4.10877 0.409699
595 1 7.37202 -17.9345 -23.9466 2.97723 -2.31469 2.02655
2341 1 6.48472 -21.0959 -20.7739 -1.75195 0.120345 -2.09274
2350 1 11.1277 8.6975 -10.6665 1.08 2.45008 0.490144
2919 1 21.6598 -15.3161 -3.88687 -2.72432 -3.63693 -0.682766
2354 1 17.3343 -18.9866 -21.6015 -3.59928 1.02973 0.978831
3139 1 5.70669 11.1781 -14.4666 0.502577 0.103793 2.02517
2358 1 4.93902 -10.8454 -14.0169 3.48187 -3.77803 3.30958
2363 1 16.6176 -10.9122 -0.969141 -5.57061 -1.2848 0.241223
2718 1 8.28869 -14.786 -20.9996 3.41892 0.611911 1.29122
2483 1 0.556758 8.90222 -11.7232 -0.175476 -0.115384 -11.6875
2381 1 12.6839 -8.90856 -3.05798 -0.317686 -7.82938 -1.93165
1389 1 21.0764 -3.93587 -4.56595 3.29183 4.62409 -0.25439
3900 1 12.1883 -17.3741 -14.407 0.293771 0.797186 5.51947
777 1 23.4571 -4.29784 -12.3592 -1.46547 0.331068 -1.24417
2414 1 14.3099 -6.74814 -6.11537 -0.343932 -4.69402 1.92237
2418 1 14.1787 2.3547 -2.90223 -2.60651 -0.580667 0.814026
124 1 23.3097 -19.5232 -15.2032 0.871035 -3.13085 -4.8062
2440 1 6.61008 -2.03424 -14.3731 1.54886 4.26599 1.65877
1571 1 0.195982 -11.7973 -0.193676 2.87351 5.87921 1.10228
2448 1 2.81433 -14.6482 -10.3325 0.876483 2.51039 -4.28414
2213 1 17.8509 9.63298 -3.73418 2.23603 2.31836 -1.57527
3573 1 19.3003 -1.76984 -0.232858 0.633455 1.44215 1.65855
3967 1 2.35534 -6.67402 -6.10985 -1.40576 -1.56241 0.2761
2470 1 12.556 -21.9023 -10.989 -5.86176 -0.289449 2.95688
3746 1 6.67598 -23.0148 -6.71776 0.379344 -1.75476 2.9534
1015 1 -0.175533 4.78219 -19.1708 -0.642504 0.727446 -5.75957
2482 1 8.32879 -5.2052 -0.801239 -1.95415 1.08027 -0.0291924
2484 1 4.31498 -16.8842 -9.10713 -3.88361 -4.9071 -4.16708
1754 1 20.1593 10.709 -19.8471 -2.04569 3.06105 1.64231
2495 1 12.2862 -14.8114 -6.35599 0.952836 -0.33058 1.22747
3740 1 6.30311 0.339742 -20.9592 -4.00018 1.12862 -2.45723
2507 1 9.83227 0.268962 -16.9617 1.56166 0.957243 -0.979875
1043 1 17.418 9.94603 -6.70606 -4.7471 0.508161 -1.88308
2530 1 4.88718 -14.4194 -13.5955 2.7839 -3.68914 -2.19965
3997 1 18.4384 -22.7903 -11.224 -0.307669 1.78898 5.56692
2548 1 14.9475 -6.10048 -8.80389 -1.87018 0.29097 -1.51706
2557 1 17.3851 -22.1354 -15.6445 -4.02027 -2.58935 2.31194
2563 1 19.5829 -0.96829 -20.5195 2.69401 3.81275 3.15563
2568 1 19.784 -8.65309 -18.5653 2.87627 1.18849 0.707104
1815 1 13.1001 0.00564129 -23.1655 0.0343028 0.413041 7.69595
2573 1 17.5104 -22.2171 -6.30628 0.0360914 -0.648218 0.375636
2588 1 18.5522 1.8358 -15.8573 0.918365 1.42764 2.55068
2590 1 11.6843 2.6312 -7.67749 -4.03929 0.807605 -2.41763
2598 1 20.0764 -0.0523334 -2.19967 3.08075 1.27926 2.37838
3443 1 23.111 4.00702 -2.44326 4.06284 2.21172 -2.60554
2192 1 1.68526 1.41591 -23.3697 7.31803 2.33575 1.0593
2608 1 14.3576 -19.3499 -21.5319 -4.39599 0.0664463 -2.87436
2610 1 1.36467 6.54712 -21.117 3.27246 -3.86307 0.91023
3960 1 20.0992 -11.3588 -12.2556 1.13058 -3.11619 -1.5385
2628 1 12.0583 -5.77121 -20.9713 -3.48401 -2.46224 -1.46451
2632 1 19.0811 2.00884 -19.3788 1.06977 -0.460662 -1.80632
2637 1 13.066 -13.7228 -17.4002 3.45865 0.102634 -0.464185
2638 1 15.8007 6.59004 -5.94459 0.0670965 -0.0358321 2.55052
3463 1 21.8988 7.51776 -20.5412 1.93626 0.442125 3.06668
2644 1 19.6726 -20.0958 -11.774 -4.41883 1.65315 -5.11274
2654 1 19.2648 -6.49352 -2.77299 2.64409 -0.297402 -2.21273
3666 1 1.56663 -15.9752 -22.2044 4.89254 0.0619864 -1.52303
2675 1 19.4576 3.27953 -8.7524 2.48437 -6.82946 2.34254
2678 1 4.52686 -22.8527 -14.0395 1.74855 0.467714 0.628564
2680 1 7.55795 -2.97422 -7.80893 8.04906 -3.18387 0.315767
3923 1 22.5797 6.09192 -10.8233 -0.602052 -1.10002 -1.01773
2687 1 18.8647 -15.4301 -14.3829 -1.97433 -0.583575 1.56515
2692 1 4.90255 4.25038 -13.0131 1.10558 0.669565 -0.115876
2697 1 5.18229 0.737591 -4.07811 1.73712 -1.48951 -0.618969
2703 1 16.8613 -4.94555 -12.6243 -1.89843 3.71183 3.05083
3723 1 9.43959 3.99009 -14.5391 3.30633 0.311103 2.68024
2039 1 9.57267 -23.5345 -22.1959 -2.99773 -0.736593 0.364057
2743 1 1.75735 -18.4052 -8.80833 -2.25524 -0.465624 -3.67316
2746 1 5.0108 -12.7074 -3.38578 4.58925 -1.9619 0.95249
2765 1 4.9198 -18.5532 -16.8231 5.2044 4.9927 1.44119
1073 1 0.0567511 -21.9583 -9.92133 -1.50204 -0.528019 3.90698
2776 1 12.3654 7.8973 -5.75014 1.03337 -0.669625 -4.5332
2783 1 13.3307 -9.43165 -15.6233 -5.51515 -3.96369 2.79569
2785 1 21.9046 -0.478694 -16.7563 -3.21399 -2.1814 -1.04679
2789 1 7.86149 -5.51935 -6.63417 2.81659 -2.7221 -4.59607
3264 1 9.89293 8.79445 -22.6654 -0.0446664 -2.55061 -0.913348
2803 1 20.6832 -4.78865 -16.4085 -1.79767 1.47909 -2.83007
3768 1 1.60255 7.36017 -14.9819 1.49698 -4.62437 2.71546
606 1 1.77756 -1.24065 -22.3635 -6.5141 -0.832645 -3.21748
3328 1 1.15397 -16.9222 -11.2199 -2.99079 0.932083 -6.06283
2817 1 5.66789 -15.7783 -21.0836 0.298064 -1.32835 -1.67813
2821 1 18.3008 -7.75682 -14.5572 1.63054 0.199709 0.350801
2826 1 10.1226 -21.5531 -0.899125 0.854837 -4.37288 0.0832198
2828 1 1.68355 -2.35441 -18.6056 -2.02521 -4.26145 -1.88599
2831 1 14.3798 5.65752 -12.3139 0.124407 -8.86858 -2.07197
3707 1 16.9432 4.25848 -12.8923 -1.49456 2.04573 -3.92023
2841 1 18.0298 -17.7267 -5.11274 3.71408 -1.96331 -0.0617245
2843 1 15.7377 4.74505 -21.7412 -1.08312 0.855051 5.17211
2845 1 19.8123 5.64377 -22.0967 -0.821141 -1.12715 -1.66221
2850 1 3.32239 6.70966 -8.59084 1.68738 7.40665 -2.66385
3295 1 3.38494 -20.9034 -3.2778 2.1902 2.16472 0.670615
2854 1 5.81952 -7.04793 -8.0555 0.859186 0.257074 0.534786
495 1 -0.217726 -9.40493 -5.52072 -1.56741 -0.70125 1.355
2858 1 10.0986 0.00277262 -22.2735 -0.62876 -0.0692332 2.75233
2862 1 11.9707 -2.69764 -15.5151 0.32131 0.183745 -0.365535
2863 1 21.9731 -17.5068 -16.9966 3.17598 -3.59321 -1.78851
1227 1 0.932055 -8.0809 -3.07702 7.62477 2.57812 -3.98333
2875 1 21.879 -3.99269 -8.44966 -1.60269 -3.01714 2.25084
3731 1 5.2623 -18.7317 -21.8645 -0.86801 -4.51533 2.61381
3872 1 20.1125 -23.8897 -9.12324 0.600807 0.651013 4.03657
3813 1 13.6358 3.72875 -0.434761 -3.39838 -3.47767 -4.28732
2912 1 10.3516 -15.5989 -8.12379 0.265517 -0.434311 5.25854
2913 1 17.7854 6.4877 -1.71669 2.9075 -0.957704 1.18384
2918 1 21.6985 5.27721 -4.50595 -1.35872 1.08803 -2.28356
486 1 15.637 -0.170005 -0.622393 1.01605 -4.3613 2.99366
2999 1 12.2347 -19.5532 -1.96773 -3.04534 -2.84682 3.56872
2934 1 8.99936 3.36534 -21.8002 -3.22147 -3.05592 -1.16857
3733 1 4.01069 -15.4886 -1.43038 -1.70602 1.79666 1.44954
625 1 -0.316419 -6.95157 -7.29714 2.88867 -3.50609 1.47667
2951 1 11.2117 -19.5374 -9.59559 1.49273 -3.4742 -2.40866
2958 1 9.8523 -5.89789 -14.6129 6.46016 2.90806 -3.30777
700 1 1.4138 5.55317 -23.7221 -0.196182 -0.564188 -1.29906
2965 1 20.3768 -0.284156 -11.8767 -1.99705 2.40058 3.33644
2970 1 18.2338 -10.6185 -15.6049 3.65236 -2.44404 -1.88148
1693 1 19.5919 8.67498 -22.4376 3.429 -2.03322 1.68404
2977 1 3.59463 -11.3803 -5.43439 0.726981 0.546429 3.30631
2988 1 1.28968 -22.7085 -3.63241 3.69682 -0.313216 2.14315
3679 1 9.15282 -20.6043 -5.65069 2.46887 -1.55853 -1.31805
3005 1 5.25129 5.48777 -4.91264 -2.29379 0.755859 -0.169447
2616 1 22.7977 0.208854 -10.4276 -2.44341 2.35092 0.11833
3758 1 21.472 -4.75733 -19.0609 -0.654685 1.55597 3.13106
3016 1 16.4152 -11.17 -19.559 -3.81085 3.35911 -1.20303
3032 1 17.3557 -9.17489 -5.63838 -0.936764 -0.510751 4.6064
3043 1 6.21264 -13.0076 -15.6823 -0.186609 3.9831 -0.340826
3046 1 17.1401 -7.3177 -17.9414 2.61946 2.74029 -0.860724
2364 1 2.19374 -2.82263 -3.41837 2.00185 -5.68344 -2.79529
3065 1 5.34871 -10.0742 -11.3564 2.63277 -1.83497 -5.80172
3069 1 6.91807 -8.93165 -6.14964 0.200185 -1.53695 2.99496
3301 1 21.3814 8.79591 -7.29544 -1.05786 -4.04729 -2.66971
3079 1 11.6368 -6.78525 -4.73272 4.01243 0.597177 -4.2589
3083 1 7.28041 -14.3092 -10.5419 2.97519 0.384276 0.379386
3090 1 12.0544 -2.39069 -6.81856 0.985985 -4.07132 -2.84685
3507 1 8.2256 10.9879 -8.27636 -3.43601 0.718048 -3.03327
3100 1 18.417 -6.90775 -20.6405 -1.98557 2.43461 -0.722877
3106 1 2.17468 -9.51544 -7.23109 -5.00712 2.47614 -1.21882
3108 1 7.07181 -17.0044 -6.38602 -0.110981 -1.12212 -6.11797
3111 1 8.80241 -21.7635 -18.7469 -3.62381 -1.81221 2.00842
3935 1 9.22667 -15.1504 -18.3235 1.19996 1.16641 0.94986
3113 1 10.9521 -9.99329 -16.9849 -2.30991 -2.11339 -5.2232
3114 1 4.41207 9.84718 -16.7568 6.57852 -3.07138 2.68373
3117 1 12.857 -11.529 -4.50625 -3.40999 2.21026 -4.21544
3918 1 10.1476 8.88583 -14.6203 0.953997 -2.97865 0.726096
3128 1 4.03084 8.64086 -14.1959 -2.07908 -0.219141 1.81254
3134 1 18.3444 3.8117 -1.13921 -4.08675 -0.229232 1.54476
3137 1 5.85833 -1.78553 -17.1298 -3.38262 1.28689 2.17495
3975 1 4.15495 2.22933 -21.4328 -2.71848 1.51633 -1.62676
2271 1 22.039 -17.2438 -8.38753 -0.424314 -0.24651 3.22047
3141 1 9.53626 -1.09959 -7.31708 -2.75252 0.45114 -0.687973
3149 1 7.41043 8.89303 -18.9244 -2.25592 -0.555008 1.27809
3755 1 15.2552 4.78131 -8.09081 1.51689 1.27612 4.2933
3158 1 16.5806 -21.8802 -8.88578 -0.783292 1.21021 2.02636
3159 1 19.4026 4.61407 -6.18297 -2.60008 5.73265 -3.27412
3167 1 20.4683 -15.4131 -20.4117 0.299601 2.30976 2.86806
3169 1 13.1804 -23.0039 -19.4524 -0.492829 -2.09679 3.52358
3175 1 20.8287 2.467 -4.78833 4.83097 1.82697 -0.578726
2318 1 20.5871 -8.11759 -8.6689 -1.21702 -0.462978 -2.08681
3191 1 7.71027 -7.1528 -10.2516 -3.41683 -3.69714 0.0328232
3870 1 14.0645 -19.1176 -10.9672 -1.65678 -0.452332 1.39662
3198 1 6.27536 2.93522 -17.8791 -7.39648 0.0889434 5.78179
1894 1 -0.00961783 -17.3999 -6.33363 0.495883 -0.835906 1.63742
3234 1 11.5615 -6.32228 -12.5459 -0.558156 3.74718 -0.833595
3242 1 20.6943 -7.6817 -16.0864 -4.38162 -0.101277 -1.86471
3250 1 14.3961 4.65402 -17.3556 -1.18073 2.14242 -1.95601
3254 1 19.9082 5.40517 -10.479 0.537077 -6.34452 0.340191
3954 1 3.3047 6.29219 -18.9737 3.93633 3.58394 2.82933
3265 1 8.69642 -2.47192 -17.3601 0.945788 0.701057 -3.33776
3278 1 1.04377 -8.24625 -23.0968 2.9956 4.96007 -2.8734
3282 1 2.836 1.93673 -16.0511 3.27207 -1.05406 -0.388604
483 1 7.57514 -18.4579 -1.49613 -0.0358351 2.6818 -3.94824
3298 1 6.23184 -8.50698 -15.2607 -5.15455 -1.62383 -1.95448
1976 1 19.5905 -8.19889 -22.9414 -1.99911 3.73424 -4.55654
3949 1 2.9214 -16.5836 -13.5414 -1.48318 2.15979 2.14399
3305 1 5.54923 7.65034 -6.69445 3.84996 4.19958 -3.09965
3311 1 9.54378 5.10071 -9.25182 -1.96163 -0.130369 2.2948
3315 1 21.4511 -11.9548 -20.2621 -2.6929 2.6316 2.28978
3316 1 3.78246 -5.12683 -7.89738 -2.49507 -0.200623 2.09347
1310 1 0.815597 -18.8513 -1.05038 5.42755 -8.05704 0.839843
3320 1 7.92319 8.09956 -8.08427 4.17613 -1.5756 -3.1368
3887 1 1.35851 -11.9495 -16.5181 -3.47914 -0.934671 -3.44328
3324 1 11.8605 -17.1478 -11.3317 -3.38311 1.72809 2.04144
3327 1 9.26528 -23.4773 -5.29743 4.4974 4.52615 -0.320767
995 1 8.32469 2.46097 -0.142493 1.90702 -0.0541468 0.957705
3329 1 11.7359 6.20916 -16.8114 2.73167 1.02994 0.437233
2641 1 19.7471 6.64669 -13.1558 2.93395 -4.07596 -1.83959
3340 1 16.707 2.07443 -20.9858 6.27733 -0.253566 -0.912529
3363 1 15.9379 -3.65019 -14.9257 -2.88705 -3.17955 0.145525
3367 1 1.95805 -21.6861 -18.5607 1.75092 -0.663104 -1.78875
3372 1 5.8137 -0.622877 -8.44926 -4.66995 0.0792013 1.60089
3374 1 20.8506 -13.5454 -22.6635 3.42807 0.653515 -1.02762
3384 1 16.1477 -19.6894 -15.0809 -0.865238 1.94154 -2.25853
3386 1 11.3165 -10.3298 -22.7048 -0.274519 -2.53978 -3.36065
1040 1 5.38242 -5.78517 -23.0393 -4.23066 5.00658 -1.25609
3402 1 11.4721 -18.4537 -22.3725 -2.70077 -3.92796 2.38547
3407 1 9.7126 -2.37247 -11.8399 -3.42609 -3.09028 -3.73474
3412 1 7.82325 -4.14215 -10.4775 -1.248 0.344337 1.9378
3416 1 19.7863 -20.6106 -5.08487 4.03594 -1.62376 -0.956187
3422 1 6.61742 -15.8721 -1.07566 5.75897 -1.33534 7.40821
3441 1 4.92466 -14.9906 -6.85553 2.35623 3.81643 2.33453
3451 1 3.87573 -13.441 -17.9682 0.791255 -2.19291 -1.32389
3288 1 0.489426 9.72692 -18.5918 -4.34823 4.09801 -1.14046
3458 1 12.2819 8.10844 -21.0738 -2.51652 -0.867072 -1.49848
449 1 15.8904 -4.00646 -1.00604 -1.62144 5.45182 0.843789
3618 1 1.17842 -12.3535 -11.3182 5.46844 1.13875 -0.900924
3674 1 0.192183 -3.12831 -8.24503 -2.84701 3.67462 1.19699
3487 1 12.6876 -11.0063 -12.9919 2.37824 -0.858332 1.22886
3489 1 21.3133 -0.102789 -6.06553 1.06768 1.39711 6.38098
2058 1 19.7509 9.63895 -13.6893 1.34958 -1.15502 -1.65556
3192 1 22.4151 11.0923 -0.704845 -0.0603282 -0.173301 0.865061
3860 1 12.6842 -16.8798 -17.2856 -2.86152 1.84437 5.37592
3535 1 10.5512 -19.541 -20.0827 1.9817 5.53447 -0.964528
3541 1 13.6506 2.92611 -22.9283 -1.53637 -2.66685 0.633589
3547 1 8.64777 -17.9455 -8.81509 -2.2527 -3.21258 0.926612
3548 1 6.80924 -11.5618 -18.1824 -5.66382 -6.66315 3.8808
3551 1 11.7632 2.37103 -20.8186 5.53594 -2.74031 -1.2772
3557 1 7.96661 5.39808 -18.2591 4.41769 -0.791776 -1.59116
2302 1 13.4225 11.0613 -14.6848 -0.363199 -2.7943 3.40971
3992 1 22.1117 8.51509 -1.46417 4.44822 5.92777 1.10202
3565 1 15.3594 -17.7726 -6.08177 -1.99428 1.48965 -0.0126042
3610 1 12.9474 8.46678 -23.8614 -0.508056 -1.80639 1.99097
3586 1 16.394 0.789896 -5.759 2.73728 0.70101 1.47822
3914 1 10.331 -10.7786 -2.9871 1.29361 -2.31674 -1.52366
3590 1 9.66011 3.13129 -3.83958 -4.7622 2.47027 2.19999
3593 1 13.7895 -6.85013 -14.4115 -4.33071 0.10785 1.07888
3606 1 3.32264 7.97427 -10.9949 -4.30273 -1.31165 2.55648
2410 1 7.21052 -22.2796 -23.2477 1.37334 -5.76244 0.423674
3617 1 15.2537 0.47734 -19.3058 4.38428 -1.7946 -3.43458
3782 1 2.26581 -18.1258 -15.8399 1.7943 -2.69093 1.57891
3630 1 6.24723 -10.4436 -1.92897 1.56079 -0.444497 -3.60551
3633 1 13.9458 6.95456 -3.53 -1.12219 -1.5987 1.50923
3670 1 13.9867 1.77781 -9.71256 4.26163 1.88955 2.28139
3636 1 6.16671 -20.8936 -10.7456 -0.202078 -0.624276 -1.90955
3640 1 17.0183 -17.115 -11.6021 3.77296 -3.03291 -2.02011
3646 1 17.3676 3.7898 -17.8876 0.467928 -0.319878 -0.969254
1549 1 1.8503 -2.99946 -15.8991 2.45589 -0.744918 0.213036
3650 1 6.73719 -5.97136 -17.1707 -2.21141 5.70849 -4.36349
3659 1 19.1085 8.14522 -18.4828 0.377692 3.11442 0.786201
2874 1 1.38364 -9.89601 -13.4322 3.19826 4.36823 -1.55982
3884 1 11.5285 -19.7373 -6.69317 0.4643 1.64079 -1.22081
3665 1 8.59776 -4.71037 -18.9858 4.08269 -1.06348 -1.00301
3957 1 18.3333 -23.1757 -19.8457 0.792128 1.89674 -3.20338
2927 1 10.2747 8.55497 -0.300506 2.14705 2.6677 -2.05766
2365 1 23.5344 -8.87658 -2.49577 3.04363 -0.939833 -4.97203
3031 1 23.2318 -9.83498 -20.5902 -1.89367 -0.184272 4.54001
917 1 23.379 3.85002 -21.261 2.2949 -0.20289 -1.27585
1903 1 -0.0539153 -19.3195 -12.4521 -5.05683 0.73061 -0.182702
1408 1 -0.174423 -6.35866 -15.0469 -2.99204 0.120478 1.45241
1453 1 -0.137379 -21.6661 -7.17517 6.52427 -2.63025 0.771093
850 1 17.8274 -20.4821 -23.9322 -0.364152 1.66347 -0.929099
2110 1 3.17605 10.4314 -0.116787 1.17177 0.130813 -2.20435
1306 1 6.6844 -23.0524 -0.272924 3.88777 -1.99012 -3.35149
2280 1 11.0974 -10.8917 -0.342669 0.524564 -3.40185 -1.8817
1418 1 17.8791 -6.62314 -0.0169887 0.633057 -1.16249 -2.93947
2203 1 6.41542 -1.50607 -0.0480127 1.16314 -0.558471 -3.58596
100 1 23.4049 -14.1255 -23.9371 -0.714045 1.11582 4.01999
1185 1 16.4379 6.73668 20.0814 -2.11356 -1.89287 -0.289
3177 1 0.587844 -10.7131 23.0509 5.39956 -0.883291 -2.24695
865 1 -0.0614143 -21.6409 12.5572 1.7257 -0.817161 -4.71735
11 1 7.86377 -12.8905 16.9391 2.85723 0.332169 -1.25718
17 1 17.5467 -7.85192 17.3214 0.768624 -0.728807 -0.525772
20 1 20.4126 2.43926 22.3885 2.06034 3.15948 -8.00101
35 1 18.7683 2.42883 10.7635 0.2652 -5.19563 -5.35275
10 1 0.169439 -6.34768 15.1772 -0.729386 0.824426 -3.47285
50 1 15.4728 -19.6668 12.6622 1.64711 2.79296 3.59117
65 1 19.8472 -1.53743 7.67267 -5.1133 -2.02299 1.03571
1186 1 6.60795 -6.94182 1.09861 -2.16054 1.40394 3.35314
86 1 14.0469 9.23632 17.7268 2.87984 2.51355 -3.43226
90 1 9.14007 -4.17263 6.74145 1.67874 -1.55258 -1.1135
102 1 3.18826 2.73659 5.67596 -3.27897 -3.34168 1.48299
106 1 13.8141 4.88346 7.44698 -0.979669 1.69742 0.875328
107 1 17.3364 -3.41301 19.5929 0.758517 0.349364 -0.28938
2868 1 1.93488 -21.1851 22.5673 -2.93849 4.93459 0.998782
120 1 6.00784 -2.42604 19.5758 1.38714 -2.07583 -2.40551
1012 1 0.197161 4.42035 1.12005 2.0094 -5.24269 3.17316
127 1 9.89457 1.12084 10.5698 -4.80177 1.47867 1.85572
129 1 17.2481 -10.8625 3.38166 2.24316 1.2191 5.50461
140 1 5.4246 -5.42204 21.7791 2.30809 8.55492 -2.2837
141 1 10.5452 -16.1987 3.77213 -3.06771 -3.76098 -2.7587
142 1 14.6447 4.70018 21.3429 2.13678 -3.99977 1.94543
145 1 19.3457 7.58104 16.7526 -4.10759 1.88429 -2.48948
3841 1 23.1585 3.97954 11.3029 4.00011 -0.990815 -3.72061
151 1 19.8318 0.0787844 20.5803 0.314284 -3.7309 -1.3408
156 1 15.0726 8.67924 21.8353 3.89868 -2.05384 -1.13122
3683 1 5.8685 10.3279 6.07977 -0.867889 -0.891546 0.425644
163 1 3.70573 -0.734974 15.3655 -4.73468 -0.204776 -2.17445
164 1 21.1144 8.0146 10.797 5.4766 -0.803577 5.35757
193 1 6.38794 -1.05601 3.7177 2.49199 -1.93395 2.5297
205 1 20.6589 -6.5851 10.7316 -1.47351 -0.510991 3.4517
208 1 1.71845 -3.66291 18.353 1.73417 10.2018 -2.01909
211 1 13.4064 -0.19613 7.04935 3.67253 5.98476 1.52945
236 1 15.4072 -8.20044 6.91595 -1.82095 -0.628614 0.54703
3925 1 22.2826 0.979347 1.57653 -3.54887 3.09319 1.12847
240 1 10.0284 3.54199 14.3049 -4.05202 -1.69486 1.50675
246 1 11.0657 4.71854 22.449 -5.0099 1.44802 2.24909
1366 1 19.201 -13.5215 0.925345 0.708583 -2.30063 2.27648
2944 1 8.54093 -24.1857 15.5216 3.94034 0.675143 0.4067
272 1 13.5007 -18.4025 11.0376 -8.37633 -1.07021 -3.38954
274 1 12.6147 -11.6331 9.2008 0.0145849 -0.0716634 -2.15019
278 1 22.0815 7.11183 17.0034 -0.403219 0.838454 -3.87074
2665 1 22.0303 -1.50399 0.73188 3.90502 -1.93987 3.81971
1219 1 14.5983 10.0661 11.934 1.09391 1.32659 1.38064
293 1 15.8158 4.29137 14.0833 3.08832 -1.45698 -5.37597
3908 1 22.6597 -17.5203 9.60718 2.03433 4.64936 1.33209
300 1 17.0441 -3.98623 15.702 -3.52355 -1.18037 -2.70434
305 1 3.35622 -19.4339 20.5639 -1.63421 0.698178 -0.13269
309 1 6.76108 -18.3039 17.6831 0.62681 0.0441218 2.92659
311 1 13.7031 -9.4623 2.80126 -0.164309 -0.835073 4.57461
2373 1 16.0419 11.1203 18.2676 -0.539168 2.65872 -1.57259
318 1 20.1648 -17.0028 18.8918 -2.62085 2.87257 0.419477
2706 1 2.56606 -18.3433 23.8415 3.12635 -4.01888 -3.69023
331 1 11.6857 8.54414 4.50836 -2.01801 4.17253 -4.196
516 1 9.01445 -23.4624 1.13211 0.364799 0.730521 5.0978
338 1 5.81854 -8.66811 16.6518 1.69861 1.45129 -0.00527457
346 1 15.7195 1.62836 3.22949 -5.13104 0.0906965 0.703009
347 1 22.3598 -7.36232 8.65749 1.90812 -1.37837 3.15605
535 1 4.79032 10.79 9.0795 3.35488 -1.22494 1.45699
358 1 20.2455 -12.7164 13.0843 0.947947 -0.585185 4.48019
368 1 5.64451 -5.67431 10.0303 0.172337 4.39288 2.54064
377 1 16.1713 1.52627 13.1733 -0.710438 0.634779 -0.309237
2380 1 10.1355 -12.642 23.8626 -3.04864 -0.886083 -2.06181
3658 1 22.5698 10.3728 11.6623 -1.53543 -2.48391 -6.32943
390 1 10.8477 5.9611 7.50572 -1.51545 -0.217254 2.26036
391 1 20.7473 2.32678 18.83 0.297322 2.63168 1.27539
392 1 19.2049 -9.31157 15.3595 -2.17941 -0.236527 -4.21037
292 1 15.825 10.867 4.07027 -3.23162 0.686338 -0.93188
3153 1 15.3333 6.20622 23.6306 1.54174 -1.60026 2.4194
2552 1 0.211451 -10.0708 8.91283 -3.1681 2.50867 -4.4843
407 1 4.99264 -12.1333 16.2531 -5.57629 1.10578 -4.67004
1682 1 2.64605 10.0592 2.74897 3.31591 -0.869036 -0.69515
432 1 6.64953 -1.99194 10.6533 -2.74065 -1.02182 1.91358
442 1 5.64915 5.17554 16.2048 -2.68301 -1.52803 3.24085
450 1 14.818 -20.5695 6.85268 -0.508722 -4.48178 1.10682
455 1 14.2173 -13.7395 12.7121 -3.68795 0.755511 -2.26937
3631 1 9.85665 10.5819 18.6562 -1.91286 3.98955 2.01034
295 1 1.45562 6.99577 10.9125 0.735185 0.295643 2.7652
479 1 17.7698 -17.0353 14.8077 -0.00735437 -0.0641907 1.99246
480 1 2.22736 -9.7457 10.7624 -2.93245 0.365788 3.59319
2705 1 -0.0701811 -4.20356 5.56355 -4.54253 -3.73628 -0.827636
494 1 4.70778 4.19898 3.93145 0.723674 0.673101 -0.90033
502 1 14.1009 -13.6075 18.2324 2.35491 4.38451 3.04373
510 1 8.70537 -16.1513 13.6592 0.73928 -1.99438 4.31914
511 1 8.25681 -13.1678 4.65597 -1.37314 -1.19486 2.46497
512 1 3.04595 -5.05655 23.3822 -3.64229 -1.4644 3.01399
898 1 17.65 2.42575 22.2025 -0.209822 -2.46213 2.97168
522 1 5.00865 -17.0714 9.20916 1.79154 -0.0486976 -0.421053
2679 1 8.71726 -0.876958 1.88662 0.281437 0.998054 -0.224801
3839 1 18.1258 6.8841 1.0799 -2.38912 1.49125 -2.65851
365 1 1.80973 -15.6609 18.7746 3.47677 -1.84147 -1.0981
537 1 9.44259 -7.0022 2.19441 2.94895 -2.6036 -2.65063
2214 1 8.79536 11.1504 21.3823 1.28342 -1.23744 2.10442
548 1 10.769 4.01314 18.0358 0.0121186 1.82577 2.24006
561 1 7.31253 -22.3142 19.3561 1.24327 0.85474 5.12971
563 1 5.67338 -21.9602 8.37255 1.60837 -2.19453 -5.08286
565 1 15.1127 -21.1277 20.9605 5.7059 0.983977 3.71572
568 1 7.1217 -7.06633 7.82533 1.26552 -1.73789 -2.72136
3054 1 21.6677 -1.39739 22.7004 -4.64733 -1.8062 -1.52461
2626 1 -0.317008 5.55745 20.2238 -4.05462 1.2986 5.57363
573 1 18.8135 -5.17905 6.53631 1.95216 -0.48932 -0.955069
3252 1 17.7454 -21.7641 16.3122 -2.82344 -1.50581 2.1105
1722 1 19.1289 -23.6627 18.453 1.73784 -3.28568 -1.83677
598 1 15.1806 -15.0423 5.41797 2.17231 1.37239 -0.672692
599 1 9.84086 -13.9249 15.0383 -1.05652 1.83174 -0.401102
218 1 10.608 3.84811 0.460849 -0.7606 3.58648 -2.9257
609 1 11.3737 -20.0679 20.4335 5.51632 -9.04126 4.35014
610 1 19.2228 -4.568 13.7696 -4.43042 3.7042 -4.74102
615 1 11.7831 1.66516 19.3279 -2.97538 -1.11898 8.41436
616 1 14.5909 -3.12954 20.8372 2.05579 4.30513 1.42795
618 1 13.2524 7.58656 8.82778 -1.38346 -5.95678 -0.047478
619 1 14.7938 3.21258 9.313 -1.00245 0.669613 -3.35815
623 1 21.3556 -14.691 4.60773 2.57094 -2.94295 1.62057
640 1 1.28103 2.45205 2.94786 -6.33078 0.0806891 -5.64207
643 1 10.3476 -19.4858 7.62064 -0.957522 -2.64151 -0.99062
649 1 9.7836 -16.196 20.5827 -2.55764 1.94077 -2.12155
659 1 8.10443 -0.578312 20.0751 -2.53907 0.423713 -5.83124
660 1 7.16129 4.33829 7.80734 -5.10488 1.86885 -0.147934
662 1 4.49791 -6.96211 6.57401 -0.299365 -4.86449 -2.17064
669 1 10.1984 -16.4867 11.365 -0.319085 2.23983 -6.68541
676 1 7.97486 3.57246 17.1991 -2.48641 -0.102541 5.93079
685 1 21.9728 0.0424829 8.39714 -2.16433 3.60085 1.70075
158 1 9.26124 7.81528 3.23192 -3.87378 2.83709 -3.01812
694 1 8.71061 -18.0695 2.7095 -4.93054 0.0662637 -0.31627
701 1 15.8386 1.10583 7.98507 0.284757 -6.71185 0.507974
706 1 3.74882 0.0873489 22.7012 -0.764122 3.56366 4.28355
712 1 5.19308 -10.3528 14.1934 2.56925 -2.06029 1.70462
713 1 0.401334 7.14892 4.77702 0.00275228 4.84469 -0.251011
719 1 14.0107 -5.37285 10.8337 -1.93492 1.18849 2.96733
735 1 14.9783 9.05324 6.36107 -4.21212 -5.9926 -3.49935
737 1 19.9079 -17.0386 5.60368 0.0794457 3.00899 -0.774364
747 1 11.2808 -10.5681 3.82244 0.229749 -2.00498 1.31924
752 1 22.1926 -19.2554 5.60896 -0.62039 -1.84138 0.472814
943 1 20.1227 -4.73901 0.926073 -1.00444 -2.12441 -1.08238
763 1 17.8134 5.69766 8.27966 -0.545815 3.98805 3.09721
764 1 21.394 3.67374 7.21303 -2.0302 -0.690818 -3.66926
1749 1 22.7239 9.43954 15.8039 1.80439 3.46415 -0.840465
771 1 12.2109 -14.2396 10.6332 1.23322 2.08786 1.23432
772 1 4.02619 5.99617 7.78304 -1.42551 0.347449 -0.470591
773 1 10.9794 -21.2101 11.4951 0.160589 -1.80024 -0.193354
2604 1 13.0783 -12.716 0.198063 0.871121 1.98246 -8.87446
783 1 6.12729 -18.2504 20.5433 3.34126 1.33475 -2.57461
790 1 4.74033 1.82446 14.5197 2.56231 0.87989 3.45935
505 1 0.284834 9.4435 21.8623 -3.59681 -4.11932 3.49213
795 1 20.9023 -8.49402 20.9985 2.83167 4.45993 -0.00277525
816 1 20.6151 -20.6152 20.805 -0.378289 1.09234 -0.463611
817 1 10.6438 -11.496 13.9301 3.32752 -2.18652 -0.467754
822 1 21.9572 -16.8312 13.1252 -7.56686 -4.10973 -4.41891
823 1 9.23107 -10.1668 1.85422 7.35458 -0.472366 -2.60331
1925 1 21.8638 -23.2793 19.649 -6.34852 -3.6811 -4.68855
836 1 7.54466 -16.0065 21.9646 2.28715 0.765271 0.229423
838 1 23.0188 -19.6953 2.93964 4.55057 0.348896 -2.17317
840 1 4.88778 -17.3902 13.5514 3.82942 0.248614 -5.27514
841 1 21.3962 2.50044 9.83296 6.23001 -5.28065 -3.12974
843 1 21.6627 -8.85045 17.9349 0.816353 -4.66031 -1.18176
858 1 17.6217 -11.9374 13.9085 -0.786545 -2.14369 -0.0458214
863 1 15.6064 -18.0859 5.72879 1.10976 -2.34755 -2.46766
1333 1 0.460098 11.0536 5.65485 -1.56816 2.23853 1.06332
866 1 14.2862 -1.19483 18.4638 2.80765 0.220359 1.00111
2685 1 0.609682 -8.36722 3.57365 -0.647367 2.58427 -1.18898
877 1 4.39839 -16.748 17.5505 -3.05107 -1.20395 2.94051
887 1 9.59615 -23.7991 18.3286 -4.42161 -2.44177 -5.69396
890 1 13.6788 -20.0657 14.9419 -0.936798 -1.38538 2.82852
658 1 20.916 10.7786 14.0796 1.49919 1.43956 3.02665
895 1 2.57663 -23.9031 6.50402 1.22957 2.16146 4.82098
896 1 11.5822 -2.12014 18.2367 -0.151816 -1.66853 0.839368
899 1 15.952 -19.456 17.0053 -4.64061 -4.32697 -3.65267
901 1 1.04044 -17.1792 9.99665 -2.88182 0.433337 1.34702
478 1 2.57694 -2.37508 23.058 0.889017 2.2498 -5.48323
909 1 16.2118 -22.2449 11.5821 5.56687 2.57306 2.60043
1936 1 20.7596 -20.8271 23.8941 2.30795 3.07682 0.405108
926 1 2.71669 -16.7535 7.84349 8.04498 -3.38657 1.47705
928 1 9.38555 -19.1517 10.3599 -2.82486 -1.21339 3.66637
938 1 19.5403 8.46181 4.92298 0.471864 -0.144115 -0.283821
3786 1 22.0416 7.35481 19.7722 -2.33979 0.0913742 3.50961
945 1 5.83491 -21.0402 17.4084 3.13179 -0.0530367 3.77305
953 1 18.6977 -4.3352 3.57715 -3.08802 0.248354 3.34482
38 1 21.6581 10.1934 8.71731 1.75475 -3.72348 -0.453164
2852 1 2.89597 -5.01052 0.723321 1.20653 2.23376 2.47919
977 1 3.67041 -23.6896 14.5828 1.15898 4.83251 2.64996
990 1 13.4937 -7.40152 12.8206 -0.226928 1.65721 1.51072
2185 1 6.33593 10.8896 19.6361 -0.0593068 2.39898 -0.679823
1003 1 13.3047 -16.4944 9.11591 2.07202 2.06049 -1.89075
1007 1 14.3923 1.06748 20.5274 -1.47328 -2.33698 -2.70153
1008 1 5.36826 -5.37447 14.3994 3.76617 4.30128 -3.96508
1009 1 9.03533 -15.4009 6.45564 -2.36028 0.25919 -0.816834
2204 1 3.92441 0.15851 0.425638 2.20714 0.132676 -4.00374
1023 1 11.9847 -2.18862 4.36388 4.02417 0.554638 -0.408792
1032 1 12.647 8.7939 20.4176 -3.2884 0.95709 1.94157
1036 1 7.42116 -13.4769 23.3941 -4.36364 -3.27272 1.48744
2385 1 0.121662 8.79987 2.4343 0.49426 -3.12067 -2.69935
2840 1 5.01181 -19.3142 23.1382 0.543755 6.30233 -1.86353
1051 1 4.34056 -0.0641187 10.5683 -0.871994 -0.0898711 1.63702
1064 1 12.8497 -17.8978 4.69219 0.653684 3.06578 -4.68195
1078 1 10.6215 -8.29159 12.4032 2.46649 -1.9484 2.42517
1081 1 9.13435 -10.366 17.5088 -1.06856 -1.0875 0.673242
1093 1 21.2127 9.71922 2.93483 -2.46037 -3.92923 2.98601
1213 1 23.0396 -11.9832 21.9372 -3.35008 -2.94394 -1.8096
1100 1 11.7019 -3.17476 22.0095 0.373393 0.0102348 -1.4772
1101 1 5.96242 -14.4704 10.2245 -0.878186 0.838566 0.955226
1102 1 15.4589 -16.7392 16.3357 1.79587 0.864634 -3.25909
1651 1 13.387 -18.689 0.659767 -6.59736 1.13984 5.47799
1107 1 6.35708 -16.2251 1.65402 3.41116 -1.74211 -2.74248
1111 1 13.4129 -7.57832 9.15708 -1.35976 3.06645 0.286325
1119 1 9.58216 -9.38476 5.97957 -5.6266 0.81051 2.40479
1132 1 22.6877 -3.8494 18.175 -2.60095 -2.08028 -2.61783
1134 1 14.1094 -21.201 18.3485 -1.31312 5.02035 2.06576
39 1 1.60933 7.12079 21.8325 0.820719 -4.75789 3.59965
1137 1 4.61368 6.68349 2.21958 3.50361 -1.42843 -0.149825
2931 1 1.2625 -6.92386 22.2209 -0.537994 -2.93675 2.84509
3868 1 7.82596 8.90674 0.812378 1.96084 -6.01319 -1.20459
1155 1 7.52976 -18.312 14.8689 2.37074 -2.94973 -1.64457
3533 1 18.6579 10.9772 3.37905 -0.916992 2.17716 0.68421
2250 1 0.019916 -0.290119 9.76233 3.0517 -4.33238 0.888767
1169 1 12.748 -5.16701 16.5776 -6.11755 1.15811 0.257527
1173 1 8.38712 -20.11 20.6061 6.84648 3.51048 -0.541809
2819 1 17.7827 10.5033 12.0909 7.01168 3.5393 -2.23793
352 1 14.4942 -0.838525 1.83531 1.38187 -0.590639 -4.97495
2035 1 14.8335 -13.9224 23.6819 -0.436582 4.29831 -0.757151
3822 1 8.386 6.67516 8.81015 1.80937 -4.70375 -0.46183
1193 1 9.3818 -6.13946 14.9859 0.0556027 -4.59276 0.218691
3875 1 23.0249 -0.187385 5.8379 2.36971 -6.69711 1.17883
1200 1 13.9954 -9.85718 11.1609 0.730426 0.741566 1.80713
3584 1 7.26802 6.59655 22.5203 -1.24076 3.4053 -1.97504
3682 1 23.4652 -22.6284 17.5783 0.228068 -1.57758 1.01546
1469 1 19.4844 10.9828 6.88669 5.26735 0.683946 -0.340339
3996 1 5.89188 -19.2121 2.13667 1.73897 -3.07579 -1.39559
1217 1 16.1064 -14.3985 2.71215 -2.72596 -1.12353 -6.04903
1477 1 17.7587 0.413372 1.24723 -0.754249 0.043748 -5.40897
1224 1 17.7504 -6.37077 11.9382 1.64033 5.78722 3.3344
3179 1 3.77287 -1.35782 18.2341 2.36384 3.15849 5.17448
1135 1 6.85344 -0.685297 22.7784 4.50595 -1.91206 3.21337
1248 1 7.88123 6.64637 18.6002 0.347655 0.804072 -0.940467
1250 1 7.09659 2.11021 19.5808 1.17459 1.34507 2.77305
1251 1 21.7908 -1.03778 18.6303 -0.346939 -2.85726 -3.34335
1252 1 18.6339 -18.089 1.82052 5.19472 0.194747 -0.914207
1259 1 19.9499 -10.64 8.29521 -1.06411 0.416916 -1.0543
1266 1 16.2289 -7.89794 2.48762 -1.31273 -3.57201 -1.97854
1716 1 15.4521 -23.8001 21.681 3.24286 -3.56382 -0.895233
1269 1 9.04023 -7.30489 19.7801 -3.806 -0.969719 -3.07606
3037 1 2.41358 -10.6309 3.7031 4.39308 5.68784 -2.30082
1076 1 22.9109 3.56401 23.7406 -6.49075 -2.18993 -2.09497
1275 1 4.94541 3.91907 9.95353 -4.90581 1.45092 3.91503
1281 1 13.2125 -10.7124 18.3246 1.21601 -0.19716 2.52316
1284 1 7.5207 -12.5178 1.8538 -1.9521 2.04237 -0.292247
1287 1 10.5568 -17.4137 15.7991 -0.10755 -4.178 2.77544
2245 1 23.2616 -21.9464 8.38585 -4.46929 -1.40035 -0.592016
1323 1 15.5073 -7.77393 15.2659 -0.901997 3.62894 -0.605673
2366 1 8.86148 5.06503 2.83501 0.764383 -3.52264 2.90254
776 1 10.9024 0.947664 23.1135 -0.435807 2.08469 -6.05872
1337 1 8.26454 -23.1961 8.80409 -0.968529 1.10474 1.92289
1339 1 2.78278 -14.1514 21.2735 0.443457 3.00381 2.06736
1341 1 2.62303 9.36099 12.239 -4.79999 8.40793 4.66826
1344 1 19.8128 -7.12844 4.5623 -0.112775 -2.897 3.58512
1349 1 1.91399 -13.9575 8.19955 -3.00636 -1.06643 -1.3796
1351 1 16.8805 -14.5761 17.4424 -0.491576 -1.74125 -4.66066
1360 1 18.86 -12.9654 7.60473 -0.514804 0.539256 5.09756
2372 1 23.1477 3.42382 0.347632 -3.29114 -0.387309 -4.88611
3203 1 19.6174 10.406 17.9781 -1.43589 -0.891117 -3.19159
1375 1 16.9748 -6.58878 4.92243 -11.9665 4.00218 -1.55713
3368 1 22.3996 -19.9149 16.7497 3.33132 -0.478913 1.85915
1382 1 16.487 -13.7359 8.88517 0.999424 -1.51933 -3.01561
1388 1 15.9209 2.57903 16.5216 0.861556 -5.79671 3.09111
1390 1 7.24759 0.677814 11.4189 -0.151287 -1.22405 2.27126
1392 1 19.515 4.70895 2.9612 -0.155761 -1.09499 2.0622
3728 1 13.2292 -6.71126 19.7666 -0.624905 -2.49751 -1.5576
2054 1 12.3219 2.82708 2.18 -2.03273 -2.01064 0.746526
2496 1 6.30353 4.23154 21.4572 -2.72358 3.26028 1.17654
1404 1 22.269 -11.8341 9.31752 -0.927242 1.72682 -3.37074
1417 1 12.1026 6.63798 11.3354 1.22778 1.75978 0.709453
2342 1 8.79344 -14.5153 0.38481 -2.3734 -0.430236 1.2087
1426 1 7.55396 -20.0273 4.63508 -0.379483 -3.06786 4.47016
1443 1 19.2616 -13.7439 15.7775 -5.13427 -0.754915 -2.21083
1445 1 12.8422 -20.4472 8.92723 5.4357 -1.15702 -3.1729
1449 1 9.6681 -4.00651 2.06386 -1.98365 -4.46433 5.19803
1463 1 5.91282 -2.5045 15.1143 -1.38893 0.69717 -0.31624
1464 1 5.02829 -21.1466 4.36547 -3.50785 1.18434 -3.73954
3365 1 0.566139 -10.7904 13.117 -0.858836 -2.52325 0.478614
2145 1 21.5025 9.1056 23.087 -3.09716 1.26351 0.471845
1479 1 10.8675 -8.08268 8.23561 -3.42595 -1.54704 -1.95737
3624 1 23.0079 -8.12429 4.56682 -1.50269 -4.62929 0.776174
1499 1 16.4942 3.08944 19.6568 -1.66687 -0.690336 -5.71155
571 1 0.761116 -12.029 20.7433 -1.27816 2.14857 -0.361065
793 1 22.4957 -10.1246 2.46035 -0.196835 -4.30567 1.54738
1531 1 8.11782 -7.28017 11.2036 -3.17823 0.191048 -0.523935
1535 1 3.32294 -7.22544 11.0068 0.359165 -3.99497 -1.838
576 1 23.3431 1.09949 17.5066 0.576197 -5.00406 -3.19872
1566 1 4.15442 -9.70024 7.03204 2.32921 -1.40921 2.02369
1574 1 18.1508 -18.9173 4.80233 -3.63743 -1.32623 0.921232
249 1 0.321897 -19.8627 9.42237 0.0641043 -6.05774 1.98296
1592 1 18.1803 7.97957 10.1549 -0.919787 -2.29676 -3.16453
3241 1 0.758887 -21.3917 16.5592 1.24014 0.975761 -1.34815
62 1 0.53361 -10.7436 18.0427 -0.736545 -0.386408 0.61128
1793 1 18.7424 6.78679 21.782 -4.973 4.62082 -0.646677
1626 1 13.2249 1.35288 16.9059 -1.23303 -3.34386 -0.849134
1628 1 19.9203 2.81951 5.14752 1.90678 -2.56927 0.0309043
1630 1 11.1989 -8.31243 18.1852 -0.681075 3.13496 4.55571
1636 1 19.7603 -10.4062 11.3174 1.05578 -0.18931 2.00456
1641 1 20.8165 -12.7101 20.2796 1.64394 -0.66732 1.52032
1653 1 13.8781 -22.2072 1.54656 3.64828 1.75117 -2.02351
1654 1 5.1248 -19.1696 11.2712 0.144801 -0.575242 5.93262
3685 1 5.79971 -4.30084 0.453669 -0.17823 4.02119 2.11433
1673 1 2.85247 -19.1903 4.41493 -3.65704 -2.0725 1.98877
1675 1 1.65113 8.72369 15.0593 -1.17697 -0.538281 1.8012
1524 1 1.20507 -19.3767 6.60599 -4.18169 -0.934016 -2.64904
3716 1 7.0237 6.24108 0.873814 -1.91217 -5.92534 1.23984
1686 1 11.1689 -8.71178 21.2374 -2.97704 -2.67754 0.704682
238 1 19.1577 -2.5852 21.7658 3.14794 1.41961 1.52844
1696 1 12.2681 -2.71045 1.44438 -0.369271 3.57357 -2.44843
1699 1 10.8462 0.941022 15.1524 1.50654 -0.565849 0.706039
1702 1 2.15786 -21.3538 14.1507 1.50106 -2.16602 3.59274
1472 1 21.7582 4.45604 16.1735 2.04864 -2.56546 -3.04175
1721 1 7.06671 3.39617 12.0501 -0.0472406 2.44943 3.90531
2042 1 4.83055 -22.11 23.0246 0.166791 2.85208 -2.29252
1732 1 14.606 -12.4946 7.31988 -1.81629 -2.14787 -5.27842
1736 1 16.8891 4.56703 10.6672 -5.77139 1.82152 4.50139
3132 1 2.95984 9.77057 5.67747 5.68164 -1.82944 0.401058
1743 1 20.0787 -17.1982 8.32301 -0.4192 5.03382 -1.76739
1577 1 14.0988 -24.0747 3.66043 -0.550735 5.57087 0.53995
1751 1 2.76219 -8.92571 14.3147 -4.65088 -3.64831 0.701911
1758 1 21.6241 -21.9142 5.87755 0.806147 3.2446 2.80079
1188 1 2.1623 5.38815 3.07974 1.3103 2.61749 -0.992986
1768 1 12.229 -1.97678 9.32637 -1.04562 -2.6914 0.0861822
1 1 22.9512 -23.2926 12.7022 -3.56854 2.44602 6.32851
1774 1 16.8372 -17.5675 22.0521 -3.84491 1.64872 2.01835
1719 1 20.6621 7.87617 0.913372 1.12373 0.872549 1.62427
1806 1 14.9855 -2.49123 13.9137 -0.332002 -0.568998 1.35801
1808 1 20.8535 -11.9299 17.401 -2.43421 -3.39755 0.182426
3891 1 9.49255 -18.2943 18.4909 -0.377429 -3.17045 -1.71319
3687 1 10.5256 -13.4736 7.96755 0.559205 -0.535763 -1.52354
3850 1 19.5942 -16.6599 23.1933 3.38041 -1.25632 -1.7298
3263 1 23.3659 5.09993 21.0936 0.531542 -0.310101 -1.40276
1837 1 14.1014 -22.8553 9.79993 1.93986 0.0177714 -1.84808
1842 1 12.5352 -20.2932 3.07862 -1.12115 -0.623713 -3.96381
1846 1 11.579 -23.8435 6.39205 0.854172 0.429282 -0.512986
1847 1 18.9826 -14.5675 19.4124 -1.63441 -3.86215 -4.13902
1853 1 3.82308 -13.4821 5.77426 4.37054 -3.801 -1.9326
1271 1 0.831686 2.10753 17.4362 -1.10714 3.97352 2.59547
2696 1 21.4971 -17.7162 21.2946 -1.56494 6.81776 0.0080142
1860 1 6.28778 -0.0371093 6.57162 -3.09462 0.36977 -3.45245
1871 1 17.9057 -13.4228 4.88709 0.609373 0.49836 3.9242
1881 1 9.53254 6.82087 20.883 -0.758672 -1.56546 0.989558
1887 1 19.0157 -5.28219 17.9476 1.50537 -6.96791 1.3739
1042 1 10.5217 -6.58744 23.497 2.65686 -4.55629 -4.27502
1909 1 13.3592 -11.3001 13.4371 -3.3153 3.88224 4.41005
1914 1 17.2024 6.68694 4.06569 1.79196 1.16529 -0.539715
3580 1 1.91891 -11.4103 6.62303 3.83837 -1.98212 -2.23457
3189 1 12.4135 9.83374 6.95201 -4.29829 -0.974911 4.49755
601 1 0.879377 -1.73027 20.5627 3.28262 -1.18302 3.89223
1935 1 19.0317 -15.5919 3.14752 2.95424 1.98218 -4.57662
2639 1 0.515881 -6.2755 18.1451 -1.31653 -6.27836 -1.66192
1937 1 3.28942 3.34127 16.2585 0.48375 -1.38575 -2.4953
1938 1 2.3381 8.72685 17.9403 2.52966 2.20787 -2.81184
3827 1 0.204555 6.76277 17.8602 -3.06869 -0.765508 8.25127
1954 1 4.47908 6.4519 11.4098 -2.60066 -0.854581 -1.69872
1958 1 12.8214 4.85052 13.8242 1.94535 -0.879334 4.30765
1965 1 15.9479 -5.78318 20.5878 1.84755 -0.219085 4.52446
3848 1 6.32426 -15.7326 6.77469 2.0897 3.30732 -0.41384
1973 1 12.648 -17.2677 21.0174 1.24136 -2.79673 -0.173906
1974 1 17.5188 -8.77864 8.56772 4.92046 -0.636607 2.70358
1977 1 16.7081 -10.3688 10.8968 1.72054 -3.44237 0.092225
1978 1 9.51905 -4.84203 21.4261 -4.52266 -0.69801 6.36301
1986 1 13.9093 -5.05876 2.30784 -2.25826 -1.07138 3.21401
3962 1 3.89101 -16.6609 5.25444 1.26046 -3.12964 -5.29898
2659 1 16.3821 -5.799 23.3901 0.573199 3.71389 -0.752215
2005 1 7.19601 -3.43338 21.9617 0.793168 4.12769 0.143074
2012 1 18.0984 -20.0802 13.9606 -2.3616 -0.311004 -0.0890807
2017 1 10.3971 9.15787 22.4109 0.525444 -7.2863 -3.23007
2024 1 10.4054 9.99204 14.0535 0.579764 -0.635204 5.61969
1225 1 0.951931 -17.968 20.3945 1.27074 -1.17838 3.14024
552 1 3.81571 -17.667 0.531135 -2.91615 4.4005 0.328307
2038 1 16.6812 0.454297 10.5103 -5.35959 1.11692 0.423697
3138 1 20.6491 -4.90983 21.9761 2.94705 3.09715 1.065
3871 1 18.1173 0.96414 18.2268 1.56793 1.52602 -4.61164
2044 1 3.34438 -5.15699 3.53921 -0.843496 -1.53977 2.94699
2057 1 16.3176 -3.54017 6.95522 3.87495 2.83972 -6.13595
2059 1 2.83161 -7.50385 19.7918 3.35391 2.68856 -4.94675
2066 1 20.5863 6.29593 8.04011 0.101119 2.10168 1.44144
2090 1 16.6924 6.2438 16.2501 -1.12637 -5.03405 -2.88963
971 1 13.4616 -5.71835 22.5408 1.58754 5.24279 -0.07211
2099 1 15.0685 -10.5597 5.13353 0.428632 -0.568768 2.32147
2125 1 0.372649 -15.9212 16.5552 3.87903 1.09334 -2.74912
2111 1 22.5887 -9.39468 23.2024 1.01749 0.770149 2.1961
115 1 7.38397 8.2106 5.26472 3.62632 0.895516 -5.14476
2116 1 21.0274 -3.44687 6.27608 -1.02461 4.10121 -3.08914
2120 1 16.328 -17.7652 10.4512 -2.15875 3.70084 0.86179
2121 1 8.76057 -20.2322 23.4444 4.1627 2.99332 -2.59523
1105 1 19.8314 2.47485 1.09364 0.908759 4.2764 1.79655
2140 1 11.7841 -15.1454 17.2503 -2.82057 0.932348 1.05086
2144 1 2.27482 -3.30838 8.58436 2.9581 5.39589 -1.87924
3045 1 -0.258183 -0.84869 2.42852 1.28197 -1.02761 1.23419
2975 1 16.4074 9.33474 0.659084 1.02784 0.286563 1.67508
2147 1 2.70236 5.89728 14.653 2.44127 0.175403 -2.49861
2148 1 11.8185 -22.6817 19.5926 2.28463 2.68361 -0.724348
3216 1 23.4441 -1.50718 10.1186 2.93876 -2.34983 0.127118
2155 1 13.3918 4.29302 16.7637 -0.821211 -0.485798 -6.59216
2159 1 2.53146 -20.3836 11.409 -0.515631 -0.698 -3.32834
2163 1 7.02274 -7.74803 13.8897 -2.06719 4.85024 2.66527
2175 1 12.6354 -23.3115 12.2039 0.100182 -0.923394 2.67255
2176 1 9.92601 -20.1005 13.8816 -0.786844 -1.9868 0.892764
2179 1 11.3425 -5.14674 5.32007 -1.98602 -0.149403 -0.994655
2183 1 3.96244 -3.22604 10.895 0.89672 -2.99536 1.71221
1201 1 23.0352 -17.3352 18.0595 2.7197 2.51883 -0.170613
2187 1 16.2495 -3.78915 9.71706 -4.33457 5.67531 -4.18086
3121 1 -0.0372157 -24.256 16.7569 -6.74272 -1.81225 3.07462
2883 1 11.5436 -14.6667 1.36656 -1.45972 2.99562 1.67943
994 1 23.097 -15.6661 15.6053 -0.314032 5.04567 -0.288222
2217 1 10.9031 -11.4621 19.816 -2.14997 -0.851548 3.05876
2221 1 20.4031 4.75742 20.4483 1.95022 4.41533 -1.05426
2222 1 1.74628 7.62758 7.15817 -1.25152 -2.38124 -8.77131
2226 1 20.3142 -0.16426 13.8517 6.06451 3.16489 -0.349887
2229 1 19.516 7.06054 12.937 2.6644 0.63509 -1.48364
1924 1 23.1764 -16.0304 0.729964 0.559682 -1.83662 -3.96439
3964 1 7.72752 10.9083 16.9625 -1.10095 3.55161 0.562307
125 1 12.5017 8.69487 1.65487 3.75423 1.24866 -4.14176
3147 1 -0.388467 -15.3444 3.49108 6.03793 -1.86141 -1.2147
3938 1 18.76 9.1954 14.4961 0.0127712 0.464992 -0.107953
2286 1 7.41249 -9.61747 4.00897 4.31802 2.0794 0.696716
2290 1 14.5708 -9.18039 20.2637 -0.336707 -1.52089 3.15434
2293 1 2.19299 4.52784 12.3557 1.50869 2.81745 -0.15972
2301 1 5.18046 -23.5075 20.6959 0.152108 -1.56775 3.15789
2677 1 0.258247 -22.0289 3.16068 -0.251885 1.25065 -0.639051
2310 1 6.89012 -19.3189 8.98155 1.92685 -2.23721 2.36919
2311 1 6.61405 1.12941 1.4324 0.338588 1.52454 -4.16139
2319 1 7.44845 -9.50662 9.54534 -2.64093 -1.27995 1.01762
2329 1 6.66669 5.88876 13.5032 -1.95183 -1.14441 -4.3963
2330 1 13.2197 -23.022 15.0448 -2.58357 2.58617 3.65319
2332 1 20.3805 -15.1034 11.6815 -4.12531 -6.37364 0.744115
3878 1 9.37837 -21.8766 6.55806 4.3886 -2.0218 0.528302
2340 1 8.99209 7.5827 14.3987 0.347506 -0.715449 -2.43264
3777 1 14.8395 -6.54577 0.102797 1.71667 -1.27467 -3.01094
2348 1 9.04668 -2.42131 4.51112 1.19067 3.42263 1.59877
2353 1 13.4328 -3.3279 6.86659 -1.26635 -1.85885 -2.00459
2359 1 7.88967 9.79775 9.27184 -1.97815 -3.513 -0.199018
1543 1 -0.377191 1.17153 14.3618 -0.0820204 -3.31923 -1.91646
3776 1 8.71263 -5.3579 17.5935 -4.13868 1.34502 0.108235
2369 1 20.7404 4.59399 13.3047 5.5868 1.51084 0.832034
2378 1 7.67482 -2.82722 17.2172 3.69446 -2.48606 -1.57267
760 1 0.389313 4.4942 15.7911 2.93653 -0.45921 -6.51155
201 1 8.87621 2.55751 22.0968 -4.23471 6.08841 -5.00838
3536 1 22.9693 -14.5485 7.06335 -5.22648 3.07308 0.964203
2386 1 1.57737 -2.4967 3.92428 -1.26187 6.20599 5.55981
2389 1 9.11659 -11.8685 11.7781 4.09783 -3.1432 0.0158658
2393 1 5.05894 -15.2804 20.2949 0.332337 -2.79208 -0.723349
2400 1 12.4754 -2.71254 15.4276 0.0632526 1.21939 -2.05108
3909 1 4.29814 -10.1234 18.6141 1.63921 1.88448 -2.96215
2427 1 14.4139 4.11796 3.78663 1.9516 -1.0947 0.926565
2428 1 13.4645 -15.7471 14.78 0.398897 -1.41 -3.38727
2433 1 23.1946 -20.0343 22.1097 -0.360562 5.14471 1.20121
250 1 1.18552 -1.58613 6.59344 -2.7423 2.46084 4.03997
2449 1 18.0544 -23.0615 13.5896 1.50038 4.98631 -1.37839
3701 1 18.5088 -1.81169 10.2587 -1.22462 -5.13699 -1.66799
2451 1 8.97109 -22.8488 4.05047 -0.757261 -0.785042 1.7272
2455 1 15.8102 8.70025 15.2973 0.13967 -5.74543 2.97884
2467 1 2.02031 -17.7269 12.7675 0.0885987 3.59002 -3.25383
2497 1 4.42291 7.04567 18.4298 4.98066 0.600609 -0.362936
2511 1 4.22812 2.64201 18.9782 -2.7625 -0.0369064 0.136971
2513 1 21.9535 8.06184 6.47232 0.872515 0.218648 -0.545852
3832 1 21.5417 -3.14282 3.16814 0.604656 1.86207 3.71303
2515 1 1.12625 -19.4761 1.9499 3.18683 0.291014 -0.912414
2521 1 12.2616 8.50267 15.5992 -0.635618 0.154942 2.86866
2527 1 6.32932 1.60452 8.73808 -1.48416 -1.69139 1.02711
2535 1 15.4401 -5.85355 17.5139 -1.27561 1.69619 -3.14248
2539 1 15.7792 -12.0409 16.2223 -0.856779 2.52592 0.188825
2540 1 21.9329 -8.4282 15.2405 -3.25402 -1.09656 -1.80836
2541 1 4.49536 8.20458 13.9981 -1.38875 -2.26252 2.01691
2544 1 12.207 2.38876 6.763 -1.58679 2.33245 -0.652395
2560 1 20.6354 -22.8348 9.78693 -2.00912 4.0439 2.44955
1613 1 1.91186 -16.6991 2.70134 2.22898 2.39858 -2.97949
2571 1 14.7072 -0.811563 22.4285 -2.01755 1.53585 1.56446
2585 1 16.8797 -14.6779 21.4207 -1.15143 -4.20946 2.01566
2587 1 17.0258 -22.3606 7.01088 2.33532 3.46334 -2.898
2594 1 21.8152 -5.67231 14.5712 -0.70433 0.48248 2.70164
2621 1 5.33687 -23.3431 6.02809 2.11381 2.9613 1.88694
3209 1 11.2014 -15.2271 23.078 -2.06024 1.73922 -2.2738
3899 1 5.05982 10.685 15.2733 -0.176176 -0.196842 3.04836
2645 1 6.35728 -22.6037 15.0345 -3.33968 -0.847039 -2.74922
2648 1 14.8069 -1.08941 4.77032 -5.5114 -3.13348 1.71459
2661 1 5.84333 8.14069 20.6296 -3.58415 -1.6229 6.83562
2666 1 20.6075 -20.0236 1.59597 -1.46321 0.0426741 -1.6963
2669 1 2.01321 -8.61693 17.1275 -4.5825 1.27884 3.22832
2672 1 7.13428 -4.4789 12.305 -2.75589 1.58302 3.13594
3969 1 17.7293 -20.1938 21.1715 1.65387 1.39793 4.07403
1370 1 4.36317 -12.7529 23.1301 -1.46673 0.64978 1.62973
2695 1 13.9351 7.71784 13.3878 -0.219079 2.67422 3.49559
716 1 1.79651 -24.3023 9.03453 -3.29945 -2.95265 1.77103
2698 1 13.915 -14.5787 20.7505 0.931709 0.018591 -0.734297
2704 1 2.22115 -23.7753 1.82898 -1.37577 -1.72523 -1.31402
2797 1 13.2572 -9.68219 22.8914 4.88039 -2.9086 -1.24682
2709 1 16.9902 -1.54587 17.3415 -4.23231 -1.31937 -2.89471
2719 1 19.5633 -9.26486 2.40155 0.457939 -5.05651 3.08765
2721 1 3.32357 -13.2548 10.4728 -1.59207 0.0185079 1.17351
2728 1 22.0827 -3.83614 10.9624 1.49519 -5.31222 2.08427
591 1 22.6414 -20.4717 12.6369 4.24889 -5.62358 -1.84752
2734 1 19.1654 -10.4092 20.3208 3.92827 2.98615 -3.59238
2615 1 0.880452 -0.45437 16.3524 -1.05747 -2.22709 -1.91496
2755 1 4.34914 -14.8101 15.5471 -0.368252 -3.27843 -0.905419
2757 1 18.0622 -18.7433 18.9223 0.425066 0.389051 5.99625
2766 1 10.6418 7.98217 18.2772 -0.990289 -1.38212 1.64425
3096 1 3.77558 8.89958 22.4517 -1.73147 6.15488 -0.593891
2782 1 9.30118 -9.09645 14.7456 2.30008 -3.88929 -1.96684
2786 1 6.69755 -4.02015 3.32586 1.99866 0.0183328 -2.8174
2796 1 17.7817 -15.9854 12.2363 -2.40559 -2.26571 -0.939136
3898 1 19.8209 -0.92762 16.6542 7.62174 1.84088 4.69039
2816 1 5.78017 -12.8338 19.0415 3.83147 4.00207 5.03318
3697 1 7.02704 3.11648 3.35683 -8.08083 0.626772 -1.33211
3953 1 20.79 -19.2155 14.3888 5.06286 -2.40629 2.96818
2823 1 12.6536 -14.2932 6.22416 2.92921 2.08872 2.20566
3745 1 4.74569 -10.964 9.65508 2.28728 1.85253 -2.01021
2829 1 17.9857 -21.6582 9.51692 2.06998 1.98672 -0.389048
2838 1 17.7136 -11.574 22.327 4.80238 2.30064 -2.3585
2857 1 15.5937 9.48294 9.24576 -0.564353 2.04081 2.19761
1893 1 4.78843 2.70695 23.7138 -1.4111 3.46098 1.56421
1677 1 21.5616 -20.0755 10.2752 5.38679 -3.20352 -4.60642
396 1 10.0953 -20.9203 2.09793 -1.92339 -5.57602 0.173433
2872 1 5.73498 7.82436 9.29212 -0.503235 3.17178 -2.21203
2877 1 12.1664 -7.03615 3.47859 -4.12047 0.757298 2.46009
3866 1 11.6591 -16.9601 6.94794 -0.671741 3.10086 4.25646
3075 1 18.8292 9.66288 22.2336 -3.00743 1.36498 1.96791
2889 1 5.05885 -4.06397 7.56307 7.51031 -10.0744 -8.51471
2891 1 5.88752 -5.88635 17.0555 0.112409 0.965248 0.619912
2906 1 12.2331 5.75566 19.8632 0.833816 2.52923 -3.83918
403 1 17.4411 -0.428313 22.5308 2.56478 1.97457 0.37493
3176 1 22.9536 0.493469 14.7451 -3.83339 1.96948 5.22646
2925 1 21.5183 -8.6656 12.2557 0.293103 4.32297 2.25968
3784 1 11.5105 0.172514 2.51827 -2.5477 0.624246 1.05763
2929 1 6.02631 -12.6968 7.74649 -3.07678 5.25743 0.376857
2371 1 16.2419 -18.8076 0.310383 -2.92337 4.53984 -0.745558
1182 1 15.4409 5.48575 1.54567 -0.293509 1.79058 -2.63279
536 1 1.78383 -7.56543 1.01939 -5.70654 1.05862 1.54589
2914 1 1.21959 -0.258283 12.3979 -0.089703 -1.56122 -2.31186
2946 1 14.6176 -1.62001 11.0717 5.44949 3.7222 2.97119
3708 1 3.46161 -0.143011 5.92922 -0.179352 1.7652 -1.17882
1198 1 20.2329 -24.1936 12.2484 5.41911 -0.130519 -0.906797
2955 1 11.915 -7.65084 15.3579 2.98573 -4.97266 0.885075
2957 1 2.80661 -18.7916 15.5203 3.32665 -0.737448 -3.17286
3773 1 0.790259 -3.54312 15.7258 1.70537 2.26115 -2.03708
1811 1 0.440654 2.59644 20.3648 0.208137 -1.19934 -8.01987
2979 1 6.42243 8.10901 16.3395 -1.96596 -2.03852 2.53688
2990 1 13.6437 -17.2117 18.319 -1.78936 0.485718 -1.82149
2991 1 3.38142 2.11803 12.0772 -2.56358 1.72264 2.29528
2994 1 18.9818 2.39202 13.8494 3.27709 -0.156707 -0.400591
2996 1 11.3717 4.59777 4.70523 -9.57358 0.657166 1.47189
2998 1 1.93968 -15.3004 14.3299 3.90627 0.731329 0.602099
3013 1 14.247 -19.053 22.4736 1.86363 1.62059 1.22325
3022 1 15.4264 -11.8622 1.45956 -3.10544 1.14641 3.65183
3024 1 22.1296 5.52099 1.89467 2.04588 1.31189 2.63891
3025 1 3.69643 -22.7547 10.1341 0.539997 -0.381686 0.723988
2043 1 17.6445 8.67659 7.3535 -5.23621 -0.845809 -6.03993
3027 1 12.7142 3.718 11.1704 1.23954 -3.54952 0.858772
3029 1 7.47711 2.23328 14.6758 0.987121 -0.0464523 1.10823
1403 1 15.4654 -23.4688 17.0276 9.49745 -0.653759 4.03988
3040 1 6.93775 -20.7394 12.9856 1.86231 -1.93209 2.15287
3048 1 6.47835 -11.4647 21.5151 -3.74334 -6.74091 -0.123954
3050 1 2.98609 -23.2713 19.0999 -4.00283 -1.41439 3.75948
1485 1 8.98773 -10.1522 22.6267 -1.74945 8.58935 1.77867
3055 1 17.445 1.9645 5.90221 1.48473 1.13955 -2.36615
3057 1 18.203 5.34504 18.4013 1.85098 0.61616 -4.02019
3058 1 11.4885 -4.28445 10.7203 -1.18795 0.404926 0.945157
2827 1 4.64468 -9.36938 21.2654 -2.92882 4.1612 2.96175
3764 1 18.2386 -10.668 17.7285 -3.60502 -2.51786 3.48324
3072 1 2.3273 10.3321 20.2855 -3.48723 -1.12892 -2.63867
3088 1 10.742 5.95911 15.8494 -0.842079 -1.8684 2.97331
3089 1 12.0288 -18.0602 13.1788 1.33502 -5.24805 -5.7578
3094 1 14.5223 6.56066 18.0362 -0.399528 -0.204925 -0.953311
3102 1 2.28301 3.57896 22.2452 0.515879 0.3054 2.92257
2607 1 12.9466 2.66375 22.181 1.71678 -0.704305 0.338843
3109 1 2.78351 0.0841557 2.91371 2.73979 0.894683 -1.30091
3110 1 5.73951 9.14641 3.06791 -3.85721 -0.589657 -5.23969
3118 1 2.48023 3.5541 8.29659 -0.15509 0.603702 -0.425598
3127 1 15.0144 8.12222 2.72731 -4.10989 4.6415 0.280445
134 1 18.8108 -6.98613 22.3576 4.16876 3.94915 5.76109
3026 1 0.69216 -22.0084 5.85604 2.92683 -2.80939 4.92654
3145 1 18.8556 -19.1133 10.2784 -3.51631 -0.780626 -1.08751
3148 1 8.58657 -6.43927 5.03711 1.981 1.64516 4.8925
3156 1 22.837 -4.58277 8.32878 -3.72857 0.83159 -1.76685
3157 1 8.29439 1.98882 5.9037 1.96559 -7.34294 3.56095
3722 1 21.1768 -8.98953 6.47704 -1.0432 2.86038 1.69226
3166 1 17.2366 -8.89813 13.1959 -0.201929 0.563435 -0.697343
3705 1 4.38178 -2.67096 5.08598 -2.57977 -2.97744 3.36809
2968 1 1.91903 -14.2656 0.647587 2.23147 0.0225886 2.29563
3184 1 15.8281 -3.96792 4.07495 0.408702 2.21482 -1.59169
3504 1 17.026 -2.54963 1.6248 -0.0301765 2.37935 -1.53881
3858 1 13.814 6.58719 4.99968 -0.362387 6.16934 0.30198
2447 1 2.69478 -12.6842 18.3086 2.11634 -1.93601 -1.54556
465 1 0.475942 -12.711 2.54727 1.84043 4.24626 -4.87013
3208 1 4.40195 -8.75457 1.868 -0.975212 -2.14911 -1.08729
969 1 16.605 -21.6409 0.801566 -2.72056 1.32957 -3.52301
3215 1 13.3844 1.80971 13.2718 -3.60108 2.55033 -0.170163
1125 1 23.2182 7.50923 3.94212 0.241374 1.30454 1.1613
3217 1 9.92833 3.25407 8.39918 -5.2376 3.69205 -2.82878
3825 1 20.8568 -14.4391 8.95851 2.49184 4.69456 -5.29815
3246 1 16.3776 4.57638 5.91929 -1.05495 1.69064 0.832583
3942 1 10.6118 -21.8608 15.9169 -0.945976 -5.2412 -4.70752
3249 1 10.2609 -1.52589 13.6992 -2.50505 -1.91203 3.17326
3843 1 -0.0529523 -18.5852 16.3294 -2.5169 1.38885 1.00484
3262 1 8.90629 6.86138 11.5829 1.49312 -5.67693 2.90105
2445 1 2.7366 0.618084 20.186 -0.0733117 -0.437741 0.944711
197 1 23.2765 -3.93839 22.6509 -2.05386 6.81397 1.38583
3266 1 11.1195 -0.624715 20.7208 -0.223363 -4.69095 -0.0320256
3268 1 8.63888 -22.5443 11.328 -4.5073 -1.67613 -1.58417
3270 1 20.2096 -16.6107 15.9844 -5.1125 -2.44506 1.38758
2504 1 9.66029 9.79986 11.2928 -2.09209 -2.7989 2.32915
3274 1 13.157 -21.9528 5.19787 -3.16458 -4.979 0.362487
3275 1 23.0433 7.92644 13.475 3.59216 1.70262 -0.495327
3276 1 9.83323 3.97275 11.3938 -4.19576 1.82948 3.24048
3279 1 7.7101 -0.580769 13.9364 5.34484 1.29043 -6.0795
3915 1 7.39694 -2.2324 7.95593 0.431242 -1.44145 -1.21322
3309 1 2.43767 -2.71132 13.3361 -3.15387 -2.02354 0.162225
335 1 23.2739 -23.7114 4.44512 1.27503 -2.7914 0.307261
3821 1 13.719 -9.94676 15.7576 4.74613 4.92391 3.81789
3317 1 2.33145 0.728977 8.60067 -0.523409 0.195665 1.32574
3814 1 2.2769 9.43298 9.22214 -1.88321 -0.980061 1.83223
3336 1 13.837 -16.1309 2.19521 1.53421 2.95573 1.71816
2589 1 2.30152 -6.15782 8.45368 1.00294 -2.8406 0.849152
3344 1 19.9046 -20.8628 17.9603 2.35906 -0.166848 0.267417
3905 1 4.65914 -11.8018 2.30736 -2.43543 -0.52348 -1.52121
3357 1 6.87282 -7.90103 21.7868 2.47765 -1.16485 -1.11332
3853 1 20.3058 -12.2002 3.44125 -0.720224 -0.109201 -0.104669
2953 1 16.1476 2.7855 0.386163 -0.983814 -0.852103 -5.99753
3373 1 11.1751 -4.66611 18.8485 -0.670292 1.24951 -2.58742
3919 1 9.70212 -13.8935 18.7103 2.21092 2.54753 2.36086
3377 1 6.22801 -11.9965 12.1874 -1.15166 -2.57658 2.61781
3379 1 9.68181 -5.6206 9.069 -3.48377 0.939643 -0.424878
3995 1 4.85516 -23.27 2.19671 -0.756646 5.78303 -0.304184
3395 1 16.6151 -13.2948 11.6037 -2.07149 -2.14589 0.839134
3399 1 1.10859 -2.92166 0.882924 4.67937 -0.876752 3.15165
3405 1 16.5613 6.58653 12.4994 0.272891 -0.17591 -2.69039
3406 1 5.841 -6.88943 3.94445 2.57685 3.06766 1.26709
3704 1 20.1349 -2.39062 12.5489 0.538628 -1.46439 -4.21981
3429 1 3.12663 -20.7371 17.8284 5.50612 -5.91466 -1.69134
3439 1 1.2394 -13.4176 12.3576 -2.13038 2.43085 1.38266
1627 1 17.2741 -8.16292 20.0673 -0.0445632 1.29637 3.13267
3465 1 2.59343 -5.95243 13.5633 1.8005 1.55644 -2.81634
3474 1 20.5273 -3.75919 16.2926 2.63798 2.92322 3.5006
3478 1 10.963 -13.316 3.92201 1.44108 2.26667 -1.2029
3479 1 18.0997 -6.01408 9.17813 -0.492871 -2.83125 0.596185
3492 1 19.0965 -1.14771 3.30455 5.36066 -0.201294 -0.240413
3763 1 9.60653 8.58929 6.86124 3.38107 -1.68676 3.15323
3503 1 18.7384 -21.8847 2.4362 -5.39878 -3.5779 -3.46076
3505 1 4.08581 -14.5961 2.88689 -1.85735 2.43907 -1.27743
3515 1 15.9056 -16.3758 7.91538 -1.83945 -5.18814 -1.75962
3531 1 3.62147 5.24868 20.1589 -1.40993 -0.785392 -4.99744
3834 1 5.85843 5.76907 5.90939 5.7295 3.53414 -1.07796
3534 1 7.09346 -9.57192 19.1695 -1.6915 0.156025 5.23498
3739 1 1.66568 -6.40739 5.57067 1.15392 0.0246782 -1.92105
3538 1 4.15319 -5.00547 19.1533 -0.227318 -0.51478 -0.950592
3542 1 17.6819 -1.17607 5.75054 0.794758 -0.978358 -1.65005
3559 1 9.8661 -4.23899 13.1003 1.29573 -1.09126 0.413891
3237 1 1.26152 -16.2331 22.6231 4.37603 1.55734 2.32322
3567 1 5.7117 -11.5358 5.0102 -1.3904 2.39699 2.51066
3568 1 15.4185 -0.157726 15.4475 2.57258 4.67361 -4.25217
3576 1 19.2294 3.1849 16.6153 0.458109 -2.03948 -1.35906
3578 1 21.4056 10.3053 20.5622 -5.04913 -1.52625 1.62103
3981 1 12.5693 -8.60855 5.88404 -3.67172 2.92269 -2.7216
1394 1 0.383726 6.92318 0.0133187 -1.47211 -6.18016 3.2426
3585 1 11.8729 -0.28705 11.8505 0.689117 -1.55714 -5.23599
3594 1 10.6138 -0.00731107 5.57514 6.85167 -2.20074 -2.68908
3609 1 8.52288 -11.4877 7.36626 4.42371 0.963776 1.7283
3622 1 8.71776 -14.4313 10.1369 -1.83831 -0.699795 -3.12456
3623 1 9.36387 -0.497714 17.5417 4.55916 -2.137 -2.04022
3730 1 15.3591 -5.38019 13.4162 2.38815 -2.37089 4.95373
3625 1 11.9905 -19.5969 17.4434 -0.0062313 -0.796066 -3.78204
3628 1 9.64434 -0.402855 8.1963 -0.920557 -0.301309 0.831127
3811 1 12.289 -12.5266 22.0096 4.08242 3.63339 0.869038
3638 1 21.2825 -6.00719 19.4668 2.63094 0.229526 -1.41966
3639 1 7.91276 -18.0692 6.68133 -1.28412 0.562402 -7.20279
2732 1 0.0847584 2.73605 5.73156 -2.49557 -1.81087 1.91672
3647 1 18.8261 -21.6374 5.19094 -0.0861817 0.337737 0.969321
3652 1 22.7174 -13.0019 14.627 0.727263 -4.78661 3.72004
3660 1 12.3367 10.3315 10.0852 -4.54608 3.83919 3.84962
3762 1 10.4948 -9.95759 10.2696 -2.18763 2.99841 -1.59903
2114 1 0.859382 -23.3271 21.0418 -1.91532 7.49739 1.26979
3743 1 6.07664 -14.7674 13.1682 2.2636 1.59683 1.47051
3867 1 21.288 0.666411 4.00681 1.09732 -0.0139025 0.612379
2132 1 11.4935 -20.1885 23.2499 -0.699264 -2.54006 -2.72804
1972 1 -0.164899 -7.52315 7.58962 2.86778 2.72692 4.51362
1332 1 12.5287 -24.1457 21.8577 -1.77674 3.69843 -5.69128
2943 1 23.2305 6.30952 9.80957 1.30058 0.411615 0.970473
3039 1 16.6506 -24.402 19.2839 -1.64995 -2.6294 -4.87075
498 1 23.4704 0.895018 23.1285 -3.62167 -1.33387 -4.02542
2856 1 15.8394 -15.9666 0.239423 -0.25165 -4.91933 0.304292
2947 1 15.4731 -11.0763 23.9721 -4.66201 2.97582 2.46484
1558 1 9.87928 -18.6422 0.0870577 1.43565 -0.74691 1.44682
1168 1 12.927 -8.77521 0.148389 -2.59084 1.88089 -3.00817
2025 1 3.50479 -10.0241 23.7927 -0.263266 1.33338 -2.33044
3817 1 3.27873 7.67344 0.124078 1.15485 1.84419 0.251651
3879 1 18.4728 -14.2431 23.8744 0.479716 0.332122 -2.82426
2900 1 17.8992 4.80333 23.7645 -2.12624 2.7298 -1.4899
24 1 9.27578 20.3499 -5.00031 -3.46451 -1.37865 -3.64491
85 1 5.27951 13.192 -2.36257 -1.31725 1.12449 2.93886
1738 1 2.88081 12.2441 -22.7149 1.60542 0.159571 2.95862
91 1 18.5381 20.1178 -22.5816 3.50741 -0.257539 -0.662681
105 1 4.41008 19.9986 -20.9141 5.63105 1.36155 5.84776
117 1 19.586 17.6881 -21.163 -1.46769 0.11689 -2.54001
166 1 7.22683 19.975 -20.1699 1.14692 0.228685 -0.325856
2480 1 0.34937 21.1481 -8.59065 -2.6731 1.04912 -0.556662
169 1 3.02806 26.054 -13.9038 -3.39989 1.72099 -0.341732
183 1 19.7764 14.8745 -2.46343 -5.36267 2.5662 -4.32229
186 1 14.0832 24.6124 -13.577 4.72099 -0.145223 -1.89652
3684 1 12.6351 16.2442 -23.1196 -3.86069 -0.891892 -2.94059
3427 1 22.7078 11.8259 -18.3153 2.23154 0.44041 2.25834
252 1 18.8461 16.3371 -13.0527 -4.40414 -0.803774 0.696753
271 1 1.9642 23.6008 -14.6053 0.225566 1.26807 -1.70403
275 1 11.8914 24.1155 -20.8778 1.92956 -0.898341 4.06976
3345 1 12.6852 23.4626 -23.4347 1.27934 -1.66014 3.91408
306 1 10.8109 20.8274 -13.1891 1.51932 -0.904722 -3.30176
4343 1 10.4596 45.3039 -10.4366 2.80841 -2.20471 0.769939
336 1 17.7244 15.954 -22.613 0.227585 0.383945 1.03714
354 1 10.1355 19.3391 -7.58464 -0.543183 -1.46719 1.34285
367 1 6.48112 18.9911 -17.4544 1.49414 4.41701 -1.43199
380 1 13.6516 15.4318 -20.7624 5.80643 1.01696 1.0096
382 1 15.6939 17.6204 -3.522 2.79226 -7.86915 -1.64776
414 1 4.28432 20.4499 -16.3133 5.73058 1.12637 -2.5105
428 1 8.96089 13.2118 -6.55924 -3.77754 -2.35766 -1.26865
437 1 17.9942 17.3329 -10.4838 -2.5669 1.82083 -1.62699
2935 1 7.89637 22.0897 -0.928133 -2.68765 -2.25921 1.24323
2325 1 14.5684 46.6851 -17.865 4.10849 -2.03897 2.2161
1506 1 16.0401 13.1182 -1.18384 0.801908 -2.54302 -6.87847
1318 1 21.9311 22.2184 -1.49063 5.13301 2.05719 2.13828
507 1 12.6072 20.6036 -15.2412 -0.505411 2.61763 3.60148
509 1 19.5159 15.0026 -17.4292 -0.899644 5.65893 1.88479
554 1 2.78049 16.5483 -18.561 -2.16424 2.12434 1.97081
3689 1 22.0568 18.0443 -17.6675 -0.273944 2.47197 3.64386
586 1 16.0279 23.8675 -20.6641 -0.43184 -1.38127 6.25424
635 1 10.7632 14.4826 -2.4724 0.959969 1.39921 2.86632
638 1 13.128 17.3155 -4.83508 -0.258088 0.0557067 0.405776
1059 1 4.66018 45.6376 -15.2005 -6.0481 2.12387 -0.0982507
680 1 7.09474 25.2381 -13.1597 -2.09053 3.61253 -3.25867
3347 1 22.9615 11.9281 -13.3264 0.183763 3.20658 0.297837
703 1 4.31716 27.7208 -22.1295 4.07939 -1.1105 1.77854
705 1 6.04746 22.7009 -15.3476 2.27197 1.49724 1.08117
736 1 5.40345 20.338 -6.93978 -7.26224 -5.03419 -1.38901
784 1 11.6858 17.236 -2.27465 0.498389 -3.23043 -0.852483
787 1 7.56089 15.1494 -14.2115 2.12218 1.09415 3.73439
468 1 21.4206 16.5701 -8.67227 3.21135 -2.25929 -5.07493
2269 1 19.5114 13.5779 -22.2648 -0.699393 1.57733 -4.66961
3604 1 10.134 11.7199 -21.7359 -8.15065 1.90741 -2.91734
862 1 0.866237 15.0291 -8.24044 -1.2368 7.11487 2.14552
4252 1 10.3061 25.6531 -0.172511 3.19935 3.45632 0.983525
1913 1 0.430944 20.8714 -0.125777 -0.978174 2.86055 -1.68265
883 1 15.4555 20.0209 -6.82813 0.654017 0.888145 -2.18537
3849 1 21.56 15.5099 -21.4039 5.04572 -1.97596 5.58533
229 1 11.9618 11.4724 -11.7797 0.281399 0.044647 0.25542
1781 1 4.86862 20.8053 -23.5816 -1.64599 5.2011 3.30102
1342 1 1.83194 46.0954 -16.0613 -3.30123 2.45901 0.414418
979 1 4.57377 26.3115 -19.5345 0.253707 1.46813 -2.03947
1000 1 16.6856 20.5606 -11.2612 0.57399 -1.68079 2.37764
1507 1 22.2976 19.1125 -8.3702 4.11225 1.41697 -3.22092
1035 1 13.2125 20.0193 -5.01628 1.20958 -2.35538 -1.29243
1039 1 19.3766 22.8214 -9.61171 -3.24293 -5.08914 0.669274
1046 1 14.5985 14.1657 -17.2476 -2.55251 -0.60576 -0.139482
1065 1 14.4061 19.9392 -20.5247 2.64284 0.917435 0.643816
1395 1 1.16801 11.3336 -7.54573 1.14381 1.74776 1.24845
1096 1 8.45471 17.9243 -11.6111 0.648693 -1.00239 0.855183
1127 1 11.8632 21.6557 -6.92611 1.38689 -2.48043 1.65598
1165 1 15.8442 23.3273 -2.02935 -1.68186 0.533515 -3.0099
1181 1 7.68193 20.8205 -8.81709 -6.05837 5.38263 3.53441
1194 1 6.08879 17.7551 -6.22064 0.319224 6.38367 -0.0835177
1196 1 4.05235 18.6011 -13.9182 0.38449 -0.55782 -0.54497
2847 1 6.48407 15.191 -0.715527 -0.0819369 -0.815091 0.219255
1849 1 13.1653 45.6122 -10.3257 0.837432 -0.106689 -0.022347
1243 1 7.20587 19.3095 -23.0854 -2.05984 3.29407 -3.83942
1249 1 8.19659 17.3623 -21.213 1.42091 -5.81686 -0.851812
1253 1 11.9745 23.8492 -3.05676 -4.21697 0.711079 2.40681
1274 1 20.9993 21.4485 -21.3172 -2.00299 -1.22086 1.19521
1301 1 8.73757 15.6939 -9.94356 0.670505 0.0340186 2.41919
194 1 0.405847 25.8427 -21.8049 -7.36749 -0.0751834 1.66692
1336 1 2.32699 21.7345 -4.53102 0.903401 -7.06354 -1.49778
1820 1 14.4549 13.2541 -6.59634 1.83 0.642526 -1.09979
4175 1 0.113151 36.4287 -9.92232 1.2091 -3.52239 -7.59879
1380 1 15.0623 19.9584 -13.4992 -3.59568 5.89789 -5.55845
1384 1 1.72631 21.0355 -11.2162 -4.36178 2.19111 1.19089
1397 1 3.8852 22.6992 -10.2438 -0.725536 -0.192205 -1.73
1398 1 4.78064 20.5868 -4.28417 2.71462 -1.61751 3.42574
539 1 18.2692 13.8151 -8.73642 1.98752 -2.67032 0.973854
1419 1 8.34272 23.0598 -4.81991 -2.1563 3.88138 -0.646441
1423 1 5.434 23.7209 -19.9287 -4.95587 -0.433777 -1.34659
3809 1 4.2056 46.7589 -19.2692 1.65866 4.65968 -3.00432
1435 1 18.4203 24.0308 -7.24934 6.30782 2.01966 2.0342
1437 1 3.89588 17.2716 -21.3129 -0.567579 1.4216 -0.0516578
3882 1 20.8105 17.502 -1.79663 0.145252 -2.13835 -1.31867
1451 1 8.86478 22.1247 -11.1695 -1.26419 -2.20182 -4.88169
3140 1 1.0107 16.0356 -21.0373 1.65893 -1.77964 6.37089
466 1 16.9095 11.8592 -22.7848 -3.32541 -1.55204 -3.18095
920 1 2.1058 14.7856 -23.4083 -0.561334 -5.8754 -4.14764
1501 1 8.85327 19.2497 -16.0353 0.495149 -7.68383 0.659755
1503 1 8.70935 26.2804 -23.2067 1.25516 -1.34891 0.646952
1348 1 2.8917 12.4103 -16.9712 -1.1238 -1.56779 4.12161
1509 1 10.3012 19.7603 -10.4216 -0.257716 -3.96267 4.90547
1561 1 19.0152 19.9551 -9.4096 -0.935948 2.30048 -4.55932
1564 1 7.7187 15.6398 -7.4182 -2.27321 -0.304298 -0.911249
1568 1 18.7769 19.1032 -12.8183 1.11242 4.8829 4.0142
1576 1 12.0152 21.612 -19.67 -2.22102 -3.93297 -3.76869
2392 1 10.8549 46.7465 -15.1984 -6.93314 -2.46593 -2.12387
1593 1 1.6307 26.1226 -19.3705 0.316907 4.44281 2.10409
1595 1 8.04056 13.4513 -3.81987 -0.923736 1.76284 1.66454
1601 1 5.48104 16.2798 -17.7498 -4.19666 0.428854 -1.9421
1624 1 4.78467 23.7334 -22.8945 -2.77356 1.15015 -0.7247
1625 1 12.7303 13.3265 -10.0579 0.91707 4.51133 3.17017
4123 1 -0.0156222 27.3588 -5.41879 1.27039 -1.8943 0.346128
2411 1 8.79947 12.8594 -19.4646 3.28386 3.04224 -0.37206
4350 1 6.57066 44.9537 -1.20243 0.189698 2.5878 2.89682
1678 1 3.61762 22.0205 -18.891 -3.59026 1.52635 -0.0583495
1683 1 13.3315 25.0969 -16.4218 3.18895 -1.76369 -3.1248
1701 1 10.7442 23.8104 -5.74734 0.91378 1.7813 4.99323
1709 1 18.745 18.4539 -3.74124 -0.0419983 -0.0273301 2.4429
1712 1 14.6852 12.5398 -21.1247 5.16723 -3.28586 -1.58739
3902 1 11.6371 12.9195 -7.36215 1.6385 -5.36081 -2.21842
1744 1 15.3208 24.7216 -10.8952 5.23542 -2.46849 -3.03604
1745 1 5.65577 13.7278 -7.61916 1.06365 -2.55556 -3.7426
1746 1 15.9491 22.6052 -14.1552 -4.60542 -6.87505 -0.456923
1752 1 22.4676 18.3573 -21.9762 -1.07967 2.31224 -3.72277
1775 1 7.29709 13.8927 -11.6107 0.794164 2.92982 -0.587227
2491 1 12.8368 45.5878 -3.91145 -0.450701 4.39912 -2.77939
3835 1 20.312 46.8402 -4.39428 1.87549 3.13081 -1.60447
1787 1 3.42477 21.3953 -13.4775 -0.551012 3.54709 3.47243
87 1 1.90711 17.431 -7.3107 -3.34083 -4.00795 0.672872
878 1 8.47831 13.843 -23.1615 3.14603 0.315699 -0.421369
722 1 9.36723 46.1831 -12.7849 -1.5529 1.70463 -1.7119
755 1 12.7257 11.5826 -23.254 -0.513428 2.86523 -3.48047
1647 1 16.1083 11.8534 -18.525 0.0989773 0.279385 0.212683
839 1 23.2098 17.4265 -12.2089 2.47128 2.90585 -2.75643
1692 1 0.222449 19.6479 -4.3493 -2.41883 -0.398608 -2.2582
1921 1 15.6348 15.9958 -5.96237 -0.60431 1.5811 1.08515
1943 1 1.51378 16.1792 -3.03249 3.23462 1.56298 -5.88757
1950 1 20.8638 23.0311 -6.24817 -0.381704 -0.14518 -1.54258
1964 1 19.6658 24.9137 -17.5535 -0.619442 -0.744199 -1.65664
1981 1 14.4644 23.9838 -4.41155 -4.54701 0.809128 -4.16057
1993 1 1.20557 13.3812 -13.0472 -4.40335 -1.58581 -0.81766
2027 1 6.29316 19.5064 -12.4201 -1.29038 -1.36168 -1.44246
3272 1 1.86197 13.5704 -5.79704 -0.314848 -2.46834 -2.74485
2048 1 1.42921 14.88 -16.5871 4.98598 -0.898485 1.93484
2049 1 16.1025 21.6102 -18.8197 -0.176728 0.0233096 -0.210746
2089 1 8.237 15.7881 -18.8184 -3.95868 3.29768 -1.90955
3073 1 2.47443 22.2284 -1.41676 -1.42728 5.22795 0.0175589
2138 1 14.4775 22.3479 -16.548 -3.35824 2.79143 -6.51583
2152 1 7.52485 23.4838 -7.47235 -1.44084 1.08584 -2.06885
2165 1 18.7015 18.6467 -15.7593 -1.81102 -3.24984 -3.43848
3894 1 10.328 11.8356 -14.1554 -0.155404 -1.518 -1.32395
2184 1 13.9626 17.703 -19.0565 -3.83472 0.760073 -2.4957
2189 1 3.18878 17.6404 -9.98404 2.00358 -0.968431 0.817029
2198 1 4.69413 14.1093 -5.03043 0.844442 0.579785 -5.35718
2208 1 16.5948 22.5038 -5.63493 -3.46861 2.92907 3.30296
2356 1 14.5187 45.8382 -12.7917 -0.155008 -2.2168 -1.46586
188 1 8.92919 45.7436 -2.26413 0.435957 -1.28392 5.6697
2351 1 15.5957 11.9413 -12.024 2.73051 1.16857 1.7834
2238 1 12.0825 13.6427 -15.8413 -3.83182 -0.412155 -0.456868
2243 1 10.9411 23.9441 -10.4497 -2.98387 -2.47558 -1.36003
2808 1 4.55291 45.085 -12.2849 -2.79442 -0.397903 0.761021
2246 1 1.96704 19.034 -17.5646 -3.06606 1.12274 -1.23935
2256 1 15.5903 20.2291 -23.207 1.57567 -1.58207 -1.27752
2260 1 18.9073 17.6798 -18.4694 -3.38929 0.516916 2.11601
2345 1 4.90279 16.0302 -14.9195 -3.83291 2.13739 0.214831
2394 1 18.3088 19.0009 -6.65238 -7.17631 0.869115 -3.35276
2402 1 16.4409 14.9513 -20.3388 1.90109 -0.362996 -4.33976
4352 1 10.6447 41.8104 -1.42258 -1.98203 -5.50446 -3.66516
2432 1 18.5387 13.1551 -19.462 0.312855 5.37658 3.60622
2452 1 11.8107 16.1393 -14.3723 -1.3837 -0.889105 3.32413
2464 1 8.09404 21.1016 -14.0114 -1.75755 3.38042 -0.966498
2443 1 5.4921 12.9853 -21.3641 2.47262 -3.47172 -3.38602
2489 1 5.98006 22.6372 -12.428 4.03903 3.43269 0.147819
2493 1 18.3793 25.3164 -20.2836 2.4694 -5.67701 0.233587
2503 1 14.2024 16.3256 -1.18856 -4.85048 -3.85238 -1.86488
2508 1 13.3565 23.5216 -9.12162 2.32353 1.77475 -3.83247
2524 1 7.78964 22.6807 -19.5596 2.70327 0.924169 1.66433
2549 1 3.94876 13.2831 -14.2943 -3.97036 -4.10818 -2.28619
2554 1 16.3804 25.5341 -8.27954 5.50984 0.516191 -4.40664
2555 1 3.51006 16.7794 -4.90058 3.15289 -1.20742 -0.806727
2577 1 12.6627 19.8238 -0.973346 0.180224 -1.78135 1.50359
2640 1 6.08983 15.6019 -22.1945 -5.74084 3.20603 -0.228601
2807 1 23.0473 19.4677 -1.83308 2.95783 -0.540946 2.45408
2676 1 18.7927 20.359 -19.6979 -7.11285 -2.89849 3.14075
2693 1 8.64822 23.3253 -16.9651 -2.21741 1.73622 1.4506
168 1 19.902 23.1713 -3.33084 0.143456 3.52654 -5.25567
3473 1 22.2511 24.2633 -20.9833 2.49316 4.06352 0.507259
2764 1 9.39943 24.5971 -14.7017 0.689385 2.63162 -5.68621
2791 1 20.2503 13.6011 -6.25242 -2.20863 -0.476108 -0.833841
2794 1 4.93745 20.0473 -9.79774 1.81044 2.37749 -2.12528
2795 1 17.8965 12.7348 -16.0321 -1.90687 -1.07364 2.19856
3482 1 14.964 20.3857 -2.69961 1.06083 -0.128434 -1.49104
2810 1 5.21723 25.4281 -15.3125 -5.00479 -1.70745 0.916551
2825 1 13.1064 19.6952 -11.4532 2.62296 1.92277 -4.39564
1029 1 13.3399 13.2556 -0.926823 0.59991 -1.04973 -0.106481
2916 1 14.5713 21.1002 -9.30553 2.91783 0.511291 4.63617
2094 1 20.1615 11.4558 -4.13271 1.83127 -0.319737 4.546
1810 1 12.4094 44.8186 -6.5777 1.19494 -0.701661 3.64819
2978 1 12.9821 18.1849 -16.1986 4.67995 -3.76964 -3.64931
2989 1 20.752 16.6652 -15.3624 4.09596 1.18502 2.85852
119 1 17.2155 12.8499 -5.87269 0.946379 -1.44315 -0.423408
3004 1 16.3307 16.4127 -17.962 -3.8281 0.95259 -1.345
3023 1 4.72366 18.2134 -2.71221 1.13135 0.41628 -2.42338
3063 1 8.66662 25.8969 -18.2181 4.51359 -1.84028 -0.235913
3067 1 15.4296 13.2502 -14.6234 -0.415534 1.42029 -3.1416
3068 1 18.468 20.8948 -0.245822 -3.92317 6.55825 0.805015
2516 1 5.12501 13.5384 -18.4898 -0.475588 5.0881 -0.8493
1526 1 18.141 25.0386 -2.01122 0.0619981 -0.522135 0.593494
3142 1 1.92844 27.8115 -23.4038 2.18057 -1.45698 3.03059
3143 1 20.0638 25.5931 -22.6196 -0.844435 3.90874 0.899678
3183 1 18.2286 15.5052 -4.94978 3.09712 -2.50262 3.77037
3206 1 13.1009 13.0747 -3.95837 -0.52143 9.7492 -4.80955
3227 1 4.79638 23.0618 -7.47069 2.52003 -0.0572239 2.30804
3238 1 20.7845 20.2473 -5.86835 -2.02479 -2.66753 -1.84333
3244 1 22.0259 14.0114 -16.457 0.407636 -2.02091 -3.70872
3269 1 6.73188 16.175 -3.69673 -1.29161 -5.99253 4.49869
1482 1 6.06732 26.1935 -23.7596 -2.25267 -1.53327 -1.91474
3284 1 13.9451 24.8536 -19.1611 3.80962 3.04567 -3.07993
3285 1 1.86249 23.7602 -17.5534 1.07225 -2.88986 -2.05891
3291 1 20.3277 23.2336 -13.3343 -1.48768 1.5969 1.29236
3339 1 10.3393 19.2071 -20.0495 4.10185 0.46798 3.25252
3341 1 21.0257 20.8826 -17.8524 -1.43772 -0.464703 0.0412757
861 1 23.3499 19.9147 -13.7577 1.76609 0.913027 -0.0815984
3349 1 12.6474 16.8222 -11.7355 0.183792 2.44438 -1.77373
3421 1 9.37234 17.1182 -14.0139 4.0239 -0.327599 -1.4348
868 1 0.572607 18.5209 -1.68351 -0.828541 0.428094 -1.79654
3434 1 11.3088 15.6942 -9.48051 -9.05209 -4.47455 -0.903722
3437 1 12.0675 17.105 -7.46032 -3.30132 -3.23836 -0.749459
3440 1 2.56173 20.2868 -7.04138 1.66346 4.74887 -1.60724
3449 1 6.13822 26.8805 -17.3462 -0.833824 -0.777748 0.313722
3456 1 9.30052 25.1713 -20.7407 -0.575766 -4.41576 -0.712101
2670 1 22.0787 23.6827 -18.0823 -0.409087 3.40252 -1.59273
3483 1 11.3273 21.0938 -3.16897 -1.98576 3.92703 -2.19163
3488 1 15.5298 13.5145 -9.54955 -5.93846 5.02182 0.0336908
3500 1 18.8393 16.5274 -7.78808 3.21272 -3.1235 -2.42311
3521 1 1.44405 17.2468 -14.9253 -0.306844 -2.85549 4.52157
2004 1 0.776325 46.6885 -22.8936 -1.84212 1.15713 1.65138
3526 1 9.08806 17.3228 -5.55885 -2.98475 4.6317 -3.05875
3539 1 11.4369 23.7056 -13.0707 1.52471 -1.63372 -1.96797
3546 1 19.3638 13.9829 -11.6692 -5.15106 1.32561 2.56371
3554 1 16.1159 15.6029 -13.4161 -0.750547 3.52113 -1.96956
3599 1 11.0805 14.9924 -5.42844 5.39895 -0.337929 -2.89919
4342 1 6.43432 44.9076 -8.66965 -3.77986 -1.9312 4.7781
3608 1 17.9771 21.1353 -16.9513 0.345028 0.513301 2.6594
3644 1 17.7705 21.1917 -3.22107 0.542049 -4.02882 1.10655
2421 1 22.3524 15.9385 -6.1452 -0.489654 -1.3858 -2.83846
3657 1 22.4837 22.0646 -11.6274 2.90242 -1.46496 1.36892
3667 1 12.043 14.7702 -18.4797 -4.07375 3.50158 0.00770046
3676 1 15.1416 16.4189 -10.7718 -1.17207 -5.28517 -2.57539
1480 1 -0.381674 14.6505 -4.25143 1.68314 0.862995 -0.0322756
2731 1 22.1401 22.1697 -8.74419 -2.18368 4.29748 -1.84908
3693 1 6.03232 22.559 -3.03722 5.08065 1.3298 2.65943
4351 1 11.4255 44.4591 -1.8256 0.45314 1.15596 -1.32542
3712 1 13.6732 25.5147 -6.84516 -1.36082 0.345336 2.47008
3734 1 14.6372 17.6405 -8.29008 -0.264926 -3.57332 -4.88809
3750 1 10.6791 26.2369 -16.3837 -4.86848 -1.62664 3.22505
3778 1 1.60657 13.0332 -10.1566 -2.76066 0.174613 1.46478
4223 1 0.12104 45.7664 -9.20418 -3.17876 -0.586861 2.61597
3787 1 10.6079 21.3848 -17.2385 2.57264 0.731246 -1.11512
3789 1 18.2995 23.6508 -15.4744 -0.868636 -0.751755 2.20682
3799 1 17.6945 23.1204 -11.7794 1.6633 -0.587072 -1.87433
3801 1 3.89337 15.0042 -9.41896 -4.40284 -0.0398306 0.268964
683 1 2.11061 11.7927 -19.8033 2.49282 0.395169 -1.43025
2892 1 21.3605 19.4169 -11.1352 1.12946 1.73002 1.29359
3854 1 16.9286 15.3997 -2.15889 -4.07747 2.31506 -0.628281
3883 1 21.8357 15.2384 -11.0155 3.11773 2.21022 0.502695
3564 1 20.2511 12.6421 -14.2203 -1.47021 3.14501 -4.1954
846 1 8.9243 11.3703 -11.2818 -0.709962 0.845026 4.32026
3927 1 8.88344 18.0731 -2.76802 -0.542177 4.69528 -1.31756
1444 1 12.3432 18.859 -22.167 3.43483 1.10329 4.27675
3948 1 10.6354 17.3758 -17.8246 0.356219 4.66968 -0.258402
3986 1 16.003 17.7964 -15.2906 0.820558 1.21089 -1.64768
925 1 3.317 11.6423 -4.11136 -5.68832 0.730788 -0.509426
4124 1 0.813389 25.1735 -6.7044 1.58297 -2.6393 2.01591
2928 1 22.0495 46.0908 -10.6818 -0.816377 -2.11459 0.311859
4128 1 0.629475 25.0484 -9.61814 2.75821 -2.64531 -5.52477
2337 1 8.62045 11.4033 -1.74193 -2.71576 4.10601 5.26894
4136 1 0.987739 25.0095 -1.54785 1.15275 7.61143 -1.90225
4147 1 -0.0494331 31.9348 -5.38068 -1.69795 -1.05018 4.56698
4148 1 1.25136 29.7687 -6.50464 1.38357 -0.496027 2.50656
2244 1 20.7961 20.6514 -14.691 -3.85664 5.24262 5.70135
4152 1 0.884592 29.811 -9.2915 -0.373886 -0.41248 -0.00391784
4159 1 0.437748 31.9534 -2.66341 3.07668 -2.11874 2.67025
4160 1 1.52999 29.6966 -1.56935 -1.9547 5.75327 0.251682
4171 1 0.340745 36.4662 -4.92974 -4.08145 -0.145225 1.93883
4172 1 1.36261 34.1508 -6.33449 3.84748 0.729423 -3.14071
1809 1 9.7337 20.0807 -0.873953 1.83183 -0.247679 -2.73458
4176 1 1.04144 34.1461 -9.0512 1.44817 4.75626 3.69287
4183 1 0.646584 36.1785 -2.15758 -1.3205 4.25128 -2.53816
4184 1 2.26497 33.8917 -1.58753 0.152709 2.4785 -4.65517
4195 1 0.627909 41.1351 -4.80787 3.2316 2.39375 0.263466
4196 1 1.3129 38.8234 -6.07278 -0.0342115 -0.00112533 3.03917
2460 1 7.88022 12.7145 -15.3473 0.0431371 1.93166 1.28507
4200 1 1.32019 38.548 -8.67132 -1.38918 -5.33668 5.00291
4207 1 0.985428 40.5946 -2.15729 3.68078 -2.81074 -3.70569
4208 1 2.14286 38.3653 -1.34597 -0.279751 0.337062 1.32974
4219 1 1.04078 46.0958 -4.84258 -1.5634 0.259757 3.36476
4220 1 1.57844 43.5536 -5.89772 -0.386956 -2.63166 1.338
68 1 0.24727 13.6723 -20.0796 1.26392 -5.43978 4.55972
4224 1 1.63928 43.4721 -8.7218 -1.29527 0.547954 -1.28095
4231 1 1.26205 45.3251 -2.08906 1.05654 1.3342 0.765325
4232 1 2.31789 42.8676 -1.131 -1.72988 2.37747 -1.15537
4241 1 3.16191 24.3318 -5.80388 -2.35382 -1.49724 -0.25852
4242 1 4.35601 26.8787 -6.80077 -0.787929 3.15994 -3.29035
4243 1 7.09574 26.2143 -6.21187 -1.42853 2.55701 -1.23998
4244 1 10.8686 26.3014 -7.21363 8.04494 -1.28734 -0.390986
4245 1 3.03967 25.2758 -10.9991 -7.26602 -3.96431 -4.46095
4246 1 4.62226 27.09 -9.59143 2.34639 0.434189 -1.04408
4247 1 7.14727 26.5045 -10.5217 -2.99904 -1.49665 4.98745
4248 1 8.92222 25.0036 -9.12412 -2.48228 0.293597 0.54905
4253 1 3.84235 24.5432 -2.936 -1.31509 1.4729 -1.8105
4254 1 4.97878 26.9785 -1.80274 0.927965 -0.618495 3.92248
4255 1 7.25782 26.3577 -3.32632 -3.34217 1.00701 -2.03288
4256 1 9.15383 24.4015 -2.32336 -1.42863 -0.360604 -1.15468
4265 1 3.93443 29.3015 -5.69292 1.69768 2.49777 -0.377909
4266 1 5.34123 31.5118 -6.87566 1.37227 -2.22334 -1.78174
4267 1 8.06038 30.9891 -6.58392 1.1668 -0.0252307 -5.12587
4268 1 8.81652 28.2895 -7.10295 0.756102 2.54098 2.5001
4269 1 3.46967 29.4356 -10.2701 2.66788 3.44962 1.15959
4270 1 4.81378 31.7451 -9.69899 1.76814 2.74429 -1.40572
4271 1 7.19654 31.4868 -10.852 -2.97726 3.2509 -1.86794
4272 1 8.47634 29.0322 -9.98316 3.61197 1.68437 0.191655
4277 1 3.82401 29.3068 -2.94817 2.62635 -2.73555 -2.51836
4278 1 5.60189 31.1497 -2.08902 8.1583 -1.39091 1.98443
4279 1 7.97415 30.9848 -3.67796 -2.55032 1.80543 -1.09687
4280 1 8.87472 28.6292 -2.54626 1.16069 3.69994 -2.3953
4289 1 4.15725 33.8455 -5.71066 0.86226 -1.02772 4.57148
4290 1 5.2584 36.2164 -6.77348 -0.813048 4.16729 -3.91748
4291 1 8.07304 35.5639 -6.12343 1.91397 -0.00564976 -3.05811
4292 1 8.62642 33.4266 -7.71283 1.89829 -7.01964 -2.29733
4293 1 3.58985 34.234 -10.0359 -4.76487 -1.07643 -0.290372
4294 1 5.03286 36.5669 -9.53861 -0.922463 -0.453388 1.84238
4295 1 7.21383 36.2245 -11.3379 -0.595782 -0.439971 -0.168855
4296 1 8.42799 33.9917 -10.5353 4.38856 3.63442 -2.38158
4301 1 4.47154 33.6271 -3.03217 1.28475 -0.157962 -7.23796
4302 1 5.8658 35.7927 -1.82106 1.37447 3.13885 -0.178684
4303 1 8.19713 35.6415 -3.17965 -2.16546 1.12294 2.60324
4304 1 8.99231 33.1427 -2.36121 5.53612 0.470513 2.03545
4313 1 4.09905 38.5189 -5.39566 -0.830639 2.91544 -5.09598
4314 1 5.47237 40.7686 -6.28623 -0.0895355 2.10637 -2.7306
4315 1 8.4207 40.6003 -5.44606 2.49427 -2.69297 4.92359
4316 1 8.76699 38.2309 -7.08234 -1.99091 -3.88985 5.54534
4317 1 3.91336 39.1346 -9.78117 -4.4129 1.47878 0.127827
4318 1 5.42031 41.2966 -9.21123 1.51324 -1.60098 2.34602
4319 1 8.31309 40.9908 -9.82018 2.86236 -5.86472 0.232522
4320 1 8.61737 38.3559 -9.82859 -5.54536 1.27967 1.56432
4325 1 4.61685 38.3933 -2.58869 -3.4444 -0.290577 -1.7821
4326 1 6.30823 40.3984 -1.40342 0.626425 4.41098 -2.37091
4327 1 8.79512 40.1285 -2.61497 2.13574 1.59332 -2.75812
4328 1 10.0584 37.5831 -2.2189 4.13298 0.233543 -2.82967
4337 1 4.6617 43.1903 -5.08762 -1.18721 0.548141 5.43631
4338 1 5.92561 45.4722 -5.96292 -2.58338 1.44215 6.91932
2802 1 4.43512 13.0103 -11.2878 -0.431983 -1.06504 -0.497183
4340 1 9.79415 43.0215 -6.22826 0.737956 -1.86871 -1.22237
4341 1 4.04314 43.5486 -9.84516 -1.67319 1.23467 -1.11871
2603 1 21.8878 18.0168 -4.21368 -0.550492 -0.827518 -0.71646
1670 1 2.71563 14.3112 -1.46809 -2.83487 1.29634 -0.610214
4344 1 8.92834 43.5683 -8.85134 1.60179 4.06727 -0.238362
4349 1 4.96375 42.644 -2.25828 4.39773 -0.467829 0.104804
475 1 21.5524 11.7799 -23.4192 1.66771 3.24753 4.65686
3815 1 1.20735 21.1471 -22.8202 1.91892 2.75195 -2.15182
4339 1 8.39286 45.2004 -5.1022 -1.35165 3.26949 -3.00694
2352 1 1.88498 23.8895 -23.3672 1.48515 -0.452666 3.26579
4199 1 0.365397 41.1148 -9.37459 -1.67126 -4.1444 -1.92967
1440 1 22.0662 13.114 -2.63673 0.746439 -3.99208 -0.604392
732 1 14.6225 44.3515 -8.1139 -2.10126 4.26194 1.67803
1319 1 13.204 22.6112 -0.58443 3.98449 -2.83626 2.2664
1609 1 23.1023 20.1627 -19.7917 3.86783 2.50806 -1.11064
3661 1 22.6269 15.6784 -18.9167 2.13855 5.94114 -1.52873
1816 1 1.47107 18.2066 -12.2065 -1.37407 4.2732 -2.12191
2686 1 6.30088 46.5562 -17.4605 -1.13325 0.562923 -3.23192
1741 1 9.85233 16.5491 -23.5498 0.302064 0.837891 -1.42506
578 1 22.8473 23.5659 -23.6373 0.48395 2.18078 -0.0608625
3260 1 16.4757 46.5302 -8.55268 -2.02889 4.43721 -2.58953
3691 1 18.7581 46.7742 -6.97035 -0.0372663 3.49693 -0.49486
2230 1 3.09024 18.4722 -0.2429 6.44196 1.80901 0.604942
1557 1 9.12853 46.048 -17.5158 3.362 0.0874598 -2.15682
807 1 15.4369 22.9513 -23.2275 4.24502 -4.44506 2.69066
1489 1 23.3982 16.5274 -0.725562 3.31955 -0.0315437 0.24712
3511 1 15.8897 11.7664 -3.59683 -6.53223 5.14885 0.440502
1241 1 11.5147 12.0343 -19.1271 2.62452 -5.76761 -1.82724
1221 1 1.14707 20.826 -19.7043 -3.29487 1.93756 -2.39397
3765 1 22.8372 46.4408 -3.44179 2.06443 5.91538 -3.47982
759 1 -0.178603 16.0454 -10.9599 -1.9398 3.14807 0.383331
1607 1 13.3135 45.9802 -15.2904 -0.759623 -0.98621 4.22895
1376 1 5.44909 11.2687 -9.09605 -3.70644 -4.30672 1.75199
723 1 23.1776 13.2649 -5.39836 4.86605 1.97721 2.81268
4135 1 0.0902243 27.4283 -2.54151 2.32929 -3.04481 -2.17709
2237 1 -0.183974 46.272 -20.3298 -2.96691 0.920304 -0.83344
871 1 6.81296 11.477 -17.8768 -0.584451 -4.5733 -1.02544
1985 1 2.31738 46.6027 -11 -4.43249 -0.778162 0.340095
1735 1 -0.26629 18.4419 -19.5559 -4.14965 -1.63935 1.13909
656 1 -0.269329 23.0111 -10.9261 -5.08137 5.45299 0.059086
3820 1 21.6335 11.4483 -8.32626 -0.366036 1.04915 2.9514
2220 1 -0.377135 19.6844 -15.9525 -1.76179 3.95556 2.89998
6 1 0.757889 19.0652 18.9459 -0.966532 -3.7614 0.278426
7 1 6.6243 22.8424 8.04648 2.24487 2.00833 2.55959
18 1 18.961 23.9325 0.268556 1.0275 2.82896 -1.16992
25 1 7.70335 25.2837 14.7924 -1.51193 0.554785 2.89091
3865 1 2.80902 46.5847 16.8545 -2.90503 -1.68983 -0.974915
3527 1 0.0516347 15.2749 8.06065 -6.15644 -2.5757 0.608857
740 1 17.9717 11.7437 15.9862 -1.92034 -1.57292 -1.18165
103 1 19.4926 25.4824 19.4925 -0.372912 2.28987 -0.369024
123 1 14.4856 16.1742 6.967 0.0384067 2.60666 -1.90172
138 1 9.41733 16.5502 5.13041 1.77693 -3.18036 -4.00112
147 1 8.25099 20.0421 5.78954 -1.08188 -0.697203 3.01722
175 1 10.3093 15.0779 7.26967 -2.39293 2.00959 2.90864
185 1 19.9066 23.2464 14.6015 -2.23958 3.58177 -4.47738
202 1 11.3542 13.0751 10.9571 -2.69297 2.3222 -0.797203
215 1 9.33256 23.6083 16.2864 0.280823 -1.68982 -0.059146
217 1 4.7899 20.5067 8.26808 1.8717 1.10797 -0.110935
220 1 4.68197 21.533 17.7711 1.65233 1.58113 -4.04707
227 1 16.629 17.6654 3.97101 5.80004 -8.08893 0.450505
262 1 17.9313 16.9776 10.4757 -0.703816 -2.09738 1.11831
281 1 15.3316 21.1493 12.4967 -3.88584 -4.39069 -0.337046
4348 1 11.0487 42.3482 1.21363 2.61225 -0.841318 -1.78034
288 1 17.3971 23.9372 2.66118 5.65779 -3.78719 -0.0204858
49 1 23.3037 12.6313 4.09748 -2.11364 -2.62249 1.75199
328 1 16.0259 22.314 14.877 -2.82773 1.09423 3.8133
2756 1 21.0048 13.2491 19.8538 0.609186 1.89739 -0.798739
3930 1 12.5558 19.5749 1.86199 0.983647 -3.10099 -4.20088
418 1 20.9213 19.6258 5.28189 1.50736 1.7941 0.77736
435 1 0.331923 22.9354 5.58396 -7.17133 -1.85083 1.38326
443 1 17.9415 25.2194 15.3977 -1.3031 -4.57132 1.03398
447 1 6.44698 19.3281 12.5014 0.563482 -6.34963 -2.40532
3911 1 21.7318 20.3871 0.907345 1.63895 5.45924 6.26624
457 1 7.54359 21.8595 17.7125 1.88503 4.04899 7.73331
4324 1 10.0203 37.56 0.495089 -2.39682 -1.07633 -3.90983
463 1 4.67045 15.3378 12.2082 -5.40557 4.13155 3.98638
4300 1 9.47018 32.8098 0.256748 1.17935 -1.94504 -5.34113
487 1 3.48045 24.1031 18.0447 5.45143 2.11756 -0.0449238
566 1 19.812 15.9374 14.4233 -0.321369 5.84136 0.0496413
1353 1 6.13818 20.9903 0.898118 1.15578 -0.100423 -0.950048
627 1 19.8443 12.7162 12.1371 3.98275 0.762883 1.65143
646 1 14.3806 24.5961 14.6387 -2.3931 0.491671 -3.59336
2751 1 9.84127 45.8487 7.71005 2.49428 0.419567 2.73116
671 1 20.6455 15.9078 3.83191 -1.27702 -3.6752 1.80501
715 1 2.47869 16.9716 12.9519 7.29674 -2.12675 2.56855
2033 1 10.2861 15.981 2.27814 0.332705 -1.46963 4.92411
1108 1 14.9654 13.2006 23.3275 -2.62616 0.744703 2.25458
4360 1 10.6427 42.4204 5.9651 4.38042 -2.39753 -0.466982
762 1 6.31618 18.5274 20.6973 -1.19768 -0.586839 1.48724
769 1 13.6944 24.8281 17.2817 2.56159 -4.06117 -2.01292
774 1 16.1531 17.5734 14.6572 -1.0694 5.68839 -0.0186892
805 1 10.4341 26.9961 22.676 0.659553 1.83867 -2.14901
3562 1 17.3344 12.055 0.981318 0.60366 0.472265 -1.32556
820 1 2.16368 13.3681 8.94341 -0.855387 -3.65367 1.80229
829 1 17.3687 14.5609 19.6459 4.53882 -0.261849 1.06333
870 1 16.4896 17.8862 18.8884 -0.262247 -0.900641 1.35482
875 1 21.6986 14.6419 8.15724 2.66592 0.101986 4.73697
880 1 3.41385 15.8829 21.069 -0.472479 0.40987 1.55032
1430 1 1.98216 19.9353 7.90738 1.81586 6.27167 2.29385
927 1 9.84058 14.3915 18.4345 -0.883547 -1.53029 -0.663125
936 1 8.69328 12.3871 11.8213 1.60813 1.47655 1.99599
3637 1 0.574999 12.8151 20.1695 -1.3134 -1.03816 -3.08338
958 1 1.74362 14.3791 15.7346 4.24019 -0.878047 -1.70047
980 1 4.02667 20.2306 11.1038 2.67247 1.07714 1.91688
1726 1 17.0281 24.2352 22.7048 0.753666 0.81539 -4.0965
1019 1 6.52722 16.1185 5.63082 2.34869 5.82614 0.250761
1050 1 17.9485 20.0413 17.4781 -0.390926 0.401182 -2.05203
3836 1 19.5829 13.8405 0.177249 1.86188 -2.72772 -0.77264
1097 1 16.6876 26.1454 13.2162 -3.11579 1.65629 2.88981
4357 1 5.3516 42.9629 5.37798 2.8824 -2.91163 -3.6139
1845 1 21.3499 21.3204 23.6506 0.62132 4.41146 0.60574
2940 1 15.6216 17.459 1.31535 -0.815231 -1.53089 0.8424
2416 1 6.4387 12.9442 10.2211 3.86417 2.52 -1.68359
1142 1 7.56541 14.1289 7.65 -4.48193 0.665174 0.668559
1145 1 4.11 20.3926 20.5887 0.907877 1.2967 -1.91
1146 1 10.7539 18.3459 19.3641 -3.29054 8.8022 4.8132
1170 1 2.63782 13.3227 11.5181 3.33698 -1.11133 0.242784
1184 1 5.66742 22.4664 22.0402 -2.27775 -6.33219 4.0889
1189 1 11.2689 14.1059 4.32941 4.1486 -1.27306 -2.90335
1222 1 20.1542 23.0029 11.909 2.82602 1.04842 -3.86613
1234 1 15.6607 11.9021 6.91776 1.91342 -0.292451 -1.89792
1235 1 9.94213 20.8407 2.10483 2.64012 4.67879 -5.53648
1297 1 15.6838 14.4581 14.0827 4.8585 -2.28725 -5.87244
2215 1 8.78956 17.3912 0.0911202 -2.98401 1.60321 -1.11536
2281 1 18.887 12.52 22.9542 4.39601 -1.89099 4.56322
2887 1 23.4936 18.385 20.0475 1.05834 0.22344 -0.269426
1352 1 7.26589 25.1706 19.24 0.0253852 1.2909 5.76859
1362 1 19.7298 22.3421 9.04873 -3.74893 -4.40254 -3.12727
1381 1 18.0919 14.9335 12.5379 2.00514 -3.50595 0.60966
1414 1 5.0694 21.9574 5.44753 -3.88489 -0.240407 -1.05705
2146 1 3.87881 11.4824 17.8207 3.58247 -4.13656 -0.705708
1468 1 17.6528 26.3508 17.8224 -4.54139 -1.73148 1.69196
360 1 5.30319 14.6427 1.91404 0.098967 -2.94622 -6.47464
452 1 21.9069 15.2878 1.16777 3.55203 1.16002 1.60401
1528 1 9.00326 14.8109 16.0157 0.0286195 -0.190018 1.86126
1530 1 17.9336 13.6479 6.01795 -3.71035 6.47484 3.7254
1533 1 13.2416 19.2849 11.8954 -0.283521 3.57337 0.865138
1538 1 6.17251 17.67 17.8661 2.87871 6.05469 2.0272
1559 1 21.5219 16.8317 6.38894 3.86818 1.06786 3.43184
1569 1 6.53772 12.0635 2.45223 0.812508 1.06916 2.17105
2291 1 1.12151 23.9245 21.9126 2.21545 0.993475 -2.09734
1598 1 1.14745 12.6868 3.34421 -4.26517 -8.32579 2.19375
1618 1 11.4922 15.4838 14.6113 -2.53969 -1.39775 -3.19091
1619 1 16.2137 13.8826 16.9635 0.635423 -0.470381 -2.93646
4359 1 9.64614 44.7902 5.05923 -1.51362 -0.490266 1.03545
1639 1 13.6164 14.9545 18.3001 4.16216 4.2695 1.78055
1684 1 6.50463 15.9801 15.3502 1.2289 4.50391 2.11653
1713 1 22.0518 14.7755 12.8386 -4.17359 -0.437827 -2.83943
1715 1 13.8249 20.7976 16.3037 -6.77413 0.181021 -0.695866
2235 1 9.02651 46.157 12.813 -3.53259 -0.585912 0.534409
1740 1 1.8352 22.0045 19.4266 -0.806433 1.50491 0.80465
26 1 -0.401708 19.0408 11.5323 0.90978 2.48155 -1.90243
1750 1 16.2331 24.742 10.6504 -3.25118 -0.250889 3.01372
1762 1 1.49394 21.0595 2.55403 3.37325 -2.61241 -5.00753
1767 1 11.1546 24.8316 18.3046 3.57911 -2.88402 -2.11586
4276 1 9.09862 28.4219 0.401665 1.00852 1.82549 5.45614
1773 1 19.2766 17.9612 7.65407 -0.53673 4.82433 0.416135
1797 1 2.10818 17.3991 16.017 0.0426295 2.82986 -5.37874
1633 1 16.9972 15.1171 22.527 0.133091 -3.1299 0.574638
1821 1 18.7067 25.5268 11.4617 2.78693 -3.20533 0.703801
1829 1 3.57108 16.251 5.90126 -1.26377 6.30797 -0.129323
1835 1 5.75026 25.3094 16.777 0.870453 1.25518 -1.97096
282 1 13.61 12.5568 12.9055 -3.10795 0.586993 -0.451219
1839 1 18.7532 23.7494 5.41873 5.22546 -1.30209 -4.50981
1866 1 8.06141 21.8599 12.3186 4.90708 -1.90968 -7.00979
1884 1 17.2033 15.7062 8.02039 0.517941 1.03897 -1.57873
1886 1 19.4363 24.8914 7.7445 -0.106552 -4.36159 -0.558811
1922 1 10.5956 15.8818 20.7101 3.69629 4.24422 0.0789196
1929 1 6.12727 17.2014 2.86988 -0.457926 3.94866 0.849653
1957 1 15.5131 18.7488 10.0064 3.13087 1.62262 -2.05056
1878 1 21.7718 23.3269 1.3939 3.75197 0.523253 1.11053
1988 1 6.57814 18.4041 7.38335 -1.71962 -4.3742 1.54107
1992 1 11.2063 21.7568 4.71543 -2.20933 2.77751 1.38271
1997 1 20.9776 25.7722 9.86131 1.43202 -3.95377 -0.34082
1115 1 20.212 22.7183 20.9038 -0.708655 -2.0064 2.93653
2022 1 16.783 25.7173 8.27041 2.36555 -6.48343 0.858103
2026 1 8.45702 20.8148 9.65529 -3.0719 -0.915583 -4.69252
2055 1 3.19313 15.9898 8.57721 -1.18855 -1.00982 1.28626
2084 1 14.6251 20.3042 21.9884 5.11987 -2.75889 -0.598184
2088 1 7.97708 22.6324 20.3031 -1.87683 -2.04889 -0.12363
2886 1 12.1822 24.1895 1.46168 0.792419 -1.63936 1.92103
2134 1 12.0943 20.8168 7.45985 -5.02556 -5.91158 -2.90799
1591 1 13.1409 14.1397 2.01525 -1.83478 0.656225 1.89433
2177 1 19.4074 16.4628 19.3076 3.52702 -1.53708 -2.79551
2197 1 15.2102 22.6954 20.66 -7.42812 3.94511 2.13889
2240 1 14.5747 18.1573 16.8041 1.40909 1.41641 -2.44505
2254 1 3.44685 20.7932 15.186 -0.263524 1.6292 -1.89303
307 1 10.8465 12.765 22.7296 -0.593502 0.499679 2.64412
2287 1 21.8407 17.7006 15.2152 4.77889 4.11697 -2.32254
4356 1 11.7248 42.1069 8.42877 -1.36698 4.63766 -3.01268
2631 1 17.9543 16.0942 0.461782 -5.36974 1.65052 1.09779
2304 1 11.3399 12.3057 7.94929 -2.91692 -0.121963 -0.513592
2309 1 19.5896 18.0544 21.6269 0.537201 -2.26696 0.568683
2343 1 9.27395 23.3404 1.64891 1.39154 0.271464 -4.92705
2344 1 12.882 24.4479 4.13193 0.716967 4.8522 0.871489
2360 1 14.0448 18.3375 5.14468 0.461395 -1.11878 0.496993
2367 1 7.56249 17.9353 9.88866 -2.0412 5.2237 -2.06094
4355 1 11.9987 44.8867 9.15122 0.201514 -3.10612 1.49683
2375 1 10.4165 22.5365 13.9382 0.137816 -3.39055 -0.238545
2388 1 9.65424 26.609 19.9176 1.67931 2.57382 -1.5628
2395 1 3.50505 18.9758 18.1466 1.30679 -4.05744 1.64859
1313 1 17.2856 18.2729 23.4677 2.03595 4.05343 -2.97337
2412 1 10.3708 18.3155 15.4342 -2.7835 4.4978 0.757647
3251 1 0.974784 19.3104 13.9828 -0.563695 -2.48108 1.98369
2423 1 10.9262 18.9347 5.57242 0.0159653 4.95369 -3.94019
2444 1 13.3019 22.1755 18.6839 5.04253 -4.59418 2.10512
2456 1 17.3784 19.8532 21.0996 -0.486357 3.14992 -1.8617
4354 1 7.20772 45.3122 8.71739 3.45805 3.12842 -0.173646
3818 1 12.0195 20.7198 23.6165 2.02497 -1.86878 -1.47956
2500 1 8.84784 22.8604 6.2031 -0.325129 1.42025 -0.00247646
2501 1 6.19863 13.2405 5.05738 0.899934 1.13796 2.62066
2993 1 21.4599 18.1535 17.914 0.0825467 0.877969 -3.03324
2553 1 0.861383 23.321 17.0693 5.19363 -4.39294 0.539354
2565 1 13.9381 16.4882 13.1737 0.819668 -3.56846 1.23668
1939 1 11.8453 11.4243 1.76583 -3.66933 -0.995478 1.39666
284 1 -0.0709342 14.8427 1.35891 -2.53761 -2.21313 -2.14041
2582 1 12.6703 23.3876 8.07185 -0.372101 -1.22122 -2.1023
4358 1 6.79528 45.3414 6.06457 -2.5395 -3.45699 2.31645
1672 1 4.66195 11.6246 22.8051 -1.30368 5.08731 1.18739
2606 1 14.9261 16.0254 20.4764 2.35619 4.31266 -3.63352
2627 1 14.8782 24.4122 6.75502 2.08991 6.09132 -1.83391
572 1 11.3801 46.8155 3.56701 -5.57581 1.59524 0.881059
2671 1 10.9365 23.012 20.7417 -4.15463 -6.06882 -1.23525
2712 1 17.8604 14.8567 3.60267 0.854984 3.25937 1.53724
2716 1 15.668 13.399 2.65206 1.41507 2.32399 0.16094
2717 1 11.1189 19.4808 9.82346 -2.74288 1.2886 -1.64945
2736 1 12.7916 14.919 22.1773 0.501735 2.52806 -1.98599
379 1 20.8216 22.2797 4.14977 -2.9463 3.57798 -1.20125
2773 1 7.24982 23.1332 3.84462 -0.418292 -0.943177 -4.39847
2779 1 20.4946 13.3326 15.6124 -3.46739 1.86852 -0.755994
2781 1 13.9173 23.0919 10.9663 1.21928 -2.79325 0.704393
2801 1 2.2811 18.3256 10.3801 -2.1819 1.8153 -0.139565
725 1 -0.112962 18.8665 21.8893 -2.62784 -4.15736 2.60588
2844 1 22.1407 16.0494 10.4118 2.96264 2.68022 3.79556
4353 1 6.39024 42.9234 9.9551 -0.872008 -2.71291 -2.12879
2879 1 1.67237 18.2317 2.29413 1.8033 4.91925 3.03739
413 1 23.432 23.661 4.96141 2.35858 1.05653 -2.72262
1474 1 1.68842 28.0671 21.5734 3.33143 2.46586 -1.88144
2932 1 8.68152 19.2105 17.5775 -2.67428 -6.36616 3.28756
3641 1 5.57478 15.2709 19.1099 0.22105 -2.45761 -5.42299
3001 1 13.4105 13.6236 6.40191 -5.8729 1.64108 3.924
3003 1 16.5038 14.409 10.3345 0.282835 1.15497 -1.79681
3035 1 19.3127 18.3223 3.43042 0.761876 -1.84618 -1.22599
3036 1 12.0889 20.3826 20.526 0.208897 5.40082 -3.32203
3047 1 3.80933 18.6045 4.25215 -0.677849 3.24682 -0.717314
3086 1 13.7202 21.8287 2.90839 -5.33797 5.58997 0.818804
3123 1 13.7527 14.676 10.9595 0.110916 -0.196595 -2.17506
3154 1 6.28172 20.1331 3.74126 1.50065 3.2725 -0.118365
3170 1 5.40804 25.3024 21.5269 -5.06734 -4.97353 -1.0903
3173 1 10.0799 16.7015 9.51384 0.147082 3.77227 3.17417
3178 1 17.1508 18.9255 12.5712 3.975 2.13612 0.420588
3236 1 17.4455 22.0066 10.8481 5.42261 1.10339 -2.74944
3243 1 8.75724 19.6506 20.9173 -0.701277 5.97009 -0.724211
458 1 20.5723 20.7976 18.2224 0.176193 1.19991 1.64814
3253 1 8.56789 18.3313 3.06429 -2.28881 0.471645 -0.874916
3259 1 16.0536 20.5703 4.12417 -3.04306 -0.281376 0.0353218
3280 1 9.88319 15.318 12.0832 -2.33721 -3.92598 1.47266
2137 1 14.6118 17.7881 23.0783 1.36273 -1.04047 -1.15124
3310 1 16.622 22.2468 6.17841 4.74035 2.40018 2.83474
3338 1 11.9702 20.3174 14.3671 -4.59294 -3.0957 -0.872263
3352 1 3.43087 13.6631 4.24429 3.3654 -0.639532 1.92563
3380 1 0.904534 16.4455 20.1335 4.1214 -2.19959 -4.00899
3418 1 19.8535 18.606 13.3591 3.59092 3.3424 7.89906
4210 1 -0.32851 40.422 9.61783 -2.33575 2.60961 -0.856353
3467 1 11.4972 12.4873 15.4133 -1.58959 0.528178 -2.37185
1405 1 18.4447 21.8639 23.0085 3.49815 -3.49325 4.08808
1979 1 0.538949 23.5675 12.0164 -0.201138 2.18576 -4.99265
1588 1 2.44729 19.6083 23.0306 -0.706853 -4.42391 0.407827
3486 1 15.2047 26.5827 18.7323 -1.69516 6.92778 1.06364
3493 1 4.38416 14.0709 16.6275 0.159407 -5.42945 -4.74918
3537 1 22.4887 25.6116 18.9021 -4.32683 -3.07069 -3.18077
3545 1 4.80826 18.4876 14.7298 -0.998118 1.96089 0.695174
3552 1 14.877 20.0805 7.51274 6.18243 -3.97021 -0.261669
3570 1 12.4794 24.9889 22.5534 -2.35002 6.18044 3.82505
3571 1 1.30198 22.6892 8.24884 -0.364678 -0.98577 0.472775
1896 1 15.5675 22.629 0.818728 3.7488 1.31069 -2.52736
3605 1 18.3698 20.8794 14.8161 3.9446 -0.0594244 4.3699
3613 1 0.983607 22.152 14.4744 -0.285233 0.248193 -1.99502
2583 1 5.92364 18.2103 0.0420479 -1.22012 -2.25814 0.83618
497 1 9.59529 19.2426 23.4763 -1.1202 -3.41648 -2.77528
2450 1 7.77473 13.5177 20.0851 -3.05361 3.58667 0.669598
3522 1 21.4202 19.9727 21.0441 3.78482 -1.20673 -0.326078
3664 1 8.08909 17.499 13.6563 -4.44868 0.308604 0.110314
3313 1 17.2562 11.9344 9.48363 -3.4985 1.2569 1.52461
3713 1 2.55968 20.9106 5.21739 -0.938784 0.695154 -1.42994
3715 1 17.7097 22.3075 19.4605 1.51979 2.71093 2.33469
3720 1 17.9517 16.4572 16.6037 -0.495139 -4.3079 1.65762
3732 1 17.6924 20.3306 8.28902 3.51241 -2.6361 -1.36023
2770 1 20.4189 12.9931 4.48417 0.700463 7.10396 -0.358925
3760 1 15.7848 25.4594 4.26932 0.318641 -1.21943 0.0384147
3783 1 18.3571 21.1058 2.87946 -1.82073 1.26259 2.4849
3788 1 5.81987 15.6447 9.6709 0.07475 -3.16135 -1.66334
3795 1 14.8025 25.4928 21.4335 -0.362116 -4.05406 -3.64174
3804 1 13.1603 17.1129 9.46912 0.529588 -1.48143 3.04702
203 1 22.2101 21.2718 7.72308 -0.20181 -2.88348 -3.63704
3819 1 3.49609 22.6336 12.6683 -3.00271 -5.21996 0.425574
1133 1 11.9609 12.6045 18.1937 2.39777 -3.41796 -3.74553
1162 1 9.20506 11.7476 1.20936 -0.343012 -1.73887 -3.92125
3859 1 20.6912 18.2417 10.3863 1.20753 1.63116 -0.0648118
3885 1 12.1951 24.2392 12.9122 -0.404881 1.32082 -0.0834506
2576 1 23.2196 20.2525 14.9124 0.309338 4.27618 -2.50898
3897 1 8.17814 15.319 22.3113 -2.57015 3.21621 -3.8871
399 1 13.0969 16.9459 2.84094 -3.12216 1.01862 3.07063
3974 1 6.05866 24.0294 12.6898 0.560813 -3.48585 0.109865
3987 1 12.0048 16.8849 17.2955 -0.42034 -1.78677 0.303624
4131 1 0.218113 27.3767 1.89906 1.65213 -5.33791 -0.203216
4132 1 0.880082 24.7107 1.38868 -0.773859 0.397838 0.728469
4139 1 1.51378 26.6465 8.72126 -5.41878 -1.25816 -3.35194
4140 1 2.53261 24.4045 10.2572 -0.902003 -0.813509 -0.274841
4143 1 0.19178 27.4994 4.6663 -3.55172 0.581547 1.35306
4144 1 1.74103 25.4238 5.849 -3.22804 3.42148 -0.961752
4155 1 0.618629 31.7762 2.26909 -2.51257 -2.91811 2.32692
4156 1 1.68374 29.6416 1.14369 -2.34968 7.47224 -1.89661
4163 1 1.07007 31.8728 9.97016 1.47379 2.66863 -2.67681
4164 1 2.24178 29.5148 8.4743 -4.03177 4.3575 1.83993
4167 1 0.794564 31.6037 4.9481 -1.37732 -2.47354 1.55473
4168 1 2.10541 29.1168 5.51534 -0.684732 -1.83412 -2.68521
4179 1 1.1042 36.117 2.40743 1.05177 2.15332 -0.278244
4180 1 2.1186 33.8292 1.32862 -8.21556 -2.09074 -0.910651
4187 1 1.73534 36.1823 9.61029 -0.770639 -0.611262 -0.581563
4188 1 2.57848 33.8315 8.56567 0.67406 2.28477 -2.37764
4191 1 1.43268 36.1629 5.2519 -1.36205 -5.67567 -3.05935
4192 1 2.44859 33.7132 5.8158 5.05987 -2.73453 1.38583
4203 1 1.48401 40.5707 2.54682 -2.84106 -0.61193 -1.27951
4204 1 2.44426 38.2357 1.42947 0.282017 1.95241 3.11276
4211 1 2.43337 40.6444 10.1676 0.344564 4.66808 -2.4448
4212 1 3.19814 38.4304 8.96158 2.03342 1.68597 -0.669102
4215 1 1.72469 40.3362 5.34756 0.305626 -4.01525 -2.77424
4216 1 3.17764 38.1584 6.22627 0.399519 6.39882 -2.97573
4227 1 1.38643 45.1672 2.75505 0.285321 1.72545 0.733056
4228 1 2.65558 43.1222 1.50836 -0.343344 -1.42301 1.88261
4235 1 2.36318 44.9376 10.7373 2.10556 -1.66632 3.73082
4236 1 3.38237 42.8672 9.37381 -0.827298 0.450399 -3.7092
4239 1 1.79656 45.1657 5.48635 -3.62477 0.0449371 0.488082
4240 1 2.80949 42.8134 6.49302 1.80083 -3.97369 3.11463
4249 1 3.41679 24.8433 2.22057 0.861471 1.27419 -2.90367
4250 1 5.32159 26.6201 0.97599 3.78829 0.817467 -1.41184
4251 1 8.05891 26.009 1.72156 -1.18748 -2.7894 0.120078
3484 1 3.94688 12.5203 6.87538 6.47412 1.63811 -0.769082
4257 1 5.48004 24.6852 10.1177 -2.08425 2.70004 2.53641
4258 1 6.23286 26.893 8.70662 -4.33536 0.950691 0.742731
4259 1 9.14373 26.7854 8.96298 0.699715 0.109543 1.13911
4260 1 10.5133 24.7442 7.51131 -7.88669 -1.08721 -2.51501
4261 1 4.2013 24.6474 4.8244 1.75721 0.93887 -1.01563
4262 1 5.76438 26.6747 5.91771 -4.48079 -0.696729 -0.427031
4263 1 7.88616 25.7368 4.49223 4.55973 -4.49414 0.191044
4264 1 10.7431 25.9974 5.06095 -2.95568 0.848773 1.92331
4273 1 4.42625 29.2335 2.00473 -0.692282 -5.25676 2.61764
4274 1 5.99124 31.0851 0.606354 -0.326438 -1.08046 3.79828
4275 1 8.44933 30.7768 1.78769 -2.01567 2.28887 -1.37096
1854 1 4.20981 46.5547 12.1078 -3.07005 3.54427 -0.77847
4281 1 4.93168 29.3732 9.40673 -1.35432 -4.27258 1.04328
4282 1 6.63265 31.5207 8.59677 -2.77113 -0.799588 0.1477
4283 1 9.21858 31.2012 9.23038 0.517581 -1.07027 3.52107
4284 1 10.3609 29.0105 7.90287 1.21951 -0.096367 -0.237473
4285 1 4.72272 29.055 4.81057 2.62372 -2.46907 2.24013
4286 1 6.25868 31.1225 5.80958 -3.07108 1.5577 2.2797
4287 1 8.8788 30.9084 4.4707 -2.39532 -1.195 0.360308
4288 1 10.4511 28.5723 5.23143 -3.69808 1.24133 0.0111477
4297 1 4.97107 33.4378 1.93702 -3.25427 -0.718402 4.99278
4298 1 5.99577 35.8667 0.967119 3.24478 0.0296329 -1.48352
4299 1 8.77985 35.2557 1.58347 -4.21317 0.650418 -3.49184
2209 1 22.5493 24.0293 21.3942 7.58763 2.01757 1.90381
4305 1 5.22762 33.7443 9.38259 -1.6202 -1.25227 -1.11857
4306 1 6.8827 35.877 8.60582 -2.4914 -1.34785 -7.15033
4307 1 9.47937 35.4262 9.03444 -2.42019 3.35367 0.563967
4308 1 10.5256 33.2254 8.06394 1.07396 -0.171239 -1.0774
4309 1 5.05132 33.5387 4.82814 -2.30449 0.172557 -1.87522
4310 1 6.59667 35.6947 5.79265 -1.51625 -1.00072 -0.0123398
4311 1 9.27636 35.7338 4.40554 4.74775 2.7627 0.768696
4312 1 10.0283 33.2562 5.37645 0.268067 1.31416 3.0146
4321 1 5.08365 37.9273 2.25498 -2.14504 0.293275 1.61877
4322 1 6.58406 40.5093 1.35166 8.84339 2.11232 -4.50484
4323 1 9.28185 40.1231 1.65869 0.357948 -2.18314 1.59126
3703 1 20.0716 15.0802 22.1663 0.325987 -0.295547 -2.19944
4329 1 5.99866 38.4232 9.075 2.69821 3.56936 -4.50903
4330 1 7.33077 40.6609 8.47823 1.04258 1.32106 2.88622
4331 1 9.84571 40.2304 9.34283 -0.515033 0.226665 4.37977
4332 1 10.7474 37.8 8.22273 -0.836291 1.18527 1.34812
4333 1 5.74112 38.3396 4.95483 -1.09993 0.727319 -3.46884
4334 1 6.92931 40.8471 5.63224 2.07032 -1.41677 -2.0964
4335 1 9.48622 40.3301 4.43013 0.247164 -0.33174 -0.653268
4336 1 10.4857 37.9451 5.43555 0.396351 1.16819 4.1272
4345 1 5.31858 42.5053 2.55756 1.66559 -1.11513 1.17664
4346 1 6.66582 44.7742 1.58044 -3.14039 -1.20799 2.40099
4347 1 9.47063 44.3218 2.19451 -5.60095 0.540613 -0.599595
633 1 7.20028 11.4399 23.8102 2.946 1.47186 -1.80451
1823 1 6.62836 45.3141 11.6261 -1.98395 4.10265 3.3784
1328 1 8.51359 11.4202 7.03276 -2.17569 0.468275 -1.34647
937 1 0.231786 14.4954 18.1529 3.34191 4.79484 2.28741
383 1 11.4972 45.8767 11.6648 4.3431 1.17159 -5.72727
4234 1 -0.270892 45.3665 9.60725 0.0881686 0.438302 2.83337
3837 1 9.10365 12.3434 4.17593 -0.478138 -3.18591 -0.898548
801 1 19.5428 18.4066 0.558723 -0.114693 1.80666 0.588715
2409 1 5.87738 13.4737 14.0412 3.11888 0.565817 -5.57933
749 1 0.54119 16.6942 5.65405 -1.49997 -0.0993998 3.70274
3346 1 11.2072 46.2191 0.787218 -0.889297 2.22827 -0.544032
2019 1 2.81453 25.6933 20.3748 1.11297 -2.26091 0.948933
3230 1 22.6241 13.3653 22.1489 2.93301 5.91465 2.07727
84 1 19.7212 25.2524 22.3988 -1.65767 3.53591 0.442196
3457 1 18.1472 11.9493 20.0884 -0.765309 -2.20815 -2.89011
180 1 21.9071 20.8102 10.5634 -2.12111 2.01631 2.491
3334 1 21.8241 22.3387 16.3996 -2.46022 -2.37615 0.323572
1759 1 20.0585 12.5301 9.41468 -4.21608 -2.4407 -0.458544
2487 1 2.57312 15.9736 1.09535 -0.458675 -1.35466 1.63118
894 1 3.66135 13.1419 20.4505 2.81086 -0.378254 0.711364
2824 1 8.57531 12.5042 14.6239 3.05902 0.39668 0.890603
819 1 12.9437 11.5873 20.896 -2.52654 2.86503 -1.79802
794 1 6.19078 17.1309 23.2498 1.44831 1.03042 0.0837948
3476 1 0.558347 14.7554 13.2266 -4.99867 6.30353 -2.36362
72 1 21.4334 15.1462 17.6632 -2.35009 1.24157 -0.902257
310 1 0.747362 11.6608 13.0532 -0.40866 -1.00923 2.70877
2865 1 1.28439 12.5432 0.301927 -3.12227 4.25147 -3.03432
1826 1 21.6051 12.3348 1.72826 2.40995 -0.599988 -1.16383
1069 1 22.3063 16.1829 23.8903 1.8183 -1.57582 -3.98183
1004 1 23.5058 25.3259 9.56931 0.674525 4.99509 2.54486
2600 1 3.72711 22.3048 1.16764 -1.2311 4.8835 1.63629
150 1 22.2219 11.6429 17.574 1.72269 0.823766 -3.31575
978 1 3.53134 17.0337 23.7003 1.70278 -0.903849 -3.93697
2908 1 1.52003 11.6034 15.9867 -5.45533 3.23074 -2.12825
2861 1 15.6853 11.3041 21.1324 3.10001 -1.42352 2.03668
743 1 23.3113 19.6952 3.49656 3.73553 -0.126714 -0.135566
1597 1 15.7734 46.9104 5.82443 -0.465152 -1.04266 -3.78366
473 1 4.74926 11.3723 12.0984 -0.415862 -0.709208 -0.307692
2967 1 0.265303 11.3658 8.45108 1.70645 -0.987807 4.21895
1099 1 15.8783 11.3464 14.2979 -1.74652 -0.87023 4.71297
2191 1 12.9968 11.3866 4.44201 -1.48041 0.600859 -3.45244
3199 1 13.6673 46.5743 7.74393 -3.24749 4.93202 3.64737
1518 1 0.50063 13.8272 22.5593 -1.99383 -2.33015 2.94735
3304 1 -0.339339 18.7471 16.4491 4.42627 -2.66083 -1.78874
82 1 6.71538 46.7152 3.60276 -1.26559 -4.64716 -6.2407
1838 1 15.7009 19.8683 0.128279 4.60358 1.56978 3.86645
1776 1 9.32853 14.2166 0.175106 -0.988107 -3.15834 7.76378
