ITEM: TIMESTEP
8900
ITEM: NUMBER OF ATOMS
4360
ITEM: BOX BOUNDS pp pp pp
-2.4398418474594074e+01 2.3589254374656797e+01
-2.4487701629607230e+01 4.7004137229607224e+01
-2.3997936288486926e+01 2.3989734688549618e+01
ITEM: ATOMS id type x y z vx vy vz
555 1 -12.3767 -12.6716 -3.37586 -5.96744 4.42754 -5.01941
15 1 -3.99716 2.30671 -12.6248 -1.06865 -0.836811 -4.66393
22 1 -13.0196 0.441804 -16.888 4.10463 -1.49158 3.30241
3756 1 -12.0803 -24.1444 -18.6956 1.47817 1.92351 0.437078
29 1 -5.24066 -9.82715 -8.15177 -2.26602 -1.52454 -5.05025
37 1 -12.1283 -8.33941 -2.97137 1.6336 -1.43299 2.09542
3378 1 -3.57753 -18.4521 -1.03074 -1.50683 -2.80133 6.31138
44 1 -3.6264 -17.5876 -4.03003 -2.05258 0.508687 1.00292
54 1 -17.5116 -12.7567 -11.1119 -5.79276 -5.77835 3.95649
55 1 -4.47744 -8.42804 -12.5793 4.25013 -1.01331 1.13686
57 1 -15.6821 -10.499 -4.67824 0.749545 -0.708108 3.39482
66 1 -11.3831 -17.4037 -15.6515 4.93407 -0.125902 3.7076
75 1 -18.3768 3.84141 -8.51095 -3.34259 -6.05051 1.26639
3231 1 -17.7278 -16.5415 -0.125888 -4.82091 -2.62916 4.00483
97 1 -6.34765 -12.7675 -19.733 -1.2476 2.95005 1.4224
3038 1 -19.8793 -23.4929 -17.5378 0.134759 -1.99595 -0.113186
1307 1 -16.3992 -22.4492 -5.09942 1.28312 1.50018 2.02818
112 1 -14.8696 0.603969 -19.6431 -2.94788 1.61227 0.410563
126 1 -9.03738 -1.89043 -8.39938 4.64854 0.100019 -2.19199
128 1 -18.0263 -0.904635 -8.88361 0.43198 0.908924 1.1133
132 1 -9.64915 -5.03275 -20.9307 3.75513 0.210488 2.45986
135 1 -14.7472 -5.61806 -20.4661 -0.777828 3.60502 -0.131807
2405 1 -3.39636 -12.1407 -23.6179 0.0971264 -4.90739 3.72152
137 1 -9.98798 4.58426 -14.002 -4.70058 1.945 -2.64622
139 1 -18.1307 -18.2014 -15.668 0.231194 3.02906 -4.65524
143 1 -4.42702 -2.95467 -5.28411 1.4561 -3.96356 5.11143
1550 1 -1.86822 -7.54411 -11.6583 -3.2902 -2.48137 0.951321
149 1 -18.171 -21.6493 -18.9151 2.12473 -1.14578 5.18208
160 1 -6.42421 -15.0604 -1.91553 1.73269 -0.841666 -1.0881
167 1 -13.0603 2.56586 -2.26157 -1.31867 -0.979348 -0.755211
170 1 -6.39111 -13.703 -13.379 -1.37882 0.203712 -3.94842
174 1 -13.7085 6.02191 -21.0018 1.65141 -0.320712 2.79735
179 1 -6.38316 -7.56069 -10.1659 6.57305 1.62465 5.04976
181 1 -2.65925 -0.398953 -19.1277 -0.158166 2.97951 4.49385
187 1 -11.605 10.7303 -8.2899 2.60098 -1.93464 -5.83039
2130 1 -24.1783 7.98762 -8.60973 3.97831 1.42074 -2.6394
198 1 -8.29695 -22.031 -19.2236 -2.68766 0.473955 -3.06946
1302 1 -6.97992 -5.81313 -21.7795 3.21805 0.0208678 0.0335088
204 1 -7.04155 -15.6306 -7.74864 4.55377 -0.157684 -4.04199
206 1 -5.3122 -16.6952 -20.0144 1.76041 3.60272 -1.59328
3662 1 -3.48743 -1.62566 -23.7015 4.9902 2.45315 5.64395
213 1 -21.4892 -20.784 -3.40631 0.502598 4.42727 0.030584
221 1 -14.93 4.52876 -1.90418 0.0483846 -3.64415 -1.0158
1840 1 -20.618 -12.8128 -1.68737 -1.91355 2.67329 0.305027
235 1 -21.9725 -1.42618 -7.56749 1.11939 5.31756 1.29333
242 1 -7.72909 -5.12917 -11.1354 -1.62639 -3.09577 -0.0683343
248 1 -17.2976 5.12204 -12.4088 6.51737 0.579796 -0.844701
251 1 -19.123 0.667888 -21.8996 1.27533 -0.632278 -0.296763
253 1 -5.12718 -4.10268 -20.6437 2.19419 1.43411 -2.61151
256 1 -10.4163 -6.00394 -10.2337 4.50115 1.35642 0.28231
681 1 -0.484325 0.0162226 -5.98354 -0.71632 -0.155538 -0.608391
258 1 -6.15692 -1.09651 -8.34187 0.610309 6.87605 0.375232
263 1 -22.4299 9.09015 -6.34657 5.34906 0.404704 -0.183031
269 1 -18.9918 -7.41551 -17.0973 6.14136 -6.11145 3.44094
1804 1 -3.21509 -24.4701 -12.7027 2.01804 1.44258 4.82322
280 1 -2.42067 -20.8178 -10.0471 -2.07467 4.31171 -0.566099
283 1 -2.5155 -23.8479 -19.7932 0.967135 -3.62236 -1.45355
290 1 -3.14013 -13.9561 -16.2533 -3.25999 0.941124 5.72356
1011 1 -16.8594 3.23875 -0.21385 1.8354 1.03464 -1.76184
303 1 -21.7249 -18.8426 -7.35906 -2.43614 -0.643073 3.65028
312 1 -7.48367 2.49935 -6.83673 4.22535 5.04503 -1.49299
313 1 -16.949 -17.3331 -13.1149 0.787984 5.49659 4.26013
314 1 -13.119 5.46197 -8.15974 2.8449 -1.06588 -7.05504
842 1 -5.7676 -22.8121 -1.12573 -4.28389 -1.78206 5.72913
321 1 -19.4576 -12.9402 -15.0576 0.16344 -4.30033 1.81917
1409 1 -1.24817 5.01675 -23.9787 -0.179334 -1.61298 -4.66575
339 1 -3.85127 -14.267 -20.6232 2.06984 5.16259 0.0597978
340 1 -14.422 4.44752 -16.0976 0.0519138 0.0662919 4.78938
341 1 -9.80926 1.92739 -13.249 3.29754 2.64266 -1.45288
1634 1 -17.5528 -8.3697 -23.1477 -4.21128 7.97406 -4.05857
343 1 -3.36997 -15.0473 -5.53504 -2.57346 -0.391045 -1.95554
356 1 -1.06661 -21.4261 -20.5152 0.312726 2.95088 -0.020207
359 1 -14.3586 -21.0475 -10.7795 0.841373 2.72638 0.452065
3196 1 -2.04624 -1.06205 -2.24375 -4.2728 5.32085 -1.28525
364 1 -11.1871 3.93874 -9.33019 1.54451 1.70213 -1.75769
366 1 -22.1887 1.27291 -8.44453 -3.94323 5.91005 -2.60543
376 1 -1.54422 -15.4504 -14.5044 -0.235941 1.61253 1.95502
471 1 -22.9158 -9.56289 -16.167 -2.16267 -0.0720175 -3.92333
393 1 -9.94998 -18.6602 -8.47369 0.966818 -0.874163 1.86574
222 1 -11.5841 -5.82752 -1.85491 -0.749027 -1.85536 -3.08716
1727 1 -24.3652 0.719265 -19.7406 -1.83335 1.55457 -0.607447
191 1 -2.30919 -5.17203 -20.2631 2.02369 -0.716704 -2.18488
970 1 -2.7955 -22.3935 -7.3726 -4.2912 2.57996 4.74097
415 1 -16.0538 6.24372 -7.65245 -0.544909 -0.370559 -2.08611
444 1 -23.4646 9.63531 -16.5906 -0.878457 -2.49312 1.25294
426 1 -16.8074 -4.3053 -8.56612 2.16446 3.61761 -1.16925
429 1 -6.56087 9.29585 -12.2227 1.45293 0.336627 -0.209212
433 1 -18.7324 2.86028 -16.4885 3.26068 2.36766 -0.67432
434 1 -11.553 -1.94191 -11.8058 -5.38437 5.65594 1.04146
436 1 -15.128 -8.35696 -12.1511 2.49755 -3.23261 2.45875
438 1 -18.9603 6.906 -3.65104 -1.37795 -1.8186 -9.111
2370 1 -23.6002 -10.5364 -9.3664 1.34559 -0.0391871 -0.897539
454 1 -6.60475 -3.3468 -15.1871 2.7639 0.95882 -0.0193448
470 1 -19.6735 6.57149 -9.23773 -0.727535 -4.41111 -0.824378
476 1 -13.0082 -4.52829 -3.97138 -0.609522 -2.05907 2.58863
477 1 -13.8498 -10.7049 -15.0349 2.23496 3.3272 0.839968
2726 1 -10.9514 -8.87915 -22.8454 3.2969 5.35159 2.55991
492 1 -12.0237 -16.8318 -9.96906 -3.53084 -2.08411 5.15293
1663 1 -15.1026 -1.75203 -0.916642 -1.03453 2.61271 2.84647
3824 1 -9.41382 -24.2131 -6.92822 3.4855 -0.530023 1.75862
501 1 -13.9955 -12.5704 -8.34321 3.54645 -0.0612676 -1.5731
1892 1 -1.68325 -14.462 -18.6631 -0.25266 0.762475 1.07439
2835 1 -5.47846 4.97585 -2.47504 1.13259 4.17593 0.190369
517 1 -12.6778 -2.55798 -22.7978 -3.90263 1.20357 -5.73883
519 1 -21.0021 -14.3 -7.09361 -3.9549 2.49827 3.48842
520 1 -4.60693 -22.4912 -11.259 0.542093 -1.38794 5.20766
523 1 -10.789 -14.2821 -8.68017 1.18233 3.49065 0.281115
525 1 -6.55014 -1.09207 -3.87341 -3.53107 -1.32261 4.16563
532 1 -10.1581 0.2752 -4.25065 -3.22365 3.98954 -1.06406
544 1 -4.40469 -20.7688 -18.5236 0.0242205 -3.49332 -5.98124
546 1 -5.80837 -11.4046 -15.2659 -1.64408 -0.309368 -1.36738
1467 1 -23.3842 -16.0864 -17.6229 -0.209203 -0.459029 2.56897
575 1 -15.2323 5.77475 -4.65231 -3.30228 5.82192 -0.246729
580 1 -5.36989 5.18591 -22.7179 -4.21382 3.31218 1.65672
582 1 -5.64853 -16.4197 -17.167 3.06982 1.09218 -2.78614
199 1 -23.1573 -2.84475 -10.0119 -2.07337 -0.590963 1.21863
2523 1 -15.9249 -22.8425 -20.2793 -2.95562 5.03051 -1.27188
330 1 -14.4146 -23.9899 -23.9375 6.72783 -4.11324 0.418187
603 1 -7.19984 7.03299 -3.08829 -1.05225 -3.41064 3.54096
611 1 -2.53629 -10.0254 -6.57299 2.50238 6.08079 -4.4769
614 1 -17.4331 -11.2911 -6.66439 -1.64156 1.41244 1.75618
624 1 -6.89366 2.7387 -22.5806 0.285279 -2.16711 -0.575557
626 1 -3.22329 4.71049 -19.88 -2.46517 -1.13402 -4.27587
361 1 -24.21 -21.4317 -4.85514 3.63968 -2.36355 0.570744
1605 1 -0.524508 -0.69805 -14.8269 4.95635 -3.87337 2.92649
636 1 -20.8404 2.28087 -18.5231 -4.18434 -2.42189 -0.838957
2727 1 -13.1368 -18.4393 -1.54544 -2.40653 0.970675 0.788375
639 1 -10.0682 -18.2031 -20.8558 -2.53555 -1.36932 2.85936
645 1 -12.2564 -8.37925 -18.6237 -4.86408 0.128776 5.03872
651 1 -22.2682 6.0147 -10.1886 5.62054 5.55746 5.37066
652 1 -5.12117 -4.26129 -17.8316 -1.2716 0.936503 -1.90354
2859 1 -22.8268 -22.2309 -20.9726 -0.0353835 -0.130982 0.43507
654 1 -7.75913 -0.260962 -18.7776 -0.809496 0.437332 0.677649
655 1 -4.50901 -12.5823 -11.56 -1.35183 4.45646 -0.287913
661 1 -18.7051 -4.79466 -20.5233 -3.32714 -6.38211 -2.731
663 1 -14.2408 -19.6892 -8.12374 0.140244 0.339113 1.18144
666 1 -8.63438 -7.3183 -8.17769 -4.75883 2.56905 -0.298374
1452 1 -5.87229 -24.2953 -16.1802 2.22994 -1.38531 3.45937
1041 1 -1.29265 7.1875 -14.9563 -0.814927 1.18995 -2.30074
674 1 -10.3496 2.47395 -19.8392 1.04273 2.11921 1.60277
675 1 -21.9243 -12.7825 -9.23473 -3.10457 0.283431 -0.0769252
2338 1 -2.33688 -2.7762 -15.7336 -1.01467 0.677322 -0.503997
679 1 -17.6101 2.15524 -5.45126 0.0618795 4.15484 5.17869
1567 1 -0.755687 -10.465 -21.7026 3.06049 -4.57178 -0.179526
688 1 -12.0221 -13.1423 -14.5252 2.33479 -2.83645 -1.58391
2995 1 -4.73042 9.9936 -8.57712 -1.94207 -1.25755 -4.11187
709 1 -7.92605 -4.30298 -8.24891 -0.317657 3.40504 1.89429
711 1 -15.133 -7.14149 -14.8197 3.13181 4.20513 4.6067
717 1 -13.0555 -4.12896 -12.7309 1.36142 0.405979 4.15657
721 1 -8.75058 -9.76828 -12.6976 4.93203 0.0478672 6.4485
741 1 -16.9844 -21.4055 -11.3547 -0.255535 2.41806 -3.02713
1147 1 -10.9582 10.9081 -0.450416 -0.0492997 -0.0134287 -5.02506
756 1 -4.53794 -2.56691 -1.87658 1.23483 -1.45033 -0.362649
761 1 -8.70307 -12.3614 -7.71578 0.924244 3.15424 -1.36477
780 1 -7.44533 -7.57727 -18.2392 4.21023 0.997882 -0.20371
796 1 -10.9183 -8.93596 -15.8831 0.639937 -4.51156 4.40268
798 1 -15.3819 1.63276 -6.84188 2.39776 -1.06946 4.5636
2616 1 -23.9263 0.00228753 -10.2671 4.00392 -4.69803 -3.04449
810 1 -21.422 -12.9119 -4.53142 -0.578847 -0.725381 1.88033
811 1 -11.4779 -8.13192 -8.24424 7.31822 0.504252 -1.42195
2161 1 -1.38254 10.6065 -5.83698 -0.389547 6.64513 -1.16549
1354 1 -3.36323 -5.47891 -15.7885 2.97164 -1.25655 0.471611
1475 1 -23.0878 -24.243 -5.06905 3.20148 2.82466 -2.45566
826 1 -10.0053 6.06669 -1.33559 0.396067 3.51825 -0.407154
833 1 -9.57817 -4.37597 -5.77514 -1.33551 -1.48907 0.525955
837 1 -21.5003 -15.8948 -3.93934 -3.19555 -4.5734 1.49748
190 1 -16.8147 10.73 -11.535 -1.06386 -2.31775 3.6591
3803 1 -16.9686 -1.97225 -23.3138 -4.10116 1.41817 -2.09696
856 1 -19.8656 -3.09827 -8.66047 -1.60236 3.4769 2.76739
3989 1 -17.7381 -10.5599 -14.4583 -2.5281 -2.01765 3.08041
872 1 -2.89451 -9.55358 -18.5081 -1.8198 -1.94082 -2.15525
2812 1 -9.78012 -1.64462 -23.3905 -0.810029 4.84691 -2.16902
882 1 -12.0345 -1.83205 -3.37908 -1.87675 3.25783 8.23888
885 1 -2.08274 -20.0549 -4.32695 -2.3861 2.04993 6.36824
1796 1 -20.0256 -11.4166 -22.633 -4.96547 -1.4446 -1.12511
900 1 -11.8039 -15.8726 -13.1013 -2.22772 -0.673413 -1.2593
904 1 -9.17516 -7.19542 -5.31418 3.47774 4.9305 0.551879
907 1 -15.4786 3.70267 -9.16742 2.54892 -3.61246 -0.405612
910 1 -10.6343 4.8362 -3.77685 4.77336 0.484381 -1.65554
922 1 -10.2659 4.47618 -16.7075 2.67917 2.60469 4.60846
2466 1 -0.773245 3.99034 -4.85841 -3.33667 1.70205 -2.73491
930 1 -21.4662 -18.7305 -12.2083 3.50139 0.761586 -0.51311
939 1 -8.29112 -13.934 -15.4964 -4.53537 2.23935 0.452551
942 1 -5.92297 -13.6359 -16.9714 1.77189 1.07554 0.831741
948 1 -20.6727 6.75876 -6.26126 1.22232 -3.14325 -5.29386
1387 1 -17.8455 -1.59971 -1.74012 1.21327 1.76619 4.00076
956 1 -13.7517 -4.42683 -8.42075 -0.202445 -2.08278 -1.87395
962 1 -5.57135 7.26916 -7.99964 3.30539 -2.42372 3.73558
3200 1 -24.0129 -5.91752 -7.04129 0.30884 -0.294852 0.583662
3326 1 -24.2778 5.72724 -21.6337 -0.356718 -1.96001 2.39117
2141 1 -21.3123 -24.0603 -0.574269 -0.145605 0.24985 -4.74464
1001 1 -20.1199 -5.16992 -6.70722 2.90056 0.0628234 -2.84596
1010 1 -14.8254 3.5323 -11.9787 1.87012 3.14303 -1.85724
653 1 -24.0158 -18.1359 -13.1267 -1.03985 2.78083 3.61893
1022 1 -9.57436 -21.8524 -10.6597 -2.24592 3.70596 1.73973
342 1 -1.15425 -15.7255 -10.9044 1.56079 3.25101 2.40564
1028 1 -6.40873 -10.3359 -10.8603 -1.45837 -5.06604 0.762427
677 1 -23.9827 -5.9186 -14.9366 -0.195576 3.07591 3.82284
1031 1 -0.959494 -13.7831 -2.1694 2.51532 -2.41103 -5.80968
2799 1 -2.63715 -15.6703 -8.39445 1.58489 2.81593 4.54845
1268 1 -23.4016 -10.8326 -19.4972 0.654688 0.374134 -1.1412
2494 1 -13.0847 -16.9222 -23.3251 -2.06012 5.65256 -0.196324
1052 1 -18.7061 -1.76797 -18.5867 0.107068 -1.80706 -1.28923
1057 1 -4.65268 -15.7553 -14.3612 -1.45884 -0.103279 1.22439
1080 1 -19.3163 -8.61982 -9.56584 -0.228755 -2.29609 -1.52689
1082 1 -17.884 -18.5254 -5.44389 -1.90325 2.09306 -5.46654
1084 1 -3.62727 -14.8817 -2.57883 3.58379 0.544473 0.168633
1085 1 -11.0384 -14.8188 -5.96597 2.12452 2.68141 -6.50091
1086 1 -8.95719 9.06072 -1.42191 1.68924 2.22035 -0.726903
1090 1 -21.8924 -21.3451 -11.4775 -3.60484 -0.158525 -1.92444
1092 1 -20.6777 -18.5171 -4.85471 -2.02342 -4.28875 -1.8352
1399 1 -2.86944 -23.4689 -1.73367 -3.14406 -0.540187 3.39326
257 1 -2.8512 6.85302 -21.965 -2.42917 1.54418 -0.430724
3977 1 -8.08469 -19.7849 -17.3911 1.37204 -1.42183 2.58571
1136 1 -19.0127 -19.8132 -20.9982 1.30183 5.18571 0.899757
1160 1 -8.97568 5.42531 -10.5315 -3.91512 -1.77492 4.29853
1512 1 -12.051 -10.5499 -1.20922 0.9585 -2.59008 7.04836
1172 1 -21.3998 -15.1139 -15.8821 3.49595 -0.238112 3.69803
1174 1 -22.0859 -19.7984 -17.1102 -0.174393 -1.49927 2.00896
499 1 -21.7469 4.13455 -5.45789 -1.32548 0.0219082 2.79145
1191 1 -5.01513 -1.37131 -17.6718 -1.082 -1.13551 -3.20656
1192 1 -15.6099 0.773531 -9.76846 -0.970229 -2.14052 0.417689
1199 1 -13.4328 5.29134 -13.6433 -1.55855 -1.95646 -4.1391
1202 1 -13.9422 -0.7266 -6.00671 -2.28985 2.34408 -0.249905
1203 1 -16.3502 -10.5476 -16.779 -2.04479 0.32648 -2.39104
678 1 -18.5243 -7.41233 -0.849771 -2.53932 -3.55006 -0.30971
1230 1 -16.0399 -16.3744 -8.76372 -0.104028 -2.52262 1.43979
1231 1 -19.7812 -11.6209 -10.4446 1.70506 1.67887 -2.88002
1408 1 -0.467832 -6.46327 -15.8417 -1.25331 -5.00868 3.97073
1245 1 -17.4481 9.02531 -20.8804 -3.91928 0.181639 1.70195
1247 1 -3.06115 1.44084 -9.78691 0.803858 -2.75643 -1.76407
1257 1 -5.347 -22.7358 -8.51328 0.321487 4.46533 -3.92906
1263 1 -14.9163 -7.89686 -3.4197 1.24084 3.56006 4.50786
2127 1 -23.4976 -9.57131 -23.6072 -0.234455 1.4122 -2.4281
2257 1 -0.483632 4.30934 -7.75792 -1.83019 2.0369 -2.92908
1276 1 -5.53202 -11.1395 -21.9459 0.752073 2.22825 -1.80477
1286 1 -6.00113 6.08235 -16.8894 2.72534 -2.93942 -0.845201
1299 1 -11.2407 -9.14054 -5.49726 0.291779 0.85317 0.38373
1582 1 -14.9682 7.21525 -1.23483 -0.227783 -0.70581 0.860736
1303 1 -8.17482 -5.093 -17.2726 -0.425976 -0.213191 -3.79401
1434 1 -21.3034 5.16878 -21.5637 -3.66751 7.5489 -0.741997
2267 1 -9.35216 -15.1926 -1.54695 -2.97617 -1.39643 6.03789
918 1 -3.1642 6.07088 -1.2452 0.671116 -0.280579 -0.109527
2236 1 -23.6064 4.20401 -15.1571 5.49895 -1.24131 -3.19592
1315 1 -21.8174 -9.67168 -21.4015 -4.2647 1.25659 -2.71523
1525 1 -9.35 -7.11606 -0.721437 6.22177 3.99737 1.9328
1324 1 -10.5697 -22.533 -20.6823 6.6611 -0.217327 -2.80424
1326 1 -19.408 -17.1025 -19.6974 -5.24958 0.734252 4.42931
1331 1 -18.5897 2.41161 -2.19903 -2.7454 -1.38038 -0.210415
1343 1 -9.17601 -10.0188 -9.68639 -2.7525 0.96208 -2.99962
1345 1 -18.119 2.53935 -19.9376 -2.96437 1.45737 0.889245
1347 1 -17.2168 -9.99113 -20.6605 5.99531 2.57951 -5.91062
1350 1 -14.1591 0.244489 -3.09308 1.37045 0.5732 0.437466
1356 1 -17.3293 -14.3186 -3.72246 -0.233768 -2.48339 -1.89742
1357 1 -20.8112 -6.79408 -11.5991 -5.64714 3.94058 -2.16092
1363 1 -13.6921 -12.5824 -19.3479 -0.515811 -0.283776 3.88742
1049 1 -23.4904 1.47132 -12.8816 0.537501 0.292723 -0.223732
3851 1 -4.98326 7.34799 -5.12342 -3.89159 -2.23062 -4.81338
3972 1 -3.84859 -7.17808 -9.09024 -1.35188 -4.90953 0.460003
3066 1 -24.0571 -3.22849 -0.827419 0.168657 3.7659 1.94551
1402 1 -18.3906 -4.57065 -17.3045 -0.993303 0.067084 2.5481
1406 1 -7.29657 2.49645 -14.9353 4.0762 -1.92386 2.20875
294 1 -7.77468 1.17469 -2.96097 3.97688 -5.84278 0.353028
104 1 -14.6887 -23.426 -9.14939 4.9676 -2.00826 2.21002
1413 1 -12.7179 3.11008 -17.9693 -5.74285 4.22758 -0.642261
1422 1 -14.7815 -18.5869 -14.4508 -0.578424 -2.03649 0.667649
1431 1 -7.03688 1.77144 -12.1059 -1.41672 -0.400448 2.56976
1433 1 -19.8135 -9.27549 -19.1599 -1.33235 -3.7769 2.82903
1436 1 -18.1551 -2.71938 -14.9379 -2.76126 1.49901 -3.4532
2194 1 -18.7054 6.60541 -21.2817 4.49042 3.39547 -3.1034
1439 1 -19.2491 9.47431 -10.2398 -4.082 2.02186 -5.31367
1442 1 -21.3455 -9.51682 -7.84259 3.94845 -4.18707 -4.34537
1450 1 -2.65874 -4.90387 -7.76575 -2.06087 -7.58037 1.84005
1728 1 -23.3752 -3.41364 -19.7815 4.69181 0.981928 -0.924003
2104 1 -21.2914 -6.67284 -23.7287 -3.19009 -2.24235 0.870416
1455 1 -14.4732 -17.4885 -3.89286 0.250853 -3.35276 -3.93952
1457 1 -16.5041 4.76089 -20.9014 -4.96965 1.00641 -5.72902
1459 1 -9.71758 -13.5476 -3.64341 0.547254 -3.4075 -1.5451
1460 1 -14.7046 8.75873 -11.3567 -1.31833 -4.25505 -1.04259
1466 1 -17.9521 -6.82206 -3.76208 -2.75999 0.121854 0.557456
1471 1 -2.06819 -4.8104 -11.7825 4.41453 -1.68726 3.86344
2028 1 -2.14376 0.898838 -16.5551 -2.11941 -2.21308 -2.67662
1487 1 -3.90765 4.15313 -17.2399 2.2807 0.116825 -6.37773
1490 1 -22.0164 7.48881 -3.76821 0.2223 -2.15762 -0.393567
1493 1 -6.76719 -8.70055 -14.2781 -0.829089 0.505206 -4.97504
1494 1 -8.46652 6.60517 -18.079 5.40191 0.979756 -3.72754
2015 1 -1.4009 -7.31088 -2.2151 0.829627 1.77199 -6.98436
1931 1 -7.57224 4.70963 -0.372029 1.88003 0.36453 -0.346112
1504 1 -2.80817 -22.9388 -4.37678 2.19691 0.319509 3.24163
847 1 -12.6921 -24.069 -13.0915 -2.24816 1.44345 -0.353255
1514 1 -14.9268 -5.76313 -5.77832 5.87934 1.27606 4.22475
1522 1 -14.5795 -1.72924 -15.7036 -2.57416 2.60869 4.17218
3354 1 -17.8221 7.47391 -1.14191 -2.33771 -0.998795 -5.34112
2463 1 -12.4608 -22.1042 -22.9621 2.50886 -3.04945 2.41827
3847 1 -16.0189 -14.7251 -14.4489 1.89616 0.846134 -5.47575
1554 1 -10.0634 -3.5794 -18.4731 1.74495 0.0481547 7.03757
1555 1 -19.5019 -4.22577 -3.95824 -2.69585 3.95036 3.96431
1570 1 -22.0232 2.83486 -10.8977 1.89827 -0.769769 1.56274
2009 1 -4.62312 2.4299 -1.434 -1.57559 -4.07055 1.51789
2468 1 -22.4829 -23.7495 -8.03715 -0.14304 -4.22841 -2.35847
628 1 -21.2682 -16.8752 -0.203434 -3.71357 -1.59076 1.98181
1589 1 -10.1326 -21.9792 -2.9073 -1.427 -4.91124 0.268468
1596 1 -4.61097 -5.24171 -13.4303 2.70578 -2.79111 2.98513
1602 1 -20.7817 -12.9977 -20.4343 -0.893038 -1.47422 -1.37846
40 1 -1.81766 4.38737 -15.3348 -0.0389066 1.77157 -1.95478
1615 1 -4.84378 -17.2304 -6.76433 0.514759 3.43777 2.0412
1617 1 -14.0287 -13.7955 -12.4528 -1.65015 -3.49012 -6.35891
1632 1 -6.92495 9.00834 -22.8257 -4.94926 -1.94036 -2.46009
2922 1 -15.3951 -21.4639 -22.6808 -0.523617 -1.64186 1.94939
1640 1 -17.5749 -23.1767 -13.5846 3.71182 -2.34098 0.377751
1645 1 -3.14271 -7.07314 -6.02334 -3.05461 2.36193 -0.3091
1646 1 -21.1775 -6.74021 -20.6944 -2.0591 6.92682 -2.17425
2725 1 -1.91217 7.31368 -17.7328 0.959169 -2.92144 -4.59446
1649 1 -17.8295 -7.39475 -11.6099 -0.724617 0.865946 3.01838
1662 1 -9.59284 -21.3561 -7.65926 0.49487 0.976852 3.66822
2093 1 -6.69561 10.7943 -0.959755 -3.45318 -3.52557 -2.23499
1676 1 -16.886 0.423307 -3.44182 2.77211 0.73652 0.471728
2347 1 -13.4388 9.94916 -15.6203 3.92407 -5.93399 -0.841713
2252 1 -23.1499 -11.7486 -1.19003 -3.33988 3.44007 2.95793
1688 1 -18.5856 -2.76392 -12.1649 4.57065 -1.43129 -0.0314948
1694 1 -16.3394 3.06477 -14.4451 -2.87715 -2.63159 2.75597
1710 1 -10.1947 -21.8756 -15.3659 -2.01873 4.80155 3.34552
933 1 -18.1288 -20.6332 -23.5781 0.61453 -1.79768 -4.12292
1725 1 -14.1447 7.177 -16.8303 0.423382 -2.01652 5.25807
3959 1 -19.3392 -1.98285 -21.4897 -1.29516 -2.1366 -2.32944
1789 1 -22.0857 -0.0591744 -3.16537 -0.617435 -0.672816 5.49801
1737 1 -18.2377 -1.7632 -4.73979 -1.35044 1.2263 2.64027
1753 1 -23.1508 -14.0386 -21.7285 -0.574069 2.07927 3.82063
1755 1 -6.31022 -0.760644 -11.1554 -1.41795 -0.50193 0.570586
1760 1 -17.5998 -15.6075 -21.5181 6.60629 -0.101292 -0.233373
1778 1 -18.0201 -7.69557 -14.5491 -1.7202 2.55165 0.554027
1782 1 -23.0755 -14.1485 -11.421 -0.529335 0.77337 1.98664
1785 1 -8.92569 9.5541 -7.20915 2.69508 -0.0210523 -0.0748257
1786 1 -2.74386 1.78793 -5.73829 3.48533 1.93165 -3.1767
1680 1 -22.9584 -17.0372 -21.8574 -0.891245 3.3698 -1.49462
1015 1 -0.453257 5.11567 -19.1511 -2.0567 3.18661 3.06686
1801 1 -10.9268 -19.3194 -3.20104 -0.956249 -2.89315 2.85379
1802 1 -18.4446 -22.0549 -8.75102 -2.40578 -0.689894 -0.164247
1171 1 -22.6528 -3.78361 -5.69973 0.289069 2.73071 0.557783
1812 1 -12.1042 -5.62518 -19.192 -1.50141 1.30049 6.20638
1799 1 -10.5535 11.2081 -15.5668 1.42339 -1.09985 1.30768e-05
1830 1 -16.95 4.64674 -17.9509 1.17491 0.426892 1.52957
2949 1 -7.15755 -20.5003 -23.2983 1.64592 -0.304231 -6.62968
1851 1 -6.43839 3.21091 -4.38275 -1.58916 1.52485 -0.625695
1861 1 -14.8367 -20.9121 -15.8964 -2.4265 -1.72646 0.836037
1862 1 -11.1974 -3.44955 -9.227 2.14206 4.19871 -0.641392
1863 1 -5.74932 -12.9389 -8.10669 2.83054 1.38838 -4.00699
1872 1 -3.22865 -11.9985 -8.96536 -0.96894 3.77031 -4.23455
1874 1 -7.78284 -15.1409 -20.9643 1.96025 -2.52777 3.81636
3973 1 -11.9054 -20.099 -6.7743 -0.0186364 1.99327 -0.579196
1876 1 -22.732 8.4223 -19.3597 -3.81594 1.39723 -2.49257
1879 1 -19.0924 -16.0249 -17.2345 -0.990337 5.55593 9.38389
1883 1 -9.0455 -10.9453 -5.23247 4.23217 4.23359 -3.70063
1888 1 -10.6465 -19.2857 -13.5599 3.06339 -4.68118 -1.39213
873 1 -5.79088 -1.70249 -21.8919 2.32251 4.56011 -2.31653
1959 1 -23.9904 -4.91639 -3.23874 -0.425428 6.09352 -1.15449
1901 1 -10.221 -14.3108 -19.6151 -1.60379 0.679866 2.09308
1905 1 -15.4923 8.83698 -6.43252 1.84228 0.987987 1.6242
1918 1 -16.1075 0.626341 -22.2197 -4.00924 -1.89891 -2.70067
993 1 -23.2043 0.0412518 -22.4071 1.56058 2.47924 -1.06733
2605 1 -17.2928 10.5474 -1.50687 -0.43483 -0.128976 -1.18626
1930 1 -5.47633 -19.1643 -16.429 0.937752 1.18867 -5.4736
400 1 -23.2598 -17.2092 -2.09819 0.518116 -4.11921 3.1558
3968 1 -2.31323 6.65584 -4.16438 3.63833 -2.70357 0.420265
3945 1 -22.5394 -13.2899 -18.2284 0.786488 0.972452 -2.6692
1944 1 -20.6433 -23.4832 -3.27474 0.613582 0.903331 -1.58443
1949 1 -7.13692 -8.94106 -6.20231 -2.46831 3.50157 -1.93293
1960 1 -15.1448 -5.03795 -16.8767 -0.188638 1.03303 0.0669718
1966 1 -18.4545 -19.113 -11.7854 -2.56192 0.192664 -4.64855
1980 1 -20.6586 6.26392 -19.1012 4.14247 1.0671 0.642937
1698 1 -13.0049 10.9657 -2.24449 -6.28273 -4.94599 3.6919
2001 1 -7.53957 -10.0246 -1.63086 -2.7412 5.44714 -0.882006
3540 1 -4.32171 10.3428 -5.79186 -1.80194 1.33518 -0.102453
3877 1 -23.3851 2.07652 -4.27133 -0.72852 -2.817 0.323468
2016 1 -7.53128 -15.2571 -4.79824 0.128541 -4.79365 -2.32815
2031 1 -7.13675 -22.5482 -12.327 1.97999 -6.21657 0.831967
2034 1 -10.8294 -0.901159 -18.1834 0.870644 -5.12073 1.44334
2036 1 -12.5698 5.80921 -23.5825 3.79661 -0.247454 -4.01972
2040 1 -5.72907 -21.8499 -3.79879 0.88167 -4.66416 -3.32837
2050 1 -12.6079 7.49585 -10.2561 1.99812 1.26423 -2.52372
2051 1 -22.2202 9.85332 -2.2107 -1.19599 -2.62422 1.42039
2052 1 -9.29246 4.13596 -21.9261 1.4296 -4.47269 4.83832
2060 1 -8.07653 -0.253472 -6.30217 -1.57743 -1.59399 -3.60118
629 1 -7.01667 11.112 -9.94666 -1.0042 -1.90625 -2.73997
2063 1 -9.00561 -11.5671 -19.2373 -3.01321 -1.68993 0.657093
2068 1 -14.0127 8.39039 -3.72652 -2.82585 -3.03554 -1.03273
3994 1 -13.9404 -19.2399 -21.5797 0.93715 -1.35034 -3.13264
2073 1 -17.6885 7.11059 -14.5108 2.412 4.41788 -1.82652
2078 1 -12.7106 1.66774 -22.4531 -1.81523 -2.6819 3.65467
1962 1 -1.25721 -12.8731 -4.82943 -1.97149 0.702791 -1.41456
2085 1 -21.2817 -21.2446 -8.55047 2.0407 -0.847083 -0.892152
2087 1 -8.83981 7.75608 -15.4776 -2.74793 -1.97221 1.13753
2098 1 -12.0105 -17.7394 -5.21839 4.06463 2.80696 0.932891
2106 1 -20.3731 -15.3443 -22.0623 -0.30029 3.777 4.07938
2107 1 -6.68278 6.26366 -11.8864 2.34449 1.18409 -2.65706
2118 1 -11.4778 -0.278339 -7.66878 -3.46626 -0.172526 -0.811647
2128 1 -17.6486 -19.109 -1.12261 2.38249 -0.62403 -5.4535
542 1 -24.1967 6.05611 -1.86164 -0.140934 -0.419465 3.02074
2139 1 -8.80692 1.95253 -17.3466 -1.80988 -0.611647 -0.774578
1897 1 -12.5199 -23.1454 -4.18785 1.43801 3.62477 -0.862603
2167 1 -14.5157 -12.9751 -16.5186 -2.72829 7.40002 -3.25622
27 1 -21.6493 5.16384 -0.525126 -1.69656 -3.68181 1.21773
2195 1 -7.95878 -19.2494 -10.5235 -1.69134 1.48277 -1.32661
2196 1 -2.11339 7.44117 -11.9838 -0.873865 2.01825 4.92406
2936 1 -23.5142 10.8721 -4.39375 0.593995 -1.29371 -1.28984
2206 1 -2.61495 -10.8337 -13.0563 -0.410609 -4.92415 -0.583658
2207 1 -23.0041 -8.2166 -5.7946 -0.0272102 -3.77466 -0.242609
2211 1 -16.0433 7.19252 -19.1046 3.36801 5.45934 3.00328
2212 1 -17.6825 -6.75864 -6.85043 -2.03481 -6.07798 0.153915
2228 1 -8.54014 -10.2587 -21.8814 0.650777 -5.02934 5.39467
2233 1 -10.1318 0.161021 -15.5536 -1.3293 7.75452 -2.09821
2234 1 -3.91541 4.53397 -5.32988 -4.56796 -0.189447 4.98666
2241 1 -21.5422 -1.91579 -18.0293 -0.941361 -0.699983 1.91732
1648 1 -17.2468 -12.4223 -22.2059 2.59353 -5.31661 -1.29836
2251 1 -13.4413 -6.26418 -10.7842 -2.51288 -0.227066 -0.500981
3845 1 -3.45084 3.3267 -23.396 -3.27605 -4.47818 -3.81318
3913 1 -8.25939 2.08788 -0.149149 1.15267 -0.466155 1.91266
2278 1 -13.9008 -14.5487 -5.94485 -1.17217 1.21609 -0.0301229
2292 1 -13.224 -11.3424 -5.67595 0.00866247 -2.86173 -0.0769027
2294 1 -20.8437 9.14332 -16.017 3.02238 -5.07428 -0.478983
2296 1 -20.6818 -11.1735 -16.9857 -1.89159 0.270845 5.04318
3635 1 -1.21501 -17.2028 -19.2969 0.876274 0.0722648 2.82646
2317 1 -1.76857 -9.28626 -9.46509 -6.43798 -1.50101 -0.448817
2328 1 -7.44493 -7.46288 -2.80797 -1.39014 2.23331 3.31821
419 1 -21.5302 2.1481 -21.3515 1.58696 -9.81954 2.17992
2361 1 -22.0465 9.06661 -10.6062 4.36384 -0.991443 1.60622
2368 1 -6.97226 -21.4448 -6.26172 1.47627 1.39995 -0.863739
1724 1 -18.6562 -24.1794 -5.05359 -0.761942 -2.40939 -3.32128
1293 1 -6.81444 -0.727917 -0.837599 -4.61928 0.04646 3.69488
1890 1 -22.7782 8.1902 -22.2391 -0.0144323 1.28724 -0.439347
2377 1 -5.07149 -8.54589 -4.31782 -0.774088 -0.929551 -0.39138
2390 1 -21.5776 -6.62267 -8.79226 2.84962 -2.46379 -1.16165
1502 1 -24.27 -7.6763 -9.4121 -1.91108 0.00332498 -0.167855
3886 1 -9.017 -16.1613 -10.0615 3.25555 -4.18089 0.528097
821 1 -21.876 -23.0439 -23.5922 5.82303 0.133938 1.37488
2248 1 -0.600063 -8.8585 -14.128 9.79784 -2.65105 0.417065
2408 1 -21.7365 -2.6045 -13.6221 1.18871 -4.48525 -1.12816
3648 1 -24.0049 -22.2458 -2.19315 -3.53489 -0.176001 3.20791
279 1 -21.7728 -3.17097 -2.71175 -1.07701 -1.38116 0.228024
2425 1 -13.9274 9.04093 -20.7747 1.4084 2.96424 -1.33491
2429 1 -12.1308 -9.85394 -10.7684 1.97589 1.33217 -1.36078
3812 1 -4.15119 -12.1263 -1.63249 -0.359511 0.352424 3.69716
231 1 -22.1726 -2.60104 -22.3304 0.155095 0.431587 -0.697471
2442 1 -3.0574 -11.1481 -15.7873 4.03692 -6.86438 -0.281803
2454 1 -4.50931 10.489 -18.6621 1.10571 -0.746303 -3.34648
2465 1 -7.70465 -13.1805 -10.5896 -2.9378 0.834094 4.84402
3944 1 -12.5332 -8.66495 -13.4304 -0.0641532 2.11167 5.51892
2474 1 -3.2839 -8.29186 -15.533 0.859203 0.52563 5.39856
1024 1 -3.96142 9.02267 -23.7587 -0.187325 -2.07517 3.80955
317 1 -10.6926 -11.7439 -23.5721 1.51502 -0.877091 -0.989379
2481 1 -14.3545 -7.36219 -8.23714 -0.568757 -4.90483 2.33433
3993 1 -3.63493 -11.3606 -4.25544 6.55694 1.4282 0.947489
689 1 -1.58416 -2.47005 -6.18662 -2.52322 5.12538 1.91235
2713 1 -23.6066 5.25072 -7.3966 2.04885 -4.34138 0.174419
2510 1 -20.6324 0.694266 -1.07546 -4.8628 -0.910864 2.9448
3099 1 -20.179 9.33969 -21.6866 2.70221 -3.78028 -1.73901
2520 1 -20.2257 2.23673 -6.75631 5.08494 -0.113338 -3.34615
2518 1 -0.781189 -3.40598 -3.56715 -2.41784 0.741898 -2.27182
2525 1 -13.515 -16.8842 -7.54796 3.46456 1.13862 2.80689
2526 1 -10.0932 -7.3151 -12.7186 -0.911008 -2.42802 2.18139
2529 1 -19.9644 -10.8012 -5.75157 -3.58414 4.64182 -2.69545
2531 1 -17.4348 -7.11924 -19.6167 4.30756 -0.200793 -5.35229
2534 1 -17.1267 -11.6846 -2.48632 -0.883918 5.86653 -1.01269
2572 1 -23.2758 -15.6604 -6.0781 1.11137 -6.48221 -0.523815
2542 1 -13.4704 -7.84368 -21.7085 -2.41531 1.80797 3.93216
2543 1 -16.8493 -9.03601 -8.2781 2.01726 2.12841 1.14579
2550 1 -21.9187 -18.0559 -19.1635 1.06678 -1.62221 -0.0523071
2558 1 -18.5051 9.83186 -18.4065 -6.44234 0.285477 0.856181
2562 1 -20.9232 -4.04582 -11.1492 -0.173003 1.30664 -2.16471
2564 1 -8.94611 -15.336 -12.8385 0.123778 2.19123 0.528744
2567 1 -12.7991 -3.15929 -17.4061 2.90776 1.22821 0.745507
3874 1 -19.9056 -22.4164 -15.0742 -1.21982 -0.648022 3.56383
1540 1 -17.2688 5.10624 -23.6375 1.79929 0.467147 -3.79941
2578 1 -16.4487 -16.2188 -5.7047 -0.644607 -2.36974 -2.6517
2584 1 -11.865 -21.5635 -12.1721 -0.760525 -0.51903 0.880762
2737 1 -20.448 -19.608 -1.04212 -2.80696 4.70659 -2.11572
2595 1 -1.5826 -19.7251 -18.1289 -1.20199 -3.24356 -0.380943
3864 1 -1.24983 -2.00381 -12.3418 -5.26737 1.6771 -3.38701
2597 1 -20.7373 -3.65549 -15.7473 0.225746 7.57135 -0.700608
2602 1 -7.06337 -12.1757 -3.00499 0.243411 3.02467 0.0150704
2924 1 -1.44173 -17.0123 -22.2086 1.4724 5.91986 4.56405
2609 1 -11.4123 -3.98765 -14.8716 4.74916 -1.87133 4.38235
2618 1 -8.2147 -18.0124 -13.2417 -1.26912 1.1256 1.84374
2374 1 -5.17921 8.36184 -1.63739 -2.09603 -1.11732 -2.82581
2633 1 -3.66087 -17.0297 -12.0697 2.84179 1.37414 -2.01169
2403 1 -10.6209 -0.0150125 -21.1729 2.88244 -0.482677 2.08452
3671 1 -2.53765 9.69856 -14.6777 0.50297 -1.34417 -2.15034
2652 1 -21.6679 -6.37562 -16.4305 -0.593361 -2.51455 1.12322
2295 1 -12.9156 11.0311 -23.6559 2.13675 -6.37056 -6.45675
2656 1 -4.39356 7.55097 -19.6206 0.244419 4.20341 2.40926
2667 1 -8.50024 -3.24404 -3.38697 3.47727 -4.92345 1.74593
2668 1 -8.14875 -17.0933 -18.7969 -1.50918 -5.4857 -3.20485
2673 1 -14.7458 -22.3841 -2.78272 0.217135 -2.22027 0.249418
3401 1 -21.8483 -23.3984 -13.2456 0.397969 1.90955 -3.30004
2681 1 -15.271 -7.97661 -17.8927 -0.391052 4.81189 -1.18547
2683 1 -18.5649 7.26295 -17.3393 0.157473 0.600903 -3.62308
121 1 -4.51437 -19.2687 -21.1293 -1.12957 3.26471 -0.961551
2689 1 -5.30771 -3.59558 -7.78925 -2.51869 -5.0966 3.37157
2690 1 -16.1295 -13.8876 -19.8279 -6.06157 1.19568 0.858516
3146 1 -2.78491 7.87616 -9.20182 2.7614 1.03287 5.79016
2714 1 -16.9617 7.48065 -10.1284 0.668867 -1.47291 -0.819295
2720 1 -11.6758 -11.2459 -17.8604 -2.31393 2.55896 -2.9593
266 1 -21.7247 5.4894 -13.1432 -0.458137 4.7159 0.5381
2396 1 -14.2619 -20.935 -0.316332 -3.09404 2.85214 0.24629
481 1 -0.868015 9.05587 -21.1516 2.07885 0.978431 -2.93652
2729 1 -3.59019 -23.0808 -17.2622 0.857472 3.20486 4.53277
2733 1 -7.38983 8.1689 -20.136 2.07904 -3.06553 3.73682
2735 1 -4.47454 8.52921 -16.5213 2.7467 -0.518349 -0.368067
2740 1 -12.2335 -16.1976 -20.6993 -3.30626 3.66342 2.09135
2744 1 -16.4352 -18.2553 -19.9831 -1.91193 0.614101 -0.663251
2748 1 -3.57042 -0.478213 -11.8304 -1.84892 -3.12568 -1.22876
2758 1 -20.43 -16.6791 -8.65512 -4.75236 -2.60358 -0.280336
2767 1 -12.1013 -20.1058 -19.7004 4.98172 0.137885 -1.79375
2771 1 -18.5153 -11.8948 -18.7004 -0.350425 -5.41923 -0.871301
2780 1 -12.1119 -2.826 -6.29345 -6.37499 0.470078 -2.68124
888 1 -6.73516 9.49852 -15.0774 2.7679 -3.7619 -3.71533
2790 1 -7.64056 -5.8531 -13.8902 1.05633 5.10998 -0.342315
2798 1 -20.4312 -0.22497 -5.41213 0.816978 -0.855554 -4.76334
2313 1 -8.5584 10.809 -20.0702 -1.00215 2.63891 -7.09238
2800 1 -9.68441 -15.7483 -16.9706 -1.08173 -1.29484 -1.54583
2805 1 -14.4388 10.0111 -8.64248 -0.138598 -0.236273 -0.864539
3343 1 -23.1338 -6.07682 -18.7236 4.42922 3.0124 1.56397
1317 1 -13.1975 10.618 -12.7975 2.14748 7.43621 3.76088
3862 1 -4.47487 1.66518 -15.3217 -1.44296 -3.14324 1.10666
777 1 -24.2195 -3.79158 -12.6411 0.804468 -7.57518 -3.33669
2842 1 -5.25764 -15.2336 -10.0372 -7.88018 1.75266 -4.45178
2306 1 -1.60404 -1.27293 -21.6883 2.51018 -1.22339 0.419407
2855 1 -15.0255 -4.24659 -22.9493 4.86402 -2.87034 1.18815
2417 1 -2.5838 -4.92964 -1.88972 -1.18376 -0.666639 -2.77978
2885 1 -7.11052 3.40934 -9.54926 -2.5907 -0.121279 -0.0884851
1228 1 -24.5231 -18.1402 -6.98021 -0.737585 2.0691 2.22487
2890 1 -3.55982 -7.58655 -20.6078 -0.752751 0.446101 2.4743
2898 1 -9.70541 -7.99992 -20.134 -6.52968 -3.11153 2.63789
2901 1 -13.9194 -16.1574 -16.0767 2.18722 1.74194 -4.77369
2902 1 -14.0534 3.15274 -20.4232 1.18862 0.534995 -0.737514
2909 1 -11.8643 -5.25644 -22.8935 1.48662 -1.28303 -0.628143
8 1 -23.9782 -12.2687 -15.7491 -2.30609 2.51961 -0.196851
814 1 -20.3625 -4.3534 -0.245751 0.609163 0.893905 -1.6719
2926 1 -10.9465 6.60962 -12.4095 2.65156 -1.03968 0.297039
223 1 -22.614 -7.68283 -3.0733 4.83072 -5.46055 -4.88903
79 1 -22.7722 0.41323 -17.2656 2.09243 -0.815552 -2.81233
2937 1 -20.0547 5.25429 -15.6112 -7.00172 1.2864 -3.40153
2938 1 -6.53354 -4.84532 -1.85289 -0.458089 -3.29993 1.00783
2941 1 -4.89131 1.34397 -7.53679 0.689498 0.0568879 2.50521
1233 1 -3.06995 1.93598 -20.9486 4.22423 0.115579 8.43938
1289 1 -23.0161 -12.0764 -13.0453 1.83979 -3.65322 0.414478
2960 1 -13.7743 -2.15447 -19.9078 1.04801 -1.12896 -0.937802
2961 1 -12.1167 -13.4251 -21.7317 4.60236 -2.72232 1.96031
2962 1 -9.37559 -2.10427 -14.1039 0.5511 3.61942 -8.31426
2972 1 -8.95658 10.9671 -11.9981 -0.463948 -2.73341 -2.12437
3922 1 -17.2289 -13.8744 -17.0268 5.03565 -0.588037 2.97983
3007 1 -6.12228 -21.6086 -20.7961 2.6135 1.00519 -1.10141
3010 1 -13.1336 -18.5239 -12.0118 -1.80941 4.25997 1.18338
3011 1 -8.63106 -2.27077 -11.4894 4.33328 0.706002 -0.640076
3018 1 -21.8284 0.100053 -14.6128 1.02201 0.188143 0.563035
421 1 -15.0193 -23.422 -14.7123 -6.04003 3.84156 1.5975
3034 1 -10.0463 -6.24997 -15.4506 -4.16769 -2.68749 2.59741
3103 1 -3.70252 -15.0041 -23.2571 0.452254 1.55786 -0.155995
3049 1 -10.9775 -19.8163 -17.2121 5.28762 1.36698 3.95689
3051 1 -17.7876 -0.182107 -11.8415 -3.22028 0.146151 -2.08315
3059 1 -8.24884 -23.2285 -4.54451 -4.80794 4.66452 4.42089
3071 1 -4.57477 -5.60529 -3.96928 1.70823 -1.80949 -2.73721
3077 1 -13.8947 -22.4282 -6.79387 2.34324 1.31651 0.128941
3078 1 -21.4013 8.26761 -13.2943 0.725981 2.27427 -4.89193
3085 1 -15.9355 -2.83016 -6.03071 -1.73339 1.8895 4.684
3093 1 -10.1513 6.66903 -20.5845 -1.4049 -2.53795 2.19385
3095 1 -14.5488 -14.6762 -3.07055 1.17001 2.83023 0.937484
3097 1 -7.73042 -10.111 -17.0062 1.13454 -2.10091 1.30807
3991 1 -15.5622 9.69443 -22.9639 -1.91016 -10.8713 2.89039
1891 1 -7.88948 -16.1026 -23.6399 2.05631 -2.45473 -1.64441
3120 1 -14.4905 -9.88921 -20.0677 4.28104 -0.559412 4.78973
3125 1 -2.02478 -15.8758 -0.425599 -1.85288 1.71054 0.266277
3135 1 -18.4482 -14.0931 -6.35045 0.0459086 0.272764 -1.31762
2574 1 -19.7332 -24.2783 -7.57117 1.39981 -3.93375 -4.69992
751 1 -18.7335 9.22125 -13.0747 -1.72504 -2.28564 -3.92823
3963 1 -15.3686 -14.8583 -0.183877 5.4095 0.162432 5.56713
3161 1 -8.52713 -17.4739 -3.1025 1.71631 -1.60084 -3.78397
3162 1 -12.0014 -14.2506 -17.385 -1.15315 4.26066 -1.04958
1412 1 -19.6615 9.89594 -7.15754 -0.766066 6.11003 0.80158
3202 1 -14.8732 -16.247 -11.2997 1.93965 3.93677 1.68765
3205 1 -10.3235 2.2177 -7.34102 0.0603277 0.174832 -2.02247
3210 1 -15.5459 10.8585 -3.84089 3.28046 -1.80067 -2.1028
3212 1 -11.2688 8.5154 -17.1604 0.617721 2.08657 -2.87079
3213 1 -2.27943 4.55234 -12.4016 -0.244614 -0.109866 4.98827
3219 1 -7.43033 -21.9949 -15.4844 3.18524 -1.00344 -2.36296
3221 1 -3.78893 -8.917 -1.74666 -0.73059 3.57012 2.47686
2205 1 -23.8767 9.0818 -13.689 -2.68077 0.510219 -2.44012
2646 1 -4.18641 10.7836 -3.05738 -3.78032 6.71583 -0.698761
3229 1 -11.6559 2.52147 -4.82949 -3.02635 -0.974005 1.88912
1942 1 -1.95323 10.107 -1.73136 -2.2132 1.28267 1.31387
3240 1 -13.953 -22.0636 -18.4635 -0.173907 -0.824217 7.48183
3247 1 -3.89635 10.0946 -12.1406 1.51351 -0.31037 -1.43345
3261 1 -15.6141 -4.1348 -14.2014 -2.22711 -5.80248 1.42746
2625 1 -6.38347 -8.42465 -20.933 3.74221 4.76534 0.732369
3294 1 -19.6917 3.50795 -12.4454 -1.05262 -2.98029 -5.30359
3300 1 -3.3689 5.2178 -8.19067 0.584806 -4.02625 2.4041
2288 1 -23.5037 -7.43587 -12.2847 -2.40311 0.136722 -0.454986
2053 1 -20.8899 10.9038 -19.3994 0.554918 1.1219 -3.7177
3331 1 -17.7603 -4.61493 -1.61974 3.27619 -0.270575 3.82171
3838 1 -8.269 5.41354 -5.32589 -2.89337 -2.17502 -0.809829
3823 1 -5.8247 -19.5617 -8.14964 -0.235561 -4.21824 -0.514418
3355 1 -16.0853 -19.8933 -3.41091 1.43255 3.9781 -0.633804
3362 1 -7.38549 5.34839 -14.5489 1.41329 -1.14232 1.98627
3364 1 -20.1823 -8.91788 -3.73273 -1.82288 1.2315 -1.25037
3366 1 -22.2424 -22.1658 -18.3654 -6.22279 -1.12401 -4.92996
3888 1 -8.03025 6.37806 -23.3085 1.1741 -0.0090963 -4.83098
3370 1 -18.5558 -14.7183 -12.9076 -0.560388 -0.578843 -0.756652
3381 1 -2.13887 -19.8919 -22.4018 0.870895 2.78036 -3.82189
3385 1 -2.9255 -19.3086 -7.3353 1.99041 0.706274 0.0287741
3389 1 -15.6514 -11.2497 -12.5867 -7.13359 -3.16847 2.78148
3392 1 -5.86526 2.02048 -17.9016 -0.768014 1.68897 1.57107
3396 1 -20.501 4.47909 -2.97925 -6.12994 -1.78961 -4.11399
3398 1 -5.77574 -18.9972 -3.03358 -2.4896 -0.0802883 -1.51544
2404 1 -17.5994 -5.50921 -23.2753 -9.30884 3.70896 2.96939
1438 1 -4.46931 -1.13296 -14.6245 -4.72363 -1.60836 3.2474
3413 1 -2.8652 -19.8402 -15.3774 1.97352 -1.06423 3.70152
3414 1 -17.9676 5.01333 -5.71899 2.47258 1.3472 0.630157
3415 1 -16.9416 -0.0654147 -15.3361 3.72674 -2.13437 4.58982
3431 1 -10.6357 -3.13172 -1.22861 -1.44153 1.24069 -3.62515
3433 1 -8.64676 -2.36456 -20.7058 -1.77447 1.19222 -0.707178
3445 1 -12.2388 2.3442 -11.3964 1.05513 2.60554 -1.67006
3446 1 -2.36928 -22.5591 -14.8052 -1.31431 -5.21356 -0.246191
3447 1 -8.48796 6.66946 -7.72721 -0.275136 -2.97301 -0.439953
3450 1 -1.81289 -13.4457 -12.5228 0.45401 0.191811 -0.0613481
3452 1 -12.866 -0.395679 -13.8979 0.400577 0.626754 0.0243474
3466 1 -11.274 7.72642 -7.68286 3.5916 3.48976 -2.098
3470 1 -16.8719 -20.3548 -7.25539 4.85017 -5.53192 2.71202
3471 1 -16.7686 -19.6757 -17.5483 -0.0619344 2.20618 -2.31117
3472 1 -15.0904 7.62248 -14.1306 -1.62117 0.425863 -3.06787
3477 1 -19.2322 1.14059 -14.1201 -1.96258 0.84796 4.72154
3491 1 -11.6329 8.52158 -22.5124 -4.80622 -1.68299 -3.24453
3496 1 -10.5783 9.21012 -13.5552 -3.51094 3.964 -0.651947
3508 1 -3.11023 -11.5619 -20.4503 -1.29755 5.80875 1.36831
3509 1 -21.6759 -19.7016 -21.6549 -5.15205 4.47712 -2.4858
3513 1 -20.5132 -19.7527 -14.7729 3.31944 4.29239 -4.38624
3516 1 -22.0999 4.28346 -17.4435 2.27166 -6.14605 -6.15829
3952 1 -4.6241 -7.08853 -17.871 4.0012 5.59042 -1.07661
2479 1 -21.3487 -7.06168 -0.479404 1.24745 -3.05002 0.495006
3980 1 -23.4335 -15.775 -14.0449 -0.59551 1.9054 -0.699633
3558 1 -19.339 -15.419 -2.23091 0.612137 0.985193 -0.468329
3569 1 -4.71454 4.33716 -10.7696 4.08818 -2.06857 -3.17
3572 1 -14.5637 -16.2689 -19.146 2.56161 2.33078 0.970393
3574 1 -16.7795 -4.59067 -11.2699 -0.619219 -0.617537 2.88517
3575 1 -9.99124 -12.6228 -12.4523 2.77397 3.94158 4.45187
3577 1 -9.19641 8.93432 -4.18001 0.932223 -0.681744 -2.48741
3579 1 -16.7117 -13.6554 -8.6464 2.24147 -1.314 -0.270651
3588 1 -21.1895 -8.25704 -14.1187 -2.38635 0.0181108 -1.57101
3589 1 -12.9718 -0.233056 -10.0689 -3.53354 -1.04224 3.19542
3592 1 -7.0698 -18.7342 -5.41639 4.5691 -1.01529 -3.03172
3596 1 -5.59531 -13.1805 -5.41821 2.07002 -3.04083 3.02285
3598 1 -14.7571 -10.2131 -9.73753 -0.0380039 -1.32459 1.68938
3614 1 -0.59168 -6.2144 -4.89938 -0.534376 3.06127 -1.45079
3829 1 -9.4133 -17.1044 -6.27828 -6.42266 0.243543 -0.0541441
3626 1 -13.7823 3.88396 -6.04792 2.24471 1.24833 -1.08081
3645 1 -18.078 -18.2099 -9.13539 0.397057 1.80362 4.22029
3649 1 -17.4024 0.552705 -18.1398 2.63179 -5.3293 -2.20074
3663 1 -20.7198 -16.0169 -11.4777 0.756885 -3.63039 -0.309129
3958 1 -1.02627 7.97318 -6.52496 -4.29301 2.61161 -2.48317
2688 1 -14.7788 -4.39886 -1.8837 -2.41627 -1.05457 1.54677
3961 1 -2.00018 -20.7965 -1.45516 0.287455 1.9771 -1.39885
3690 1 -11.4693 7.4962 -4.7869 -3.40143 -0.919916 -8.13739
3694 1 -19.375 1.76152 -10.0703 4.85594 0.0104985 2.73559
3700 1 -6.2705 -19.808 -13.7988 -3.35691 -5.88117 -6.73314
3702 1 -4.86025 -4.66461 -10.3161 -2.08633 -2.53958 0.605889
3706 1 -12.1209 6.17273 -18.6194 2.86578 3.50624 -0.152924
3724 1 -4.10415 0.614449 -3.54519 0.878625 7.1482 -7.04118
3726 1 -9.52897 -11.3896 -15.0684 -1.01019 1.10312 2.1126
3729 1 -20.5473 -11.0132 -13.2244 -1.97623 -0.87912 1.20976
3404 1 -19.27 -10.1435 -1.32957 1.4237 0.0391255 -0.849613
3742 1 -1.5681 -18.1872 -13.6302 -3.62086 3.76461 0.496302
3748 1 -16.3843 -3.50802 -19.3554 -2.12957 -0.923282 0.279719
3881 1 -15.3468 0.720706 -12.9551 2.32836 1.3023 -4.40287
3759 1 -11.0407 9.57125 -19.8511 -0.276956 -1.55378 3.83344
3950 1 -5.80578 0.944646 -20.6675 0.826041 1.39245 -3.76807
3906 1 -18.0254 9.32861 -4.87695 -1.92066 2.29189 -4.70496
1030 1 -15.9849 -16.7762 -23.5242 -6.03365 2.59885 -2.90459
3794 1 -4.75621 -19.4945 -10.9845 -1.83345 -1.63331 -3.77872
3796 1 -12.0514 -12.7689 -10.475 -1.19393 2.02356 2.22885
972 1 -7.6579 -19.018 -0.751527 4.59835 2.37803 -0.803599
3064 1 -3.38632 10.7459 -21.3409 0.440197 1.75428 -1.03655
1322 1 -1.00986 -13.5118 -7.64596 -2.25069 0.898654 -0.628264
1852 1 -1.53828 -3.24256 -18.389 -1.01227 4.19091 2.45193
2100 1 -1.04649 -3.94678 -22.3559 -2.18238 -1.44288 2.49391
1908 1 -15.4825 -7.72629 -0.435474 -0.817299 3.18374 -0.810459
2893 1 -9.06884 -18.5049 -23.1942 1.60601 1.28712 0.174372
3082 1 -1.87795 0.907562 -23.9352 0.227448 2.07538 -3.6735
1264 1 -24.1074 -11.9884 -3.96053 2.28463 4.19468 -1.43865
1519 1 -10.3501 -17.7999 0.0438605 -4.47184 -7.88842 7.97579
1129 1 -0.710837 -12.9076 -23.4964 -1.87873 -2.79358 2.76733
3224 1 -4.54679 -6.33979 -0.363396 3.50198 -0.0664555 -0.8889
3855 1 -3.06692 -7.5849 -23.5328 -3.41377 1.62539 3.81976
430 1 -20.1994 -4.06856 -23.8423 -2.19827 4.62742 2.70035
808 1 -0.664665 -17.5579 -7.304 -2.43283 0.744558 -1.91624
2911 1 -0.472418 1.57337 -19.6232 -0.35693 1.05656 3.7885
3306 1 -9.28958 10.1302 -23.9961 -1.50171 -2.37027 -1.91612
1149 1 -1.13992 -13.5609 10.7098 -3.40505 2.61608 -2.68585
9 1 -15.2051 6.55504 6.65812 1.67597 4.57399 -2.33703
13 1 -19.4434 -12.6406 11.5801 -5.71461 -0.079738 7.29699
16 1 -17.9082 -1.41161 6.82875 -1.80612 6.62625 5.45515
3084 1 -15.301 -23.1544 7.07696 1.07677 4.72011 -0.54113
402 1 -1.1444 10.3703 17.2826 1.69895 -6.30704 -6.58022
28 1 -18.1634 6.15789 3.01163 2.41132 3.3366 0.475251
34 1 -19.7992 -23.2732 16.7409 1.93096 -2.14622 -2.20656
1967 1 -15.2685 -23.2796 17.0515 1.86366 3.30457 -0.0472812
43 1 -13.555 -5.66441 0.479562 2.65668 6.51411 3.52869
46 1 -21.8203 -21.6937 18.1671 2.75661 -0.377946 -1.1829
47 1 -4.08954 0.455114 20.6728 -0.04409 2.39517 -6.95322
51 1 -7.85186 -5.53914 18.4322 -1.4365 -1.73649 -2.94588
56 1 -15.9948 4.75574 4.49487 2.35266 -4.59051 -0.759807
1629 1 -5.05556 -24.6498 19.0133 3.47347 -4.97472 2.2057
3965 1 -4.92604 -1.7516 1.01473 1.69206 -4.51281 2.21827
1208 1 -23.1867 -8.23817 8.43687 -0.639357 -0.118023 -0.26345
1156 1 -16.0564 -12.8155 23.2765 2.9677 -1.6112 -3.78399
71 1 -8.55586 1.41518 2.58546 1.55752 -0.97394 0.75441
73 1 -11.2984 -17.2559 14.1484 -2.24842 -3.30391 -0.20272
3939 1 -22.5074 -1.72741 15.4983 1.30679 -3.27875 1.42357
1151 1 -24.2109 -22.5735 21.1387 -0.0533558 1.72131 1.02594
3896 1 -6.00688 -8.69191 0.447747 -0.981528 -3.41324 4.18039
3629 1 -1.20342 1.28823 0.90585 -2.1203 5.78363 2.42168
3682 1 -24.2273 -22.5466 17.3447 -6.47424 -2.60474 2.47523
113 1 -5.5783 -7.11121 19.2781 -0.571213 0.889837 -1.64664
114 1 -21.5838 -17.6252 19.4562 -1.45754 2.63901 2.12542
315 1 -14.2593 -23.3877 3.12436 -2.20634 -1.33497 0.870226
122 1 -3.83357 3.90863 20.3086 3.11147 -3.82685 -4.92788
133 1 -17.7457 3.43856 14.9717 0.0863963 0.242078 1.63193
146 1 -11.3272 -9.48187 14.1715 -2.63273 -5.21354 -2.99628
152 1 -6.66845 -4.0342 15.9828 -2.1174 -3.2243 1.9193
159 1 -18.5217 -8.58402 11.5166 3.11714 -2.35845 -2.7828
162 1 -14.8813 -12.7644 18.7608 0.579856 5.7373 1.51487
3494 1 -18.5336 5.27632 21.6633 -0.940684 -0.23777 -3.3951
171 1 -12.8889 1.67816 15.3669 -4.75368 1.72977 -3.47964
488 1 -1.54386 -13.7798 20.8554 -3.01673 -0.87945 -3.30277
177 1 -2.49506 -20.8515 14.1006 -0.373296 0.528752 2.81676
1920 1 -22.0455 -14.0727 0.365041 -3.79666 5.80695 0.497594
182 1 -19.582 -2.74505 15.0145 1.78695 2.08642 -2.82204
189 1 -4.22751 -4.44497 2.08499 0.742464 -3.26107 -3.77094
1153 1 -3.39274 -18.7135 1.78887 0.967707 -1.02597 -1.27466
264 1 -23.3312 3.43114 17.2174 -1.75714 1.37995 1.41092
2691 1 -19.06 -22.882 21.0023 0.0534152 -3.36505 -3.10297
2383 1 -23.7807 -17.6724 5.73926 3.14995 -2.24892 -1.64021
232 1 -2.48208 -17.3182 12.424 1.77179 1.36272 2.27347
241 1 -22.0562 -15.3168 9.92289 -0.576592 2.73313 -3.5287
243 1 -4.53328 -10.6723 9.24154 -1.51271 0.189238 -1.59677
986 1 -2.83926 5.05369 11.9333 0.461681 -1.93042 4.50583
247 1 -23.0118 -7.90214 13.698 1.59573 3.97273 -1.97662
2067 1 -22.1151 5.94888 23.6614 -2.60819 -2.96198 1.49238
1999 1 -1.38659 -9.15882 22.0998 -3.05454 -1.57952 0.467929
1994 1 -21.8812 -16.2548 4.01702 -1.28866 -0.540293 3.70985
270 1 -22.3776 -15.9234 16.8646 3.70903 2.35567 -1.11559
273 1 -15.8059 -11.5151 12.1587 0.643605 -2.72161 1.7586
289 1 -4.68439 -23.0618 10.5798 4.1662 5.27243 -5.3655
291 1 -8.48836 -21.3355 13.1549 1.30672 0.228913 -3.45224
304 1 -19.5037 -19.7837 14.4257 2.81943 1.57099 -5.14921
308 1 -16.2098 -21.5638 3.78217 0.0870761 1.68911 3.22279
1991 1 -21.588 -21.9034 20.9638 0.959313 2.58479 -2.2242
319 1 -10.3421 1.98767 13.8103 -0.75299 -2.66608 -3.7199
2376 1 -14.3192 2.30765 21.7518 0.034499 3.98556 -1.16413
323 1 -15.3293 0.562009 3.77725 -2.46321 -0.122212 1.12989
1163 1 -17.4741 -23.9116 13.3299 -8.15649 -0.677784 0.98789
326 1 -18.1049 1.78529 2.01027 1.48985 2.40385 -0.764182
327 1 -3.92184 -12.2157 20.7606 -0.511787 1.64989 2.06183
61 1 -11.1688 -0.184692 1.51703 5.28647 4.76882 -4.08868
345 1 -11.3639 -4.08669 14.7105 0.463763 2.90375 0.964012
348 1 -9.27394 -5.00881 8.36836 -3.20401 -0.234384 1.9413
3686 1 -23.6408 10.7262 0.253403 1.42856 -5.26809 -1.63637
351 1 -14.7881 1.47465 13.1962 -0.251069 0.295044 0.808481
355 1 -2.78272 -2.06358 7.068 -1.93383 3.12929 1.43766
2070 1 -21.6738 -1.9578 0.170278 1.58152 -7.61249 -2.84274
1659 1 -5.41988 -23.5682 7.62801 3.04127 0.465166 0.415648
363 1 -18.7757 -19.8305 8.04433 1.13799 -2.8198 -3.41859
3893 1 -8.61089 6.73357 6.52825 0.528719 2.26546 3.75564
806 1 -1.55871 -13.6421 15.7962 -0.245793 -2.10817 5.1673
585 1 -8.46263 9.88578 17.2849 0.945779 0.66051 -1.49473
224 1 -13.1214 -2.92244 22.1937 -0.0807716 -5.65617 -4.03595
381 1 -23.1714 -19.2121 13.2457 -5.56596 -0.630705 2.59086
385 1 -6.37106 1.57417 19.1185 -3.64549 1.62435 -3.122
3087 1 -9.69117 -24.0388 11.8397 2.84024 0.534139 -3.62836
389 1 -14.0729 8.47411 4.98 -0.460981 -0.669302 -3.38237
5 1 -20.128 -18.5137 21.7952 2.35071 1.13624 2.87925
2485 1 -1.23945 -18.3464 6.10075 0.235593 4.30554 -1.05432
404 1 -16.153 -1.51198 1.6307 -2.28626 -1.39604 2.56564
3263 1 -24.186 5.90103 21.5941 2.38182 1.78146 -0.76993
412 1 -16.7519 -6.36618 5.85863 1.59085 -0.804794 1.81256
417 1 -11.4233 -3.92774 10.4921 1.06524 -5.35117 -0.262988
3155 1 -4.82515 -11.0454 1.74819 2.47249 3.56935 2.62162
423 1 -6.55936 2.70863 4.63246 -2.29846 -1.5578 0.29141
2655 1 -2.3463 -10.453 0.145777 0.123918 -4.17665 -3.22789
3749 1 -21.6367 -3.44598 13.1857 -1.36898 0.434342 -4.41499
448 1 -14.9684 -1.2704 13.0347 4.65403 -2.34739 -6.14651
462 1 -7.38064 -20.7719 21.364 6.63543 -2.85586 -2.29336
2674 1 -7.41073 -21.6019 0.556339 -1.59477 -1.27738 -1.45012
1223 1 -21.9182 8.57456 11.8305 1.81091 -1.49743 -0.070787
467 1 -0.976007 -9.91904 11.7018 2.63387 0.0910248 1.30446
472 1 -16.4893 -6.72696 17.8411 0.103968 3.29782 2.12591
2793 1 -3.84813 4.34326 5.16525 -6.42221 0.374576 -0.047304
491 1 -16.9063 -14.3605 11.1969 -1.95947 0.365211 -0.604119
500 1 -6.12783 -16.7854 9.34947 -1.95496 -2.16664 -1.21384
504 1 -4.94079 7.49 1.3917 4.95722 1.26835 -1.37977
513 1 -19.7231 -14.5695 13.7168 0.497345 -0.972326 0.0707381
197 1 -23.643 -3.74694 23.3791 3.64057 0.255069 -1.51773
524 1 -4.41675 -3.49281 18.0933 0.592359 2.16105 1.50646
529 1 -8.03458 -14.9928 8.55281 -4.38063 0.680818 -0.795754
530 1 -9.30869 3.96147 9.87326 3.30599 -1.62615 -4.52369
533 1 -12.7539 -22.851 12.6487 2.45433 0.854451 -2.27887
538 1 -17.0209 -6.21358 13.7832 -4.94257 1.0349 -2.52168
540 1 -9.43834 -10.6282 3.77509 -3.17118 4.66256 -1.74661
541 1 -14.2816 -0.823276 16.1714 2.85 1.435 -1.83013
549 1 -20.0346 -4.98898 7.02825 -2.46748 0.210105 1.77801
1971 1 -22.0357 -2.72244 9.13979 4.90301 0.767724 -2.99972
558 1 -5.16844 -14.8248 12.9911 0.451168 -0.549898 -2.26909
559 1 -7.47424 -19.5302 8.89423 0.202786 -1.43216 -1.29361
564 1 -10.727 -21.5318 10.1656 -0.625112 2.1498 -7.87258
581 1 -16.4974 -8.80644 14.8263 -3.69861 -2.50229 0.90833
592 1 -12.6931 -13.8721 13.5249 4.04263 2.08529 -2.23391
593 1 -10.4213 -23.1219 19.7215 2.03491 -1.42807 0.311133
594 1 -19.948 -1.66348 3.15846 0.211075 3.68468 0.429502
596 1 -10.9476 -19.8345 7.80223 3.16416 4.36973 0.387619
602 1 -8.16748 4.18313 18.7145 0.969431 -1.98422 0.858173
605 1 -21.447 -2.81449 19.2401 -0.228797 -1.19808 1.13963
3130 1 -24.0895 -10.1105 10.265 4.64708 -2.24107 -0.34468
622 1 -21.7809 -9.97299 0.712902 -0.355674 3.26127 -4.21533
631 1 -4.46694 -17.2032 14.6823 0.189734 -2.4823 0.516804
632 1 -13.9852 -19.7157 4.67914 0.876222 2.08145 0.92811
634 1 -9.06724 -2.80251 17.2831 2.5599 0.0599544 1.35437
642 1 -9.20768 -2.20081 7.92912 -1.22107 -2.25267 -4.52007
650 1 -8.186 -0.381915 20.1396 -0.446561 -4.73208 3.94782
664 1 -15.371 -20.9317 13.7899 2.37486 -4.60524 1.18727
665 1 -2.66323 -6.43101 18.8484 0.179834 3.5731 1.20074
2247 1 -22.4658 -12.4106 10.312 -2.44227 -1.35719 3.78158
686 1 -16.7599 -1.90959 17.4044 -0.555637 -6.1391 -0.472789
687 1 -12.5016 9.12808 11.1278 2.42372 1.29861 -2.05124
692 1 -7.14534 -7.85606 2.89023 -2.81826 5.36203 1.7459
696 1 -4.75076 -20.7114 8.83365 2.71101 1.82124 -1.45775
699 1 -15.2155 -12.7451 14.6659 -0.356413 -4.58095 4.38041
702 1 -16.4385 -6.58349 11.1907 5.39477 0.209351 0.867579
704 1 -7.55512 -10.7936 15.8217 -1.72543 -2.37456 -0.802235
707 1 -14.845 2.86505 18.8545 4.97766 -0.297662 1.42645
710 1 -2.00943 -7.55856 10.5174 1.01835 4.32187 0.68173
2010 1 -8.04404 1.33238 22.8455 0.981057 -2.26589 2.69724
718 1 -12.065 -7.20627 2.24132 -4.33618 -1.02419 1.96978
726 1 -3.57216 -10.6326 17.9856 -0.452037 -3.01469 -1.66185
733 1 -13.4339 -17.4637 6.2256 6.30089 -4.25949 -1.47259
738 1 -11.7851 5.31199 17.2078 1.63935 -0.499489 -3.09746
739 1 -16.7911 -16.1948 2.71155 1.25434 -2.59478 -0.989493
3222 1 -15.0874 -18.538 2.13822 -2.00506 2.38795 -2.71756
2219 1 -10.8134 -22.2376 14.7436 -2.77853 0.268693 8.24334
3842 1 -21.7897 0.0100181 22.9102 2.87541 3.38755 0.534993
748 1 -10.7003 -22.772 22.6015 -2.22655 -1.59351 4.62495
2984 1 -3.16059 -4.05243 20.6269 -1.21336 -1.28026 -3.02768
758 1 -12.8862 -19.832 20.7103 -0.675932 -1.39928 1.92236
1371 1 -21.6586 8.21742 0.339497 2.60977 2.12395 1.22935
768 1 -5.40106 8.62308 7.8873 1.6507 3.11026 -0.540962
781 1 -15.6278 -0.94896 8.52002 -0.364767 3.38025 -4.8046
788 1 -20.9295 5.87679 4.55753 -0.00947622 -1.0172 -1.90487
797 1 -16.7236 -15.2191 14.1302 1.09505 0.426502 2.31968
800 1 -17.5558 -13.5432 17.7751 1.15816 6.24414 -1.24652
802 1 -17.9752 -19.4841 18.8036 1.14176 1.40457 -0.801238
93 1 -17.6851 -23.8598 18.3195 -2.74405 2.80596 -5.53404
818 1 -9.04472 6.79304 19.1226 0.702031 2.65951 -2.40776
825 1 -23.5582 4.60673 4.08784 -2.09968 1.73546 0.899192
89 1 -10.2311 -3.89798 22.7502 1.98202 1.46772 -4.51377
828 1 -6.65956 -19.2981 14.1387 0.725986 -0.33717 -3.17447
830 1 -10.143 -10.3721 20.689 -3.14519 -0.329518 -1.08719
832 1 -2.636 -4.47221 10.6538 1.96741 3.76296 -0.219613
854 1 -22.3334 -12.0758 2.72776 -2.21193 4.23447 0.547885
3673 1 -3.01449 -22.5231 19.6444 -1.43808 -0.123864 0.0368169
864 1 -12.2006 1.85471 18.5152 2.99257 -4.04114 -4.7455
3475 1 -22.7374 -13.0864 17.5551 -1.05137 -0.277131 3.23373
881 1 -2.84736 -4.52982 23.5176 0.779824 -1.46543 -0.0130396
889 1 -13.3003 -3.47293 16.9289 -0.667822 2.95531 1.88106
891 1 -22.9366 -0.797871 2.45224 2.03777 0.276116 -2.92182
108 1 -11.1158 0.789782 23.2047 -4.01648 -3.59455 2.13867
3844 1 -20.3225 -14.7904 5.60481 -0.392614 -1.85493 -6.90478
908 1 -7.04961 -17.1925 12.2443 -2.91463 -4.34766 -3.67407
916 1 -16.2987 -17.7033 20.814 1.63146 3.47135 2.33437
2245 1 -24.0369 -21.8122 8.8583 -4.40046 0.539115 2.48034
3223 1 -22.8888 8.46742 20.7882 -0.569625 -0.918009 -2.17914
3015 1 -3.09702 10.6822 8.89198 -2.67984 -0.690306 -0.603099
946 1 -12.9679 -8.88476 5.66019 2.90138 5.26149 2.95982
950 1 -19.6031 4.40984 11.7935 -0.87731 -0.219518 -3.66438
957 1 -5.45566 -1.47081 15.4158 3.46494 -2.9702 -3.81113
2784 1 -11.4082 2.16188 -0.0610385 0.260099 -3.25191 -3.75735
960 1 -2.50257 -22.0151 5.57518 3.52489 -3.20502 -0.662375
966 1 -15.1249 -5.42837 15.7193 2.56496 -3.52581 1.36665
973 1 -11.1322 -3.45203 19.1142 -1.87882 -4.92354 -4.95681
975 1 -8.65705 -10.4439 6.74349 -2.4498 1.79107 0.76483
976 1 -16.3291 -7.79537 8.71455 -0.989404 1.66763 0.966808
982 1 -4.19493 -7.23222 3.43849 0.857283 -0.520684 4.61736
983 1 -19.1522 7.15966 19.3656 1.57316 2.26522 1.5152
362 1 -21.9894 9.7564 4.99683 -0.146455 1.01522 -1.32957
987 1 -20.975 -20.2187 11.7956 -3.64468 4.16665 3.73783
988 1 -9.50288 -23.5731 8.90294 -0.981139 -0.242133 -3.4651
991 1 -3.50968 -5.87295 5.89876 -0.413583 -0.539852 4.15836
3591 1 -5.89394 -13.8019 21.6118 4.17007 -1.88415 5.00208
2915 1 -13.3515 -12.7746 23.6467 -6.05595 0.281175 2.38844
1864 1 -6.09836 8.81172 22.2377 -2.24671 -2.14261 0.22422
1002 1 -11.811 -15.4792 5.35402 -0.808831 1.51858 -1.61419
3582 1 -14.8834 -23.8792 14.2103 -3.42289 3.08761 3.48651
746 1 -14.618 -5.57584 22.5735 -4.4588 -3.27766 -1.72392
1016 1 -19.8852 4.0292 6.4438 3.34784 0.160632 2.11741
1017 1 -4.28327 2.95907 17.7163 4.35521 5.37594 4.61248
1018 1 -21.6463 -19.8438 5.19507 -1.77895 -2.76035 -6.38623
464 1 -13.0771 -23.8938 5.64253 -1.30096 1.00959 -1.09708
1027 1 -20.8336 -7.04164 11.7475 -1.01859 1.64321 -4.45661
2276 1 -1.16166 10.4913 2.49567 1.767 -1.48751 1.57197
1037 1 -9.57694 -17.7596 16.419 2.27376 -3.94617 -0.0389194
1038 1 -3.82464 8.36319 11.1051 -1.3746 0.36085 3.67544
1014 1 -20.6909 -22.8674 2.09027 -4.69313 -2.46106 3.72759
1047 1 -14.3867 5.10471 20.6922 -1.51434 -2.8562 -3.50833
1060 1 -15.7497 -11.6061 9.24382 0.3369 0.625204 0.213877
1062 1 -8.616 -2.2469 10.6366 0.228582 -3.72577 -1.40857
1067 1 -18.71 4.80792 8.99172 1.09603 0.979709 3.29964
1070 1 -8.10577 7.84239 9.32099 -5.96154 -1.02863 3.92559
1079 1 -13.7444 -5.43659 11.0206 -2.18557 -2.58729 0.356756
1089 1 -16.5072 6.5054 16.3972 -2.68405 0.798049 1.19383
1075 1 -1.4585 10.0944 12.0923 2.92029 0.236263 5.47739
1098 1 -11.725 -6.00439 20.104 3.92121 2.81192 -0.865983
1104 1 -20.6291 -0.454214 7.85386 -0.596843 0.594566 -0.099947
1106 1 -15.6838 -15.8062 6.56794 2.43183 0.705072 -2.87406
1109 1 -19.7029 -13.0127 3.14316 0.438788 0.94591 -1.58876
1112 1 -2.17623 -14.8956 18.2364 -0.373526 -7.80597 -2.78672
1114 1 -17.7946 -4.22661 10.4263 -2.24174 -4.50434 2.65348
1116 1 -13.048 0.441728 8.63961 0.799897 -1.35411 -3.93087
1536 1 -6.97221 -1.11957 23.7715 -4.09235 -5.50087 4.40204
1138 1 -22.847 -21.7811 3.74197 -6.39999 2.30271 1.06617
3497 1 -15.0079 11.0502 18.0994 3.1048 1.51063 6.51593
2653 1 -9.15412 6.38021 1.61798 3.00592 2.46307 4.13812
3518 1 -3.35344 3.02931 0.993684 -3.05833 0.605654 -2.77995
1996 1 -8.56619 7.04241 21.9926 4.3982 -5.91822 3.25225
3147 1 -0.589637 -15.5061 2.93187 -0.619958 -7.21985 -1.32633
1478 1 -5.0926 7.68333 4.39881 -1.41178 2.98164 -3.62448
1158 1 -16.9953 0.88477 18.0473 -0.239894 -4.45739 -5.24778
2021 1 -5.54122 10.7281 10.696 -1.55508 -0.800287 0.010619
1164 1 -19.4626 -15.9667 10.911 -0.255154 3.78988 4.29207
2170 1 -7.89551 -17.7224 2.02704 -1.89589 4.29145 -0.520412
1178 1 -4.07076 6.23929 9.21606 3.00003 -4.94984 -2.54975
1205 1 -4.92229 -21.1487 12.6531 -1.10749 6.14325 -3.01099
1211 1 -13.8139 -13.2206 10.8565 -4.58606 -0.612544 -1.47108
859 1 -14.0355 -9.8651 0.36445 -3.9663 -5.26897 0.537565
1236 1 -3.48125 -21.8115 16.7955 -3.32914 2.04387 6.1087
1148 1 -10.1599 10.5117 7.45823 -3.28795 2.61701 -1.20924
1240 1 -5.22012 -23.256 4.79109 -3.195 -0.674031 0.61239
1244 1 -16.8086 -1.6513 10.919 -6.02183 -2.81988 -2.24225
1246 1 -4.28172 -15.268 6.0732 0.0919291 2.82709 -1.77406
1254 1 -19.6912 -18.3822 3.63168 0.299818 3.34238 -6.28251
1255 1 -1.67637 -8.22478 5.41067 -4.72896 -0.646892 -2.0675
1258 1 -12.8346 9.27877 18.8177 -2.2501 -3.64022 -6.04282
1272 1 -21.028 9.35269 18.471 -2.95078 0.589435 -1.77292
1033 1 -3.15981 -14.481 1.98467 -0.673909 -1.53584 -3.53206
1159 1 -24.1782 -4.0612 16.0337 -1.33821 4.04712 2.87569
1305 1 -5.47064 2.29243 9.54629 0.894561 2.37594 -0.11767
1308 1 -17.3886 -4.1013 7.58349 0.732324 3.54679 -0.977662
1312 1 -16.2086 -9.91906 4.07844 4.04548 3.65723 1.1411
1608 1 -21.8278 5.05853 8.73468 2.33661 -2.69416 3.62023
1361 1 -7.67708 -21.9714 7.28404 -4.30183 0.251528 8.17213
1367 1 -5.99321 -13.307 15.3695 -1.28124 -5.06405 0.388436
1373 1 -14.0832 -8.85452 13.2615 -3.77648 -0.0390334 0.89791
1379 1 -17.2352 -17.8681 5.12704 2.28354 -0.559728 2.51676
1386 1 -18.0253 9.27046 2.95397 0.911134 4.42359 -3.22494
173 1 -18.8378 1.03924 23.0227 -2.55605 0.775626 -0.424029
1396 1 -15.4057 -9.78868 6.87189 -0.705065 1.54487 0.259903
753 1 -15.5667 -19.3352 23.1652 0.738205 -0.539715 3.72122
1415 1 -6.79868 -21.0861 3.34738 -3.70297 1.12772 -2.21279
1416 1 -19.0171 -8.59736 8.35294 0.328456 -3.9735 -0.220657
1428 1 -4.61614 -21.2811 21.8995 -1.92311 4.53248 2.64022
1429 1 -19.132 -17.0604 7.02472 -4.85046 -1.01175 -3.87635
3163 1 -22.0273 -0.417644 17.9034 2.99972 0.0601364 2.28654
3941 1 -16.3782 2.43906 23.5683 -2.39988 6.42497 -3.58789
1441 1 -18.7963 -13.7403 20.2223 3.58577 0.650791 6.17269
1448 1 -18.1459 0.325024 4.71399 -0.310963 1.18556 1.16342
1462 1 -9.01978 -19.1673 11.3241 3.70982 -2.62288 4.66085
1470 1 -2.20849 -11.8945 2.95371 -2.94158 -3.23748 0.942074
3403 1 -12.3901 -21.9561 1.35979 -4.18865 0.135262 -0.792897
1486 1 -19.3681 -6.57166 17.2013 -5.96649 2.8799 -1.99225
1488 1 -18.1521 -17.8173 12.9129 1.21815 4.3844 0.542577
1495 1 -21.4306 -9.01321 22.6472 1.2043 3.27196 -1.7595
1498 1 -13.7762 5.05571 10.6486 0.526104 -6.90692 -0.0940316
1800 1 -1.74251 1.64019 9.81179 -1.77733 -7.2886 3.84954
1513 1 -19.8245 1.08204 19.559 4.16246 0.526051 -1.69355
929 1 -8.5564 -13.2008 0.8631 -6.90933 4.38055 2.0642
1239 1 -2.34356 -23.9635 7.67842 0.377251 -0.485722 1.42097
1521 1 -8.31835 -9.5963 18.2782 1.28642 -4.79142 0.0564231
1523 1 -6.40143 5.00609 12.7572 -1.59559 -5.15434 -5.59572
3642 1 -0.589062 -14.1657 7.98414 -1.25669 4.333 0.904475
1529 1 -7.52794 0.67687 10.5213 -1.69862 4.2396 -0.739656
1534 1 -11.8163 -9.05265 9.5281 2.78191 -0.238353 1.11321
1542 1 -20.9151 -6.88471 20.7436 -4.22707 1.43609 -5.04007
1545 1 -7.83803 -15.2838 16.5703 -2.02028 0.597455 2.8036
1546 1 -14.3613 -14.615 20.7659 -0.920688 0.812123 0.265568
1560 1 -17.8925 -20.4933 21.5815 2.4453 2.58393 1.37495
1563 1 -2.89377 -5.20629 16.2632 -2.37284 2.16754 0.954147
3936 1 -0.598687 -23.4426 23.1386 -0.30021 -0.777976 -3.40304
1573 1 -8.84603 -12.5549 18.9368 -6.57448 1.10961 2.55641
1581 1 -6.24087 -6.54622 12.5513 -0.636857 0.671294 1.80424
1584 1 -3.40567 -5.51245 13.2682 2.44277 2.52051 4.68034
1585 1 -8.09605 -12.2129 21.8435 0.371702 -2.48632 -0.668571
3875 1 -24.2392 0.505276 6.45885 0.216648 -0.149225 -1.07256
1599 1 -20.5179 -4.42673 10.642 -5.5091 0.635882 -0.636948
1612 1 -22.9511 -18.6126 15.863 0.469707 0.0293079 2.58763
1614 1 -15.3849 -13.7255 2.57493 -1.31875 3.29184 3.20099
1621 1 -16.9579 2.93848 12.2351 -2.92126 0.985798 -0.678951
1623 1 -7.11658 -19.7278 16.8082 -1.93435 -4.63903 -1.40934
373 1 -15.0501 6.26365 23.0882 -0.677092 -0.299513 -1.16721
207 1 -4.3211 6.54467 21.0605 1.48727 3.72365 0.593498
1644 1 -18.4402 0.497357 11.6959 2.22168 -6.19893 -6.0155
3912 1 -7.28463 -12.2105 3.34871 -0.73546 0.273603 3.24264
1665 1 -6.14073 6.68456 18.4292 0.93787 0.940189 -2.90039
1667 1 -11.8601 -6.36765 8.87541 -0.972055 -1.84285 2.68273
1671 1 -12.7813 9.98209 21.5991 0.682859 -1.66817 -0.473573
1690 1 -6.43731 -23.3078 13.7751 5.04974 1.07132 -3.67521
1691 1 -15.0873 -12.8907 6.63684 -2.58997 0.823995 -2.97772
1697 1 -11.6671 -21.5139 5.71121 -3.02252 1.43992 2.57865
1704 1 -5.77046 -12.6092 5.65063 -0.135073 2.41279 7.38502
1707 1 -9.6251 -7.19223 16.989 0.788937 5.877 2.61668
1711 1 -5.58795 4.79202 1.69823 1.40059 -0.672749 -0.799942
944 1 -14.5011 -0.407231 20.7946 -2.63566 3.27126 4.40182
1729 1 -14.5401 8.35882 15.0475 3.54554 -0.486443 -0.0284622
1733 1 -11.7418 -17.5299 11.165 -0.339855 -1.39602 0.123183
1739 1 -6.44374 -22.6309 16.6065 -0.146746 -3.68209 0.812484
1756 1 -15.5356 1.99091 8.05883 0.741361 0.837332 1.85247
1763 1 -4.69332 2.66214 12.5047 4.5687 -0.08458 1.39792
1766 1 -17.0087 0.591982 15.1147 3.42338 4.93993 -0.131891
1770 1 -9.02221 -5.87516 21.173 -1.51217 3.20387 2.39992
3289 1 -17.7876 -22.7952 10.7232 -6.60722 0.997663 2.11727
1788 1 -14.8558 -17.9255 16.6331 1.986 -1.75473 1.10511
1792 1 -13.8368 9.98558 7.33805 -3.89895 1.47623 1.53705
1807 1 -17.553 -11.5429 21.3461 -1.05345 -3.98134 5.53742
1813 1 -16.6037 8.78128 19.3861 -4.65124 1.13308 -3.64333
1818 1 -20.9392 -10.5052 4.76599 0.12256 1.92338 2.71364
1819 1 -12.8652 -12.6949 16.3986 -2.20194 2.12255 4.41534
1824 1 -16.0141 -18.7194 8.97948 0.297289 -1.62624 -2.78843
357 1 -5.48378 -13.5084 0.372628 3.13963 2.92186 -2.67222
1833 1 -6.98991 2.79842 16.4209 -2.66542 1.71232 0.51907
1857 1 -1.3662 -20.1225 3.55242 -1.17763 0.456634 4.66686
1844 1 -4.34056 -3.2785 4.92147 -2.63426 8.50281 -6.31254
1865 1 -8.44565 -3.49969 4.57655 -0.674873 -1.66594 2.3037
1868 1 -1.68675 1.58909 18.7712 -0.230133 4.17674 1.74281
1870 1 -16.8174 9.91506 14.3549 1.33727 -0.828433 5.64836
1877 1 -13.9471 -6.41132 7.18216 1.66403 2.5873 4.99752
1882 1 -9.73397 7.32639 16.4297 -6.22298 -3.4918 2.65542
1889 1 -10.4985 1.14911 9.94653 -1.75796 1.34717 -2.9424
3933 1 -1.25547 -9.26725 19.0443 -0.728035 -0.879295 0.577341
1895 1 -20.7035 -8.58305 18.5367 -2.26658 -1.69715 1.58836
1900 1 -12.3594 0.0520429 4.2276 1.9281 -1.93488 -0.320203
1904 1 -9.29396 -21.9013 17.2234 -0.802858 3.70711 -6.32093
3816 1 -13.2705 -9.71812 3.05336 -1.26431 -0.521456 -3.80028
1907 1 -21.2489 -10.5898 14.1462 -4.91913 -4.1565 -2.51762
21 1 -21.9281 -0.472478 12.3699 -1.06845 -9.51791 3.19036
1910 1 -5.82408 -9.9987 12.1285 -0.0732729 -0.657839 -1.64359
2747 1 -3.49458 3.10543 15.1042 -1.39147 4.91079 0.699754
2522 1 -7.56931 8.64446 1.12018 1.32248 -2.31843 2.07756
1945 1 -23.1783 -15.2364 19.8305 5.59132 3.76995 -2.51803
1951 1 -5.18593 -13.3283 10.4059 -2.91922 1.29066 1.28026
1955 1 -10.2062 -19.9833 22.4863 0.245671 1.80302 8.47303
1956 1 -3.86605 0.393797 8.20524 2.34641 -4.019 1.45597
2601 1 -2.25995 8.99131 5.03216 -0.416813 -0.766001 3.00014
1969 1 -4.72337 -7.8548 10.3046 2.46475 -2.89112 0.706548
2948 1 -0.484857 -18.192 1.42974 -0.141475 7.17241 -2.46028
1982 1 -21.4608 -2.60279 21.8945 -0.24326 6.77655 3.29624
1987 1 -22.0427 3.31984 10.9809 -0.522503 -0.426425 -5.22986
1989 1 -8.83379 -15.9715 13.9517 -1.24633 0.555722 -1.01577
1020 1 -19.2117 -23.8778 8.57636 -3.96048 -5.21356 3.69206
1912 1 -15.4978 2.92119 2.15093 -1.69824 0.352776 1.07345
3425 1 -23.7856 -9.57352 18.8876 2.17975 5.17471 5.98521
601 1 -0.753756 -2.36155 20.367 4.05321 0.95727 1.69904
1267 1 -24.1024 -14.6484 2.82627 2.05137 -0.563069 3.10389
2014 1 -7.93454 -8.81236 13.5612 -0.823823 -0.649522 4.37141
2018 1 -11.9306 -2.11308 8.24442 -2.88409 6.21487 1.22416
2023 1 -19.7258 -12.1658 6.73156 -2.46173 4.07508 -3.79785
2032 1 -9.61489 3.47809 4.45299 3.03837 -1.73888 -6.93907
2037 1 -16.4121 8.71391 11.5635 -3.19516 -1.28348 -4.43196
2041 1 -12.2218 -15.2829 22.4467 -0.246983 1.05888 -1.2536
2047 1 -2.79772 -10.4994 6.49081 -4.4056 -1.39371 -1.00229
2064 1 -14.04 -16.4119 13.1565 1.74452 -3.49515 2.914
1359 1 -19.1989 -23.2313 23.7287 3.61842 0.458702 -2.0801
2071 1 -20.5861 -11.6909 18.9907 -0.715531 7.18477 -4.75437
2072 1 -19.863 9.87481 23.4163 4.32837 -1.48818 -0.568695
742 1 -8.00175 -22.903 23.3514 4.87383 -0.366636 9.36805
2077 1 -16.6508 -5.80567 3.00272 -4.68434 -3.54176 -0.207135
2086 1 -10.3558 -15.0155 10.136 1.47888 -8.89748 1.74042
2091 1 -9.58506 8.18749 11.9479 5.49242 -0.892439 -1.15153
2095 1 -19.8918 -8.94629 2.76674 -0.876003 -0.483137 -1.62565
2097 1 -6.79923 5.06947 9.87564 -3.95393 0.855411 3.50755
3495 1 -22.7229 -5.35825 18.7703 4.79242 1.33139 -5.73336
2101 1 -22.7937 -9.17491 16.2443 4.33672 1.28826 1.89629
3342 1 -2.42296 6.21826 3.79521 1.80018 -3.42535 2.88702
1401 1 -24.2189 -18.7065 19.2382 -3.23315 -1.20028 0.13585
2109 1 -3.39248 8.69246 19.3631 1.81685 -0.0697694 -4.06202
2112 1 -10.1664 6.22531 13.984 0.75128 4.04043 -5.85092
2113 1 -17.4359 -0.0609791 20.773 4.46846 2.65169 4.09427
2075 1 -5.57184 -16.3885 22.9963 6.51454 -0.353872 -3.68063
1730 1 -4.10025 -9.83841 22.7181 -2.62489 2.85777 0.0650529
2133 1 -12.2292 -12.9411 6.3573 -2.1085 -0.526977 -0.819169
2136 1 -3.95742 -19.6158 6.2468 -1.5085 1.03144 -4.31524
375 1 -24.1828 -6.52425 23.8701 0.637523 -2.26636 3.12202
2142 1 -17.3599 -11.3956 16.0672 -4.7249 -2.12853 1.258
2160 1 -18.5397 -2.10321 22.4522 2.26602 0.894596 -2.61104
2635 1 -1.55401 10.613 20.3427 -5.23857 -0.109 4.30193
2171 1 -3.98592 1.83097 3.54001 -0.397612 -2.12236 -2.02277
2181 1 -15.1843 -21.5551 21.2818 -0.220709 5.4615 -5.15389
2182 1 -2.14436 -1.56747 13.4664 0.384798 -2.6138 -0.536565
2188 1 -12.7197 5.69627 7.9423 -2.21691 2.75529 -4.45101
2512 1 -8.86896 10.9621 13.3872 -0.397623 0.26825 -0.894715
2200 1 -2.81984 -23.3381 3.09858 -1.23518 -0.867639 -2.37177
2218 1 -16.5221 -6.01482 20.5147 2.83055 -1.98314 -5.7641
589 1 -1.78835 5.31407 1.27926 0.623336 -2.28515 2.93924
2239 1 -13.6466 -10.1704 19.8245 3.65671 3.07683 1.7852
2242 1 -11.341 -16.6921 18.4562 -1.31959 -2.58481 1.81214
3498 1 -20.2112 9.24866 8.06947 -2.59239 7.27132 -2.29604
2259 1 -18.9202 -9.96941 23.3072 -1.78229 -2.27689 1.24161
667 1 -22.0883 -20.1734 23.3499 0.324066 -3.07237 0.795936
2266 1 -19.8715 9.56601 14.0328 2.55882 3.28443 -0.841784
2273 1 -20.4959 -19.1766 17.2992 -1.39734 -1.30766 -0.0107758
2274 1 -6.86831 -2.94118 19.4771 0.270995 0.563999 0.209796
1510 1 -16.1917 -11.9709 0.240169 5.45856 -2.78163 0.513605
2277 1 -11.5079 5.64032 20.3805 -2.75783 0.607047 0.965716
2279 1 -11.508 1.74435 6.27382 2.06961 -4.02554 3.23895
2753 1 -1.6525 -7.68899 13.4184 1.82043 0.337787 -4.40452
2312 1 -20.2608 -21.6795 6.67374 1.19037 -0.102072 -3.04038
2314 1 -16.2008 4.0648 9.82581 -1.4347 1.72701 0.157708
2316 1 -18.3933 -11.0283 1.4788 3.04165 -0.263787 -3.22924
2331 1 -15.4369 -18.7201 12.0155 3.0289 0.26993 -2.69614
827 1 -1.38784 1.29469 4.67619 -1.55543 -2.43491 2.1631
2355 1 -8.0287 -1.20572 3.21777 -4.67571 -6.88044 -1.24197
3275 1 -24.2423 7.49628 13.1888 -5.03544 0.365792 -2.78543
3181 1 -19.8613 -15.804 22.9703 0.633186 0.880569 1.83465
397 1 -0.63793 -19.6002 18.8191 -0.251141 2.97998 -2.48268
1511 1 -21.9374 -6.26207 16.1102 -1.31987 -1.13796 -4.02297
2387 1 -8.8721 -5.72086 11.4765 -1.80653 -2.32964 1.86755
2391 1 -6.41073 -5.49889 9.80425 -0.515662 0.00775355 -1.18219
2397 1 -16.199 -8.93897 20.7899 -0.0592997 2.58086 2.77553
2398 1 -7.74296 -0.00546754 15.5492 0.55697 4.27902 -1.69042
2399 1 -9.05957 -11.5334 10.4264 -0.869543 5.27204 0.316157
2407 1 -10.0964 -12.0057 15.0241 -1.68569 -4.91997 -2.21982
2422 1 -15.0941 4.01486 15.9163 -3.5106 -0.256211 -3.13876
2430 1 -15.5652 -9.26649 17.5087 -0.690134 3.38146 -2.54369
2436 1 -5.76309 9.81079 18.3894 0.361774 1.90494 0.232159
2437 1 -13.1805 -6.16158 13.7283 2.71219 5.6425 1.35812
1139 1 -10.8484 11.0145 3.23373 -2.49396 0.298979 2.86773
316 1 -23.1616 -5.76349 3.56163 2.79773 -3.46772 1.36474
2453 1 -0.851882 7.25257 11.6183 1.62262 0.249756 -0.0895316
2457 1 -3.19626 0.272123 11.6959 2.48338 0.137536 5.5242
3634 1 -3.47117 3.5216 8.01961 -1.15679 -4.15851 1.32596
2472 1 -19.6097 0.0316549 14.149 1.11646 0.347657 -2.45436
3924 1 -9.91993 -8.88986 11.5936 2.21572 -3.64839 -5.3107
335 1 -24.2269 -22.8807 6.0812 -0.463654 4.8668 -2.99301
3461 1 -12.889 -23.7658 18.5898 10.1979 -1.5782 1.43485
2486 1 -2.1749 -18.9137 8.76124 2.25095 -4.61218 0.139994
2498 1 -7.47565 9.72814 3.48989 0.108419 -0.291296 5.20288
2499 1 -22.243 -13.3555 7.57295 0.490661 -0.175629 -1.16113
2502 1 -1.63614 -11.2728 9.11425 -4.12227 5.24313 -4.66595
2509 1 -1.69318 -8.83045 2.46736 -4.39862 -1.57948 3.79435
2749 1 -12.5079 -10.1653 22.4436 -0.00977623 -6.32641 0.654398
2517 1 -10.3839 -14.0838 17.0894 -0.6176 -1.11947 1.1714
2708 1 -11.4931 2.85346 21.1824 4.37724 5.69493 -1.95736
2532 1 -12.8377 -14.3406 2.99393 1.12902 0.260751 -1.55095
2974 1 -23.7648 1.05119 21.2978 -3.01254 -0.707222 -4.05804
2546 1 -13.1313 2.34715 10.9273 1.18303 4.46399 -2.56645
2547 1 -13.4752 -3.99437 4.83564 4.49105 2.08674 -3.70166
3998 1 -12.7918 -2.50969 0.621885 -1.48833 4.04316 -1.86064
2556 1 -7.1153 -12.555 12.5054 3.20307 0.71259 2.32296
2559 1 -17.9608 7.15152 7.83401 0.49158 0.921703 7.70469
2561 1 -7.486 -3.76103 12.944 -1.90905 -2.8961 -1.22306
2579 1 -11.3437 8.64947 1.34771 -0.806054 2.36404 2.01955
3468 1 -6.93232 -10.2439 23.3521 -0.419817 -0.440191 1.96746
2626 1 -1.10688 4.97996 20.9702 3.27231 -1.93471 4.53866
3876 1 -22.6366 -11.2924 20.9279 2.24685 -1.88298 -1.56797
2599 1 -6.42044 0.108723 6.3564 0.969242 1.4089 1.07405
255 1 -22.4144 -22.6446 11.0687 0.273708 5.81076 -4.09164
2612 1 -13.3114 -20.9177 17.9394 1.51024 -0.781995 0.252177
2613 1 -20.8919 5.16756 18.3038 -5.53629 1.78302 -3.38948
1048 1 -1.33451 -1.25438 17.893 -0.914078 0.179955 -1.68204
1120 1 -5.6467 -16.7658 0.415344 5.81357 -4.70873 -3.03363
3536 1 -24.187 -15.6387 7.91735 -8.24168 -0.215615 -0.929525
2108 1 -14.2169 9.04791 1.16347 1.60318 0.726693 -0.0191258
2629 1 -20.8316 -2.52217 5.76177 2.6524 1.06645 -2.62758
2630 1 -12.9392 -9.73456 16.4187 -4.73954 -3.06919 2.64196
2636 1 -12.7041 -19.8961 15.2873 -0.65722 -0.647539 -2.02157
2642 1 -5.04801 -15.9498 3.20612 6.20323 0.69693 1.00413
2647 1 -12.0648 4.56778 4.09192 5.1508 -0.814953 -0.579308
2650 1 -6.64554 8.13113 11.9951 -2.45375 1.77301 -0.31672
2651 1 -19.7153 -16.8147 15.6659 -2.45291 0.42447 -1.13771
42 1 -13.3821 -16.4002 0.895033 0.481583 -1.90665 -0.350956
2657 1 -9.11475 -6.15246 5.75681 -1.97916 -8.65172 1.59878
2658 1 -2.95889 0.426571 15.3193 -2.07103 1.19537 -4.19481
1562 1 -1.48116 -4.29076 0.776977 -4.31333 2.75797 2.96028
2663 1 -8.14328 9.47623 20.094 0.0840977 0.686697 -1.36597
3045 1 -0.609056 -1.40118 3.17857 -0.697466 2.70533 -3.08194
1631 1 -22.9508 -19.4247 7.9364 0.390569 2.3185 -1.84986
2682 1 -21.1468 1.70849 16.1307 -1.7501 -1.83492 -3.09026
1742 1 -1.25461 -6.25713 21.4929 -1.3881 -3.37755 2.9176
3751 1 -2.18336 -1.37689 0.650374 6.65308 -4.19541 -0.557549
2694 1 -3.13466 -17.673 21.9125 -0.725569 -2.66159 -0.58575
2700 1 -5.46791 -18.7214 3.7724 1.81182 -4.8193 4.5297
2478 1 -3.46261 -21.6378 0.858386 0.811743 0.856771 -2.08038
2707 1 -10.6384 -15.2612 1.3249 1.42556 -2.80463 4.41731
64 1 -9.01171 -1.74877 0.671673 -0.927237 5.41892 2.47303
959 1 -12.6966 -19.6169 23.7682 3.88064 -3.87672 3.08923
2724 1 -5.92718 5.81362 6.67216 0.249368 -0.47357 -4.6602
2730 1 -4.41955 -18.5661 11.0272 2.76837 3.82371 0.246731
2538 1 -6.27493 5.11651 22.5536 3.92551 1.40888 1.14639
2738 1 -7.16762 8.88114 14.6206 0.161433 -4.94561 6.21087
2739 1 -11.7391 -8.55419 18.7139 0.0341727 0.509504 6.57065
2741 1 -7.46803 5.65609 3.92211 -4.25132 0.883656 2.5227
1661 1 -19.0786 -3.67616 17.9169 -2.54043 3.52984 1.38475
1432 1 -9.98261 11.0281 21.4657 -5.67622 -4.39558 0.907029
999 1 -22.6092 7.88258 8.992 1.83509 -2.68477 4.04235
2759 1 -17.2324 -15.9555 8.91683 -3.53168 1.80349 1.05965
2761 1 -7.02979 -14.9032 19.2086 -3.18124 -3.65541 -1.23995
2762 1 -9.65433 8.88326 5.01627 -3.58865 1.02799 -2.1339
2763 1 -4.63348 -13.5424 18.1211 1.00363 -4.03535 1.25589
2775 1 -2.72047 -18.8569 16.2125 0.132444 5.27646 -5.86891
2792 1 -7.0085 -5.08449 2.42648 -2.32771 0.598241 -4.10164
1685 1 -17.4336 10.8619 22.8227 1.65619 -1.05133 -0.952607
2566 1 -22.7123 -12.7356 13.1262 -2.78752 -1.23502 2.5784
2822 1 -14.781 -3.74647 2.43561 -1.36773 7.15382 -1.59963
2830 1 -22.42 7.80337 3.06609 3.88035 -1.6566 -0.47554
2833 1 -21.6538 1.8002 6.28158 3.0734 -0.0837254 1.21284
2834 1 -8.72331 -18.3895 20.3694 1.05929 3.60013 1.48195
2846 1 -22.1616 1.87995 3.46928 0.0812158 -0.311354 -0.167443
1045 1 -7.28047 -3.84521 22.291 0.438937 1.89223 -4.8712
2860 1 -20.38 7.70751 21.9856 2.0978 -1.78407 -9.62611
2869 1 -18.7689 -16.5414 19.1391 3.86775 -4.09569 -3.9054
2873 1 -11.3173 -2.31991 5.17162 0.874208 5.32923 3.05589
2880 1 -4.7858 -2.67195 12.96 -3.89361 3.52117 1.2838
2882 1 -21.354 -13.9752 21.7303 -2.25115 2.43344 -0.708302
3017 1 -11.1193 7.65193 22.6365 1.75236 7.65965 4.34466
2894 1 -7.34402 5.81585 15.5098 -1.26597 -0.480526 -0.811735
2896 1 -10.1408 2.83109 16.6379 -1.60729 1.59003 0.62092
2899 1 -5.17326 -20.2801 19.0135 0.437842 1.83236 4.75407
2903 1 -11.9506 -11.8348 3.94769 -1.12264 2.61972 -4.05135
2910 1 -14.3384 7.03834 18.5366 -0.23678 -0.8505 3.98628
2917 1 -11.9122 7.35751 3.99744 -1.77428 1.33014 1.23148
2923 1 -12.6484 -1.05827 18.6688 -1.04253 6.6311 1.43467
2954 1 -14.4419 -3.57417 7.58386 -1.92134 1.93826 0.26657
2592 1 -1.29343 -16.4949 9.80406 -2.35548 3.1498 2.45748
3873 1 -4.36916 6.86434 13.8786 -3.45531 -3.4503 -0.139669
2969 1 -4.23832 -0.668565 17.7999 -4.44476 -3.64525 0.384161
2981 1 -11.9231 9.13496 16.122 -0.676182 2.45164 1.36422
2982 1 -11.7945 -6.37912 5.08441 -4.64873 -0.546078 1.38475
3785 1 -3.05794 -23.8245 22.3488 -0.136074 -1.81767 -2.89309
2985 1 -9.74138 -13.7052 12.6017 0.744058 -5.10896 -0.0207276
2997 1 -6.04982 -17.4933 6.5266 -0.1849 -0.161874 1.73998
3932 1 -23.5884 4.7531 14.5253 -0.254704 0.0346935 -0.205675
3009 1 -15.1806 -22.8233 9.92395 -3.93461 -4.65162 1.18687
3195 1 -18.8373 -0.801347 0.773242 -3.001 2.11843 4.6476
59 1 -18.5803 10.9511 18.0719 2.54779 -2.36036 1.46672
3019 1 -18.0165 -20.1231 10.725 -3.88477 1.32798 -1.28967
3020 1 -11.3081 -10.3548 7.23222 1.75663 1.72012 3.89738
3033 1 -13.8731 3.61661 6.39294 -2.08174 1.49691 1.82161
1940 1 -18.7894 -22.7342 4.2492 0.973591 -0.416778 -0.933589
4000 1 -15.363 8.95894 22.1762 3.63332 4.96203 -5.10848
3074 1 -7.04384 -8.35626 5.72481 -1.78492 0.332384 2.45424
3081 1 -19.4539 8.32957 5.48254 -1.81981 2.0538 -0.410774
1656 1 -5.16745 10.7062 15.7943 2.33079 -3.11214 4.44128
545 1 -23.6854 -16.7854 11.8867 2.75086 -2.69916 -1.67545
2622 1 -1.81125 -19.9304 21.4088 0.732671 -0.323587 -1.11098
3091 1 -5.32756 2.40538 22.463 1.40384 0.0476048 1.52158
3092 1 -9.39959 -8.40972 22.7335 -0.0828824 -3.49537 -0.182607
3098 1 -8.75779 -18.44 6.39321 -0.93977 -2.8662 4.50978
3869 1 -7.55844 3.47155 7.49368 -4.79344 0.520479 4.73646
3104 1 -18.508 -8.45811 5.56476 4.21674 -0.61517 2.3324
2537 1 -1.51048 -23.691 14.179 -3.68774 -0.965205 -0.208818
3119 1 -4.72404 -10.0303 4.68115 -4.33305 0.512302 2.03184
3907 1 -20.7827 0.784823 10.1392 -4.16997 -3.49601 0.900599
3129 1 -2.20315 -14.7274 13.1475 -4.40425 -2.82686 -2.57058
3136 1 -16.2027 -20.1949 6.54575 4.58096 3.42303 -0.252079
3903 1 -17.3311 -12.4923 4.65396 1.25987 -5.75656 -1.26825
2930 1 -21.7871 2.55648 0.785489 -0.380486 2.18534 0.745075
3164 1 -20.2007 3.11465 21.7997 -1.49613 6.01404 0.831697
3168 1 -16.1129 -20.306 16.9223 0.98934 -1.21792 -0.609276
3172 1 -6.58966 -2.74568 6.66991 -2.20843 -0.513302 -2.639
3943 1 -19.4168 -20.4324 1.57066 1.9422 -3.08174 0.4745
469 1 -22.389 -15.5001 13.911 -4.96521 -6.88134 -1.26822
3187 1 -19.6366 -15.5769 2.01447 3.06886 2.60366 0.833493
3194 1 -17.2183 -8.14332 1.84848 1.27376 -2.70796 -5.6485
3216 1 -24.1659 -1.29715 10.8139 -2.49566 -0.132353 -4.78887
3197 1 -5.79634 10.208 5.45429 3.47579 1.54181 -1.74592
3201 1 -17.1772 -2.94018 19.915 5.79574 -3.31571 2.06705
3204 1 -14.338 -9.25654 10.3968 4.06467 0.376948 -1.95695
3220 1 -3.64538 -11.7629 14.9895 -1.24773 -0.201367 -2.64076
2732 1 -0.878716 3.95584 5.04185 -5.60447 5.22736 -2.28922
1393 1 -1.63664 -3.81091 3.57783 -2.45314 4.0187 2.2751
3225 1 -10.1123 -6.83842 14.2411 -4.83419 0.123246 -2.93164
518 1 -22.6281 -21.1935 0.203208 1.67863 -2.4261 -1.56912
3239 1 -13.0887 -18.6301 8.99392 -8.08283 -3.3287 -2.56724
3257 1 -8.65913 3.94082 21.4771 0.618581 -2.47968 -0.0735027
3258 1 -18.7368 -5.56105 21.917 -0.0441432 2.59127 -1.06414
607 1 -1.31303 -3.09553 15.7365 0.862507 0.908643 0.470537
3277 1 -1.37269 -15.4842 5.67598 2.21767 5.06537 3.33213
3281 1 -3.27006 -11.648 12.1203 1.06689 -1.04192 0.769721
3283 1 -5.50078 -1.15329 10.2577 1.89169 0.9782 0.451605
3287 1 -5.79659 -17.1098 17.2832 -1.54039 -4.50669 -3.3037
3070 1 -23.6746 -7.13735 0.949556 4.54537 0.323747 1.98937
3296 1 -17.167 -16.2369 17.0163 -0.968243 3.77656 -0.995532
3302 1 -17.9801 -10.1973 18.7649 1.19394 0.670151 -1.3431
3861 1 -17.1394 -15.4452 22.4174 -1.85619 -1.23005 -1.82194
3312 1 -21.5653 6.32268 15.7614 3.03703 0.314568 -1.20228
3318 1 -9.79203 -0.0687815 17.8403 4.1849 0.315347 -2.10187
3321 1 -10.6105 -19.6115 18.555 -4.46838 3.04867 -4.6217
3332 1 -2.23149 7.23947 22.61 3.04431 1.24962 4.65826
3014 1 -23.6267 9.52054 23.2542 -1.2538 -1.31242 -1.05883
3348 1 -9.46029 -19.649 3.86676 1.58242 3.27176 0.412258
3350 1 -4.29725 -9.15006 14.5711 -0.28762 0.926965 -2.33974
3351 1 -20.1902 -12.7189 16.1408 1.95547 2.70528 -1.08169
3353 1 -22.7288 3.72342 20.2817 0.200422 -1.02543 -1.5085
3360 1 -7.48658 -22.8364 19.3973 -2.027 -3.97897 -6.23036
3371 1 -11.3161 4.35222 12.2663 4.63029 -3.52408 5.5991
3376 1 -14.1907 7.16644 12.3914 3.23462 -1.68982 1.13337
3983 1 -19.0912 7.50259 12.0631 9.00347 -3.08019 -3.73582
3387 1 -19.1112 -4.24763 2.65023 -1.24274 -0.397501 4.39285
3388 1 -20.0723 -5.7773 14.2589 -0.128324 1.41039 3.66361
3391 1 -8.05813 -15.0115 3.23804 -3.78584 2.09672 -1.62727
3394 1 -10.6139 -0.581024 12.3585 0.209681 -1.8803 0.038079
3397 1 -5.01784 -2.01929 21.7873 1.10652 0.58643 4.04812
416 1 -22.8686 2.05174 13.7163 1.06003 2.07289 -1.83222
3409 1 -2.98106 -17.6105 18.8456 0.242219 3.05378 -0.101775
3410 1 -18.3234 -10.6535 13.4022 -3.70461 4.47608 2.63384
3411 1 -6.68833 -7.79946 21.8698 -0.294368 -1.09438 -2.6402
3417 1 -18.5902 -11.4902 9.17179 -3.82391 1.14403 -0.79072
3419 1 -9.56204 -8.40587 1.80658 0.446685 -0.00981166 4.79666
3420 1 -15.8934 8.8332 8.8366 -0.214972 0.902578 -2.58571
3423 1 -12.8369 3.8758 1.47357 -1.62465 -1.79047 5.74366
1296 1 -1.06068 -12.5742 5.64457 2.10565 -1.78509 -1.94299
3426 1 -20.3693 -6.26876 4.29994 -1.79352 4.19248 -1.26088
3430 1 -13.8695 -17.3225 19.5324 -1.70967 1.97053 -4.68545
3432 1 -2.42328 8.19743 7.75098 3.6377 2.55473 -1.49976
3436 1 -2.75768 9.15272 14.8626 1.37127 2.35401 2.48182
691 1 -0.762399 7.09674 14.3983 2.1503 -2.1038 -0.956222
3442 1 -5.27696 -0.619766 3.8332 2.94199 -1.54667 -5.87798
3448 1 -18.8265 5.98423 14.4077 1.82985 -1.39561 0.775796
1103 1 -22.1389 9.32792 15.71 2.92536 -2.81849 -0.308516
3464 1 -17.7967 -21.8035 15.2861 1.40181 -1.80005 -0.646095
2643 1 -1.34013 -15.6735 23.0539 3.32527 2.33963 2.67181
3555 1 -23.3606 -17.5506 1.86248 3.65138 1.20168 2.53107
3105 1 -24.0586 -7.10356 20.8036 -4.10298 0.0418836 -0.932442
3490 1 -17.4837 2.6539 6.04383 -1.34217 0.157812 -8.35572
3621 1 -7.5388 10.7025 8.6538 2.83633 4.97765 -1.21471
2711 1 -12.2084 -7.19394 22.9229 -2.94037 -1.02952 -3.32038
3510 1 -12.9322 5.41746 14.5352 -0.896759 0.86315 -5.97926
3512 1 -20.0739 3.91012 2.55466 1.13815 2.80714 -0.952035
3519 1 -4.34477 5.58468 16.4308 -1.32236 1.38208 -1.59169
3520 1 -5.79923 -17.4168 20.1886 4.40371 1.77044 1.18567
3523 1 -13.2832 -20.631 10.9244 -4.26951 1.41419 -3.77251
2933 1 -24.2135 -5.20282 13.5032 -6.2908 2.56737 1.35185
3549 1 -15.5202 10.1533 3.2918 -0.26793 -0.245285 -0.309151
3556 1 -9.62456 -15.6776 20.7404 3.93658 -5.44733 -4.12311
3566 1 -9.19219 -15.7393 5.84684 -1.0275 -1.17188 -2.46286
1586 1 -16.6473 -20.6767 1.11561 0.924108 -2.08757 0.952934
857 1 -21.0087 -6.76132 8.88486 -1.38755 -3.47457 -1.04285
515 1 -2.02028 7.30519 17.2052 0.460403 -0.994944 2.90257
3595 1 -3.79945 -15.2013 8.85785 -1.05226 2.82392 -0.189836
3603 1 -4.56717 -3.47346 8.89809 -4.49213 3.28276 1.43876
3607 1 -17.092 4.96405 19.1964 -4.531 1.86973 2.49213
3616 1 -9.49847 -14.1346 23.2218 2.39566 -0.428752 1.32312
3469 1 -0.538526 -7.07933 0.574941 2.43461 0.781165 -1.65698
3632 1 -13.0583 -15.801 15.8996 -1.10098 -1.68506 3.3749
3863 1 -12.5704 -2.50205 12.5532 0.309116 1.09799 -1.38315
760 1 -0.99553 4.27705 15.1478 -1.69942 -2.56806 5.22224
3651 1 -11.8725 8.47746 8.53754 1.34171 3.76522 -3.2088
3695 1 -8.54033 -4.51894 0.115383 -2.28443 -4.99617 0.23552
3668 1 -14.1432 -4.23666 19.8726 1.4965 0.469663 -4.03376
3979 1 -8.94959 -22.6504 4.67359 -0.447141 1.32742 4.9273
1006 1 -23.7593 10.9811 19.6026 1.00008 0.665213 0.562422
3678 1 -18.7383 8.24207 16.4343 -3.3484 1.50466 3.5311
3681 1 -7.42126 2.0467 13.2663 -1.50098 0.0253103 1.3002
2815 1 -24.0857 9.39313 6.89275 -0.00338776 -1.97448 -2.3784
324 1 -23.626 4.07236 6.7907 2.32468 2.03563 -1.96793
3698 1 -18.9361 3.06028 17.4897 -2.46412 4.11743 2.70319
3699 1 -9.39096 -2.08212 14.532 0.353217 1.3354 1.97984
3710 1 -5.5769 -9.00558 17.3525 -0.833454 2.09142 -0.0896353
3714 1 -10.7533 -1.43515 21.1466 1.03922 3.29428 -2.21527
2536 1 -24.0827 -18.2033 23.523 -2.41656 1.4068 1.80233
3738 1 -5.43193 -6.58267 15.3273 -1.69462 -0.256197 1.83025
1421 1 -23.3281 -9.68335 6.18189 -3.0808 5.57431 -0.834195
3737 1 -1.96018 8.19986 0.781887 2.46543 1.50431 1.67828
3754 1 -10.2786 4.55245 7.12689 2.8418 1.36918 -1.00961
3767 1 -12.2374 -19.3553 2.25857 4.4116 0.755428 -6.87782
3769 1 -20.9009 -18.247 9.31575 0.543706 1.1987 2.45075
3770 1 -5.44385 -6.6745 7.44909 2.26871 -1.91365 4.46576
3779 1 -8.88345 0.804435 7.64901 4.38799 -2.53407 -2.31747
3781 1 -1.05183 -4.61584 7.33172 1.74054 -4.6353 -0.164526
3792 1 -6.90352 -12.2734 8.33974 -1.1895 -4.33466 0.736216
3797 1 -11.5937 -12.6343 8.97442 4.61612 -1.56243 -0.374066
3810 1 -16.6393 -3.31303 14.54 2.05133 -7.70539 2.92391
1572 1 -0.454899 -18.9989 13.31 4.29182 -0.842957 -5.56481
1928 1 -23.5676 -2.30454 5.96681 1.74363 -1.62421 0.609851
1681 1 -14.9822 -8.52383 23.5143 0.592437 0.6979 0.194619
427 1 -14.0287 -24.1446 21.2308 1.91364 -0.271796 0.891286
3267 1 -19.2309 9.45733 0.396521 1.93335 -5.09462 0.564543
2446 1 -0.50729 -6.92101 15.9646 3.99914 4.63328 4.52073
3718 1 -18.6573 5.30327 0.259168 1.21478 2.22728 0.61976
1995 1 -0.688835 3.12341 12.3877 3.52734 -3.77502 -3.23139
3971 1 -5.44638 -5.89915 23.628 1.84309 -1.00689 2.05885
2346 1 -0.808658 -22.7602 9.78449 5.36007 -0.706018 -0.548214
2265 1 -1.07318 0.29815 21.4698 -4.94416 1.35035 -3.61061
325 1 -0.445809 -22.5276 18.9267 4.91641 -3.30254 -1.09185
1290 1 -0.510096 6.30006 8.72432 0.600337 3.47273 2.90929
1972 1 -0.422967 -7.17527 8.14668 1.32119 -1.05091 -0.331188
3390 1 -23.953 -24.2226 14.9112 -0.304705 -0.479208 -0.686001
216 1 -17.7451 -24.1743 6.29761 8.09672 -0.666114 1.92787
745 1 -22.0027 3.07374 23.8836 -0.953749 0.945807 -3.13062
3688 1 -9.98684 -22.4681 -0.0744475 -3.83544 -1.2848 -3.94682
406 1 -4.60314 -19.2418 24.0056 -4.0265 1.69814 0.891411
2888 1 -10.8504 3.69157 23.8804 -3.63721 -2.56291 -3.0686
2839 1 -14.1051 -0.36262 23.8959 3.22369 7.62884 0.666962
553 1 -12.5494 6.12352 0.18566 -2.66307 1.44125 0.244694
1832 1 -22.4631 -12.2155 23.9407 -1.73253 -5.85555 -0.472866
2153 1 -9.66192 -10.6002 0.152959 -0.0145909 0.692144 -1.03539
1927 1 -7.68344 45.7051 -20.739 -0.799441 3.33242 6.2814
36 1 -13.1309 19.0624 -17.6536 0.175011 3.79094 -0.849132
45 1 -11.4092 12.748 -3.74949 -5.62928 -1.18327 4.76363
1034 1 -14.38 13.9861 -7.42425 -3.70361 -3.67504 1.5524
67 1 -13.9111 23.557 -10.5791 6.13114 -1.60417 -2.87818
3978 1 -0.745784 19.95 -13.3071 -1.07086 -2.28264 -0.770485
70 1 -17.195 15.1098 -15.2786 -0.307123 -0.433667 -6.75546
2506 1 -21.2368 11.8924 -9.84101 -0.617194 1.18474 2.20477
78 1 -19.9377 14.3686 -9.00297 -4.08746 0.111237 -5.72854
80 1 -12.1522 13.1257 -13.9148 3.97094 -0.494101 6.33401
63 1 -2.23013 11.3794 -17.104 0.507159 -0.549517 -1.56682
88 1 -10.3314 25.3414 -17.2862 5.62517 -0.457162 1.99741
109 1 -12.4307 16.8128 -14.0863 7.84063 0.46733 1.73067
130 1 -7.18055 18.3127 -18.4448 2.41938 1.5738 0.974382
154 1 -8.16552 20.8613 -6.12317 1.76379 -0.373855 -3.7773
172 1 -20.5277 23.8639 -17.9331 0.0340793 -2.24866 0.546863
176 1 -6.92169 23.0787 -2.02077 0.872548 1.92924 -1.06754
209 1 -7.38988 19.1609 -13.6215 -1.76631 1.04658 2.00342
656 1 -0.63314 23.3585 -10.5686 -1.85726 2.35126 1.5826
212 1 -17.3378 24.4388 -2.94896 3.56074 -2.64148 2.20429
4182 1 -2.13613 36.5663 -0.943593 -3.34308 -0.0456877 0.48655
245 1 -8.7077 25.9152 -10.2341 4.90353 -0.372848 4.79217
267 1 -11.5645 18.5717 -9.85885 -0.259179 -3.80013 -3.63334
268 1 -20.6663 22.0951 -11.3388 -4.20386 -2.71015 -1.43013
3736 1 -24.408 13.419 -7.91859 -0.856749 3.6781 1.60088
301 1 -7.66867 22.4183 -19.4063 -0.916495 1.88624 -3.59551
1226 1 -23.3182 15.2791 -1.09728 4.22171 1.8487 1.04728
374 1 -7.13141 18.4121 -10.5618 -1.40775 0.261727 0.486009
3273 1 -19.4105 11.3655 -14.6949 -7.80004 1.49695 6.57163
4205 1 -3.2179 39.1076 -1.43047 -1.14111 -5.94052 -1.88437
2983 1 -4.71743 13.1029 -23.664 3.68657 -1.86688 -1.46313
439 1 -3.48228 23.54 -6.55716 -6.70167 0.249061 -1.76036
440 1 -10.0814 15.116 -13.3717 0.931685 2.0857 1.39353
489 1 -10.9449 24.1868 -10.0007 2.4688 0.858347 1.33052
2760 1 -1.03228 13.8995 -17.7654 2.42294 0.548628 1.53104
521 1 -10.5472 23.3836 -6.27978 0.772644 -0.67321 -1.21821
526 1 -22.0988 14.5973 -3.75871 -2.91906 -1.61812 0.990942
527 1 -5.27505 12.9523 -6.54196 -2.23833 0.0692315 1.42649
528 1 -16.9567 15.8723 -10.7583 -1.24261 5.19379 -5.84318
556 1 -11.5113 16.9643 -2.42299 -3.73522 2.13846 -4.25372
1068 1 -7.70616 19.3967 -0.740828 1.74103 3.24612 -3.39494
569 1 -5.38053 25.8119 -14.7439 2.17215 0.749364 2.70432
612 1 -5.04546 15.2915 -12.6587 4.33315 3.96687 2.05205
617 1 -12.3314 23.6597 -17.8596 3.20956 1.53015 -0.468067
621 1 -7.49113 16.3857 -13.2637 4.26727 -4.39465 -1.23899
4198 1 -1.94985 41.5509 -8.169 -2.07422 5.31838 3.16749
3080 1 -21.8571 11.9137 -6.84453 -0.0268684 -1.12041 -3.2145
682 1 -3.28584 18.5454 -3.30049 -0.482409 1.16003 0.331432
2220 1 -0.901892 19.0379 -16.0065 -2.7484 0.0464631 -1.58548
3124 1 -15.7635 12.2508 -9.33932 -2.18784 -0.361689 -2.16923
724 1 -11.8745 21.7388 -8.13047 -2.68907 -3.57579 -0.0718619
728 1 -10.5115 19.4158 -7.26391 -4.31145 6.98385 -4.31902
731 1 -11.8445 13.0902 -22.045 2.00481 1.39173 -0.831716
757 1 -20.0129 12.9771 -4.94888 -1.60282 0.534341 0.316514
4221 1 -3.10919 44.0772 -8.37694 -0.597017 -0.287808 0.0341973
766 1 -8.13454 14.9393 -15.6675 1.86911 -2.26036 -1.75031
74 1 -0.341694 15.5075 -13.2737 6.58423 -0.26191 -0.607601
4170 1 -2.30515 36.9586 -5.55512 2.68948 5.54328 2.3681
792 1 -22.6247 16.5903 -5.90257 0.00836712 3.67614 4.83884
799 1 -12.8017 21.4065 -3.15868 -3.75553 -4.08922 -5.29901
809 1 -5.25248 25.9109 -17.6636 -5.25009 2.36542 -1.8904
813 1 -14.7102 24.1086 -16.4828 4.92151 1.48406 -0.824473
3744 1 -20.6103 19.2295 -1.17248 3.52768 2.22813 3.21349
848 1 -4.47964 17.5988 -11.0995 -3.32815 -2.21551 -0.172238
851 1 -22.4198 16.1636 -15.1235 3.49756 1.91024 1.65453
855 1 -16.4453 22.3951 -19.9537 -0.253449 -1.4091 3.13549
4230 1 -1.66466 45.8827 -0.63296 1.18133 -2.57625 -2.69229
3880 1 -8.45615 19.2916 -22.6348 -0.741024 -0.878115 1.3055
903 1 -7.94312 25.2068 -18.9109 -0.122036 -0.4264 -3.65321
912 1 -15.7993 21.3323 -10.7957 2.81004 -1.92715 -2.48954
4088 1 -5.73366 39.0279 -0.531382 -7.54192 -0.684495 2.64054
955 1 -11.4753 20.9594 -18.9151 3.07373 0.762739 -2.31556
963 1 -17.443 24.2014 -13.5096 -6.16852 1.88648 -3.68089
968 1 -3.08522 22.5431 -15.4308 4.02184 2.44905 2.35036
984 1 -18.3355 16.5982 -3.56253 5.41575 -2.78872 1.77728
1836 1 -10.3541 45.8662 -17.1792 -4.73708 -5.25091 -0.515921
1044 1 -7.79276 21.2946 -10.6675 1.19291 -0.294325 -0.284368
508 1 -2.62845 19.1592 -7.22674 -2.2172 -4.82528 2.73304
1071 1 -19.0085 22.9118 -15.579 4.29043 0.170664 -1.20581
4016 1 -6.37778 25.6666 -0.833585 -0.253245 -2.17387 -2.34055
4218 1 -1.61638 45.9565 -5.43001 -1.80992 2.08137 -2.14631
1161 1 -7.79722 46.8174 -18.1535 -0.830715 -2.83073 -0.228931
1095 1 -10.5574 21.2226 -10.6015 6.08195 -5.14441 -1.51462
1122 1 -10.829 23.4472 -3.44516 -0.870205 0.525533 -0.616421
1124 1 -3.66494 13.7001 -16.1789 2.23547 4.36579 -1.56376
1130 1 -2.86678 15.6793 -14.419 -2.26186 0.8654 0.51249
1187 1 -14.0571 18.0407 -8.09122 -1.79847 -2.55865 -1.24476
1210 1 -5.09441 17.9913 -0.964034 1.49358 1.11385 3.0217
1232 1 -18.6032 16.6264 -21.7223 0.24245 1.84378 5.81427
1265 1 -9.73595 14.0865 -7.87915 -2.82367 -2.0059 -1.10639
1277 1 -14.8723 22.2742 -4.58288 5.074 -5.99349 -0.967148
1279 1 -20.5061 16.8019 -13.0797 2.18287 4.43668 -3.78262
1292 1 -6.03317 19.3864 -3.41756 -0.210266 -2.61817 -0.537608
1311 1 -3.44788 19.7148 -12.38 -0.644316 1.6186 -0.551495
1327 1 -9.76365 21.4135 -21.2765 -0.0659315 0.867054 -1.90155
1330 1 -9.23395 16.8634 -7.0587 -3.79731 -4.65252 1.95568
1335 1 -14.6798 23.5932 -13.6659 -3.97548 -1.78893 -0.286827
1735 1 -1.23168 18.5019 -18.8372 -6.43472 3.24026 0.484369
1400 1 -12.7339 15.5254 -22.8648 -2.92974 4.63312 -3.25615
296 1 -2.24504 15.8514 -2.42196 2.58387 -2.00459 -2.23284
1420 1 -12.1198 19.6317 -21.4414 1.94047 -0.232714 4.65518
2172 1 -2.41396 21.6094 -3.70155 -0.288789 2.2717 -4.76853
1465 1 -23.4727 22.191 -14.2124 1.97141 -4.88945 -3.87588
1476 1 -20.3343 14.9249 -20.1847 2.9871 0.748285 4.39276
1855 1 -0.996534 21.8068 -17.4429 -1.54053 0.50863 -3.44728
4040 1 -6.31834 30.0642 -1.008 -4.65033 0.0722836 0.0625203
3408 1 -17.242 13.2627 -23.575 -0.779724 -2.64578 -3.66637
3524 1 -1.92868 22.902 -1.27707 4.90476 -4.29018 1.39855
1537 1 -4.32898 23.3809 -17.8747 -1.09216 -3.52644 -1.59783
1544 1 -6.04699 20.9419 -17.3071 -0.0368978 -0.660632 0.464779
1553 1 -8.69699 17.9917 -16.1011 -6.04583 0.0459793 0.353387
1565 1 -9.83613 17.1012 -11.2249 6.97666 -1.69859 3.09329
1579 1 -5.84635 15.2099 -4.70949 0.786569 2.06643 0.485464
770 1 -5.29899 22.6425 -23.62 1.80712 2.88093 2.04602
1610 1 -14.5202 20.7708 -13.4531 0.670271 -1.06627 -3.63365
1637 1 -5.23748 22.1115 -4.49717 -1.12274 -2.50032 3.1901
1643 1 -6.89318 22.1651 -8.2871 1.51516 0.732446 2.62272
934 1 -0.908365 21.8 -23.1418 2.48936 -4.52979 -0.474095
2232 1 -24.6402 24.1447 -16.4796 -5.1469 -2.21021 -1.36921
1734 1 -8.34343 25.5027 -21.5564 3.11413 -3.08608 0.689066
1764 1 -14.0982 15.596 -11.8585 -4.70023 -4.65473 -1.44505
1803 1 -18.2384 18.9146 -9.29039 -2.62649 1.3566 -0.673497
1817 1 -2.50789 15.8144 -19.2004 0.130738 4.85123 2.56047
4173 1 -4.18799 34.7411 -9.34799 3.43217 -2.18865 2.93238
1899 1 -8.86056 19.3185 -3.5353 -0.979602 -3.9109 -2.28022
1933 1 -5.63066 21.2175 -21.1275 0.391473 1.82527 -5.61125
1947 1 -17.5293 13.0942 -13.3079 -3.41983 5.84648 0.505221
2002 1 -22.9293 24.8391 -9.43254 -3.2089 -0.216989 2.86474
2007 1 -10.7675 14.4276 -10.3889 5.00471 1.41366 1.12183
2987 1 -23.0998 45.8827 -9.89945 -1.03393 -1.54855 -1.00239
2062 1 -20.9161 20.2528 -7.34604 0.358536 3.65959 3.16141
2076 1 -14.8537 24.7888 -7.99418 3.12482 -0.342159 -1.2079
2154 1 -10.5321 17.328 -21.9303 4.8973 -1.68447 0.26651
2092 1 -19.3582 23.9581 -22.7795 -0.652497 -1.11979 -1.75607
3060 1 -24.2587 23.9159 -6.97013 -4.87255 0.582104 4.97921
567 1 -23.4687 19.4857 -5.76013 0.254054 -0.779288 2.67394
2156 1 -21.031 19.653 -10.1184 3.2238 4.88216 0.895027
2166 1 -15.4426 19.7431 -16.0134 -0.852217 2.51223 2.43199
1083 1 -4.09651 19.3959 -18.9975 -1.29504 -3.63717 -2.82437
2224 1 -17.9932 14.9303 -5.75263 -7.08832 -6.20654 2.90281
3528 1 -23.9644 46.4673 -1.38216 -5.11547 4.06976 -5.0669
2249 1 -14.0835 14.641 -15.6567 3.38052 3.12775 2.8226
2258 1 -8.39026 16.4022 -20.4179 -4.11674 -2.3297 4.79313
2275 1 -11.9141 24.025 -13.0893 -0.78629 0.687711 -2.67259
2768 1 -9.40191 21.4876 -1.69218 -3.71371 0.363033 1.05309
2289 1 -1.60346 13.1142 -22.0336 2.59514 -1.70615 -2.05727
2303 1 -13.588 18.3704 -12.0817 -2.89412 -0.589346 0.940326
4064 1 -5.94298 34.4064 -0.632618 -6.93003 -0.20958 0.437397
4112 1 -5.45117 43.7125 -0.470344 1.42041 3.09401 -0.85853
2382 1 -11.4065 17.2769 -16.7808 0.735106 3.06652 2.11153
2401 1 -19.016 23.3451 -5.03309 1.08284 -0.513498 1.61096
834 1 -0.540602 11.7674 -3.39985 5.7736 -5.66594 -2.04437
2431 1 -22.4602 17.1568 -10.871 -9.81359 -3.40509 -0.634479
1828 1 -13.4291 45.5605 -20.7866 6.5848 1.28346 -2.85107
2459 1 -19.0889 16.8635 -7.59932 8.04361 -2.08614 -0.800397
2461 1 -20.3457 18.0623 -5.30978 -5.73365 -1.79931 0.155713
2471 1 -2.98542 23.575 -22.2533 -1.10368 -3.12354 -0.207356
2533 1 -14.4666 25.2515 -2.1468 -1.75269 4.02212 0.944306
4181 1 -3.49272 34.2013 -1.91698 1.01383 3.15777 -5.27229
3052 1 -21.2809 12.7933 -12.5238 0.0163329 -1.55095 -1.71713
2570 1 -23.2856 15.5328 -19.4286 -0.279157 -2.72031 -2.22927
1880 1 -2.70933 21.8964 -19.7885 -2.90785 3.05012 0.160799
384 1 -12.0223 12.8735 -6.61915 -2.03442 2.30919 -1.29404
2611 1 -23.7408 24.9113 -20.9633 -1.05838 -2.75215 0.197526
2614 1 -9.49784 15.2113 -18.1582 -0.955307 1.79494 7.45459
322 1 -13.1967 14.8959 -4.01522 1.93568 -0.329845 5.3655
2623 1 -20.8935 18.3225 -22.4775 1.97661 2.3533 -3.21851
2624 1 -21.8932 20.2051 -3.42133 0.923974 3.4195 1.62694
32 1 -8.98142 12.6234 -22.6839 0.882772 4.35531 2.80377
2649 1 -18.1704 23.45 -10.9236 -1.2343 2.74683 0.0263158
2699 1 -18.2616 15.1314 -0.774773 1.94427 -1.2344 3.36455
2702 1 -6.35479 18.4688 -21.1931 3.43942 -0.788751 -0.375906
2722 1 -11.5398 19.1628 -4.2444 -3.86733 1.44559 2.75929
2750 1 -13.4946 22.7511 -20.4236 3.99616 -1.49868 -0.527558
2752 1 -11.4955 21.2748 -13.1555 -3.6124 -1.73252 2.71531
4193 1 -3.35584 39.2686 -4.36314 -2.71769 -1.80326 -1.51484
2848 1 -18.1284 46.2791 -11.7041 3.81683 -0.37603 -2.17355
2772 1 -14.4747 18.3736 -20.0888 -7.47684 1.2254 -0.353046
4206 1 -1.71487 41.1198 -0.572537 -2.11388 0.245326 2.47214
2804 1 -19.282 14.6819 -11.8505 -0.0773034 -0.946888 -2.58776
2806 1 -5.10956 20.684 -14.6755 3.46919 -0.446067 -1.75869
3041 1 -21.4835 22.9333 -3.58974 0.174071 -2.66937 -2.49478
2836 1 -13.7738 17.5224 -5.24975 -1.78352 2.16794 2.4762
2866 1 -21.8778 22.8932 -6.68844 -0.964391 1.64402 -5.64186
2867 1 -18.8778 18.8585 -13.3214 5.17458 1.35322 0.35958
2870 1 -12.991 15.8287 -9.34758 -1.46365 3.44799 6.00439
2878 1 -20.5733 21.0072 -14.269 -1.55604 2.85104 0.216925
2881 1 -16.8114 14.6493 -20.5611 2.2687 0.587176 1.37256
4013 1 -11.6663 25.6105 -1.41838 -0.107098 1.40452 5.74742
2904 1 -7.35191 13.9377 -0.656144 -0.112938 1.84601 3.75304
2907 1 -17.6305 23.8848 -7.87528 0.229128 -0.353569 1.02632
394 1 -8.74347 11.7619 -4.48349 4.12329 3.2859 0.0153966
4222 1 -1.43629 46.5237 -8.30375 3.0663 -3.06822 -0.599177
2959 1 -19.2961 18.862 -19.947 4.13001 2.1133 -0.819025
4229 1 -2.84358 43.464 -1.61876 1.44239 -0.956956 -1.38877
2976 1 -21.8478 18.8808 -16.243 -5.1292 1.63702 -0.472213
789 1 -15.0384 18.8384 -1.49747 -3.63752 -0.872917 -1.28543
2986 1 -4.44454 17.3469 -22.93 0.101222 -0.0424704 1.638
4197 1 -4.01037 39.6123 -8.8539 2.08973 -5.30068 -2.10297
3021 1 -19.7875 24.107 -1.06403 2.32786 0.979774 -0.878224
3030 1 -16.5559 18.5854 -11.4922 -1.34563 0.220772 1.53284
3044 1 -8.30193 16.5172 -4.36726 3.19801 0.846911 -5.56052
1180 1 -9.67072 46.4962 -10.4799 -2.43606 -1.35785 3.47089
210 1 -19.8418 12.4966 -0.175508 -4.10212 -1.57995 0.961439
3061 1 -9.58697 24.5174 -14.7125 4.3017 -1.88105 0.708828
3062 1 -6.03715 14.315 -17.9159 7.46114 3.2163 -0.524355
4217 1 -3.34122 43.8939 -4.26386 -2.14753 -1.47933 -0.921238
1516 1 -10.0387 23.6645 -22.7556 2.92203 -1.84006 0.129119
3115 1 -17.5446 17.8169 -15.5501 -0.708462 -0.388097 -5.02262
2871 1 -16.1038 20.2834 -23.6675 -1.2269 1.84049 -0.945641
644 1 -6.48537 12.8258 -3.1899 1.26246 -2.50048 -3.75253
3133 1 -2.59539 16.7733 -9.17346 -3.13583 1.90268 1.3801
3152 1 -14.2428 15.6789 -20.2815 -0.0999153 -2.05668 -3.92515
3165 1 -6.65815 22.7716 -13.1593 0.260898 -2.1174 -1.63917
3171 1 -6.47244 14.1956 -20.5871 -0.826063 -2.85097 -3.59111
1074 1 -9.59411 12.4245 -18.0174 1.2953 -1.71993 -3.55265
3185 1 -16.7671 19.6769 -20.8467 -3.6025 -4.5904 -4.14568
3188 1 -22.5068 15.6874 -8.57248 0.280252 6.34851 4.08577
3190 1 -22.2351 21.6876 -17.0587 2.18838 0.990534 1.98681
3218 1 -4.01094 21.6003 -8.27274 -3.14418 0.204581 -5.97803
3226 1 -23.5221 23.0333 -11.4015 1.20775 3.36365 3.23878
228 1 -13.2538 20.7334 -0.362919 6.15498 -0.147427 -4.87527
587 1 -21.0042 46.0049 -11.7353 0.163523 2.45051 -2.52775
4014 1 -10.2905 27.896 -0.536148 -4.84925 3.23773 0.684659
3256 1 -6.80678 17.5014 -7.98107 -0.835284 -1.0142 -1.50074
3299 1 -15.0534 24.9721 -5.09004 2.18461 2.63873 -3.48264
3308 1 -17.2267 20.8465 -4.24881 -2.67941 0.170435 2.07523
3330 1 -8.87518 21.6229 -14.8232 8.72974 0.433865 -0.943431
2458 1 -22.4461 23.225 -0.629206 4.04703 -5.69154 -3.43386
3383 1 -22.8286 25.4955 -18.3556 2.58034 -6.60802 0.39645
3393 1 -12.624 14.9925 -18.2669 2.13977 3.06069 -0.0393114
3116 1 -14.0029 16.0997 -1.35595 1.43144 -0.719146 -2.44569
3435 1 -2.83489 24.9268 -13.4493 -6.16255 -1.51593 4.12387
3462 1 -14.4171 22.1694 -7.22372 3.14822 1.71658 2.85559
3532 1 -7.9084 12.0216 -7.336 3.41119 1.5252 -1.55492
3499 1 -21.0812 21.2263 -19.8368 -1.42385 3.7218 -2.51917
3501 1 -18.1152 21.1644 -6.96828 -0.359744 -0.807862 -1.1016
3502 1 -7.93129 23.3679 -4.61179 1.97694 0.9667 0.367645
244 1 -21.9405 13.71 -22.4043 -1.50213 -3.72203 2.14487
3514 1 -4.87663 21.8838 -11.0836 3.60284 0.0820668 0.131497
1054 1 -17.186 23.0373 -0.235565 -3.70382 -1.80652 2.93112
4062 1 -9.72323 37.1651 -0.705516 -4.77984 -1.12524 -2.64711
637 1 -9.24629 47.0633 -22.5097 1.87203 6.01749 1.38214
3543 1 -16.2955 16.0123 -8.06825 -5.53798 -6.85831 4.30529
4127 1 -0.741586 27.742 -9.49557 1.31337 1.52744 -2.80512
3553 1 -9.73239 14.7074 -2.65477 -1.11841 -6.31318 1.38527
3560 1 -18.1341 14.3261 -17.889 -2.41303 -4.90671 -1.91457
3600 1 -20.2382 24.0773 -9.05039 2.73696 0.302498 0.550223
3611 1 -16.7215 22.2885 -17.1842 -0.277226 -0.253242 -1.46478
3612 1 -3.67898 17.1274 -5.6091 -9.73134 2.84237 2.25699
3620 1 -5.0588 15.1831 -8.55983 2.28036 -1.74777 1.40054
3655 1 -7.63298 25.4744 -12.9878 1.96124 -0.394765 0.651946
3675 1 -15.7408 20.2246 -8.31064 4.05867 5.11731 2.63704
3717 1 -3.58461 15.1067 -21.6445 1.36276 -1.1814 2.46615
1480 1 -0.642684 14.457 -4.25846 0.454818 -0.742882 5.01513
815 1 -21.7386 11.9474 -16.7015 -1.69598 0.928356 4.1169
3725 1 -16.2159 18.2605 -3.99859 -1.09147 0.697768 0.788948
3719 1 -1.77335 15.5865 -6.63384 1.75121 4.56891 3.70605
3747 1 -18.6609 24.1724 -20.1487 -1.61334 -0.895213 -1.83152
3752 1 -21.2132 15.0104 -17.2409 -2.69394 3.96523 1.06253
3791 1 -10.3862 18.673 -13.4491 -1.93814 -0.507885 1.88547
3805 1 -4.79258 16.9623 -17.7941 0.260937 -0.465185 -2.39535
3807 1 -9.05078 20.6613 -17.3852 -0.205929 -0.376757 0.766912
3826 1 -3.46132 18.2064 -15.2205 4.13858 0.952151 0.301906
3828 1 -19.6576 17.551 -17.4643 -2.32598 -2.66212 0.685798
4169 1 -3.77732 34.4338 -4.7844 -2.86391 2.69715 -1.33067
3929 1 -2.31422 12.8567 -7.46974 1.62544 -0.556877 -1.71356
4194 1 -1.82907 41.752 -5.25689 -1.57247 -0.757068 -2.66964
3901 1 -14.8232 12.8156 -12.1373 0.686579 -0.122688 -2.15042
3910 1 -5.45251 19.5841 -6.25124 0.339102 2.26887 -0.0932147
4174 1 -3.01326 36.9481 -8.32093 0.129578 -3.7089 6.60691
3940 1 -3.32583 23.9838 -10.8485 -1.00535 -1.8209 0.211057
3956 1 -15.9067 13.4474 -4.57986 2.90232 0.956123 -0.68577
3235 1 -5.18327 13.0689 -10.8121 -5.16107 -1.25537 -0.176031
2551 1 -6.77196 11.2395 -17.4666 2.72703 2.82825 2.19733
4001 1 -12.3376 25.2027 -5.04827 1.3484 0.302954 -4.55413
4002 1 -11.303 27.9699 -5.18841 3.28514 -0.77701 0.0133118
4003 1 -8.4154 27.9731 -4.77839 -6.14951 0.802036 -0.110644
4004 1 -6.95996 25.7526 -5.72459 -1.8892 -2.09979 3.96118
4005 1 -12.2052 25.5117 -8.09067 0.173183 1.24039 -0.0670413
4006 1 -11.4121 28.0849 -8.01684 3.93138 -0.0152256 -2.43083
4007 1 -9.09747 28.6947 -9.43976 0.916042 -0.935047 -0.580086
4008 1 -7.1342 25.0795 -8.28566 0.605445 3.05507 0.973019
4038 1 -10.2839 32.5676 -0.678709 0.506916 0.760942 0.193577
1314 1 -14.9221 12.0866 -16.8588 -1.46507 -1.73121 -1.69821
4015 1 -7.96897 27.7664 -1.88738 0.543277 4.72549 0.48298
2545 1 -11.975 12.4518 -19.2825 -3.82976 -1.2977 6.03569
4025 1 -12.11 30.4333 -4.41152 -5.64917 -4.49323 1.19735
4026 1 -10.6317 32.5395 -5.09248 -3.59994 -2.19018 -0.979515
4027 1 -8.00798 32.507 -4.39161 -2.89849 -1.3521 3.02542
4028 1 -7.10819 30.1678 -5.71393 0.328755 1.46546 3.74265
4029 1 -12.3409 30.5701 -8.72198 1.42341 0.841785 -0.540161
4030 1 -11.1908 32.9048 -7.77203 0.48455 2.13161 1.01492
4031 1 -8.70606 33.2236 -8.86513 -0.982831 -2.03399 -0.728105
4032 1 -7.39457 30.7896 -8.47024 -0.0762547 -1.51103 0.811171
4037 1 -11.374 30.2458 -1.72152 2.24654 -1.51122 0.0596068
3780 1 -23.0545 18.0092 -20.6355 1.52143 3.72565 2.74122
4039 1 -7.74409 32.3773 -1.57639 -1.07649 -1.47466 -2.87157
2617 1 -5.08075 12.6649 -13.7305 -2.12337 -5.67707 6.41476
4049 1 -11.4121 35.0776 -4.35836 -2.57535 -4.62199 -1.40045
4050 1 -9.92031 37.4478 -4.96263 -3.01498 4.84372 3.8441
4051 1 -7.09924 37.0663 -4.62974 0.145412 5.77745 1.23305
4052 1 -6.47626 34.6171 -5.77794 -0.225481 -0.0250344 4.20956
4053 1 -12.2436 35.4524 -7.00293 1.36274 4.13475 -0.73325
4054 1 -10.9466 37.7571 -7.68193 -4.79577 -1.14271 0.301211
4055 1 -8.35906 37.5518 -8.56911 3.42482 -4.53732 6.29523
4056 1 -6.73205 35.2626 -8.42028 -1.65911 -3.30609 -3.58807
2284 1 -21.8449 23.0716 -21.9699 -2.53898 3.23035 -2.85994
1377 1 -13.1722 21.2094 -23.816 3.35759 -0.9764 3.06078
4063 1 -7.1197 36.9069 -1.7191 -1.00373 3.98818 -1.6379
2787 1 -15.8835 13.9921 -1.63201 5.58579 3.77025 3.69924
4073 1 -11.1253 39.9455 -4.28093 -0.0764008 -3.11123 2.9155
4074 1 -9.65435 42.3516 -5.07948 -1.65502 0.837343 -7.40719
4075 1 -6.88099 41.7057 -4.11821 -0.356637 1.85306 2.35168
4076 1 -6.03096 39.5558 -5.28127 -0.736922 -2.07748 2.08087
4077 1 -11.7605 40.4183 -7.26598 6.04809 0.264605 7.32248
4078 1 -10.1926 42.5105 -7.8957 4.2559 6.97107 6.20026
4079 1 -7.66834 42.1972 -9.02809 3.03695 3.47652 0.210135
4080 1 -6.66349 39.7882 -7.78783 -4.16901 2.19949 3.03006
4085 1 -10.1895 39.74 -1.65857 2.21873 -1.10374 -0.164606
3741 1 -19.9554 11.037 -3.00617 1.85847 -7.28726 1.26974
4087 1 -7.00412 41.4893 -1.1695 -2.24543 -0.678406 3.19297
3525 1 -16.8236 11.7755 -21.0722 -3.2418 -1.4701 0.217646
4097 1 -10.4304 44.3508 -3.55336 -2.66988 -0.0954214 -1.14535
4098 1 -11.4711 45.8444 -5.43108 -0.74446 -2.58171 3.25856
4099 1 -7.68086 45.6616 -3.57285 -0.272518 -0.0619933 -3.39558
4100 1 -6.01875 44.0374 -5.25625 -3.1395 3.3618 1.09594
4101 1 -11.0657 45.0805 -8.2438 -0.350224 1.16252 -1.54767
4102 1 -7.92603 43.9185 -11.2267 5.48081 0.0801925 -1.75241
1919 1 -23.3892 13.48 -14.605 -1.06291 -0.505546 2.8592
4104 1 -5.9831 44.2318 -7.96516 3.29335 1.98072 3.72641
3228 1 -11.4161 11.666 -10.861 1.88362 4.53758 3.53179
2056 1 -6.40684 25.368 -23.6496 3.94791 3.81051 -0.590756
4111 1 -7.08753 46.0901 -0.98795 -3.62892 -2.2947 -0.128929
2945 1 -7.77018 12.2568 -14.6264 -2.29237 2.87694 -3.81004
4121 1 -4.25825 25.5942 -4.64981 0.439858 0.43943 2.17028
4122 1 -3.03662 27.686 -6.21975 4.26016 0.59318 1.84053
4125 1 -4.45744 25.2626 -8.75917 2.20233 3.69194 4.96481
4126 1 -3.3936 27.7864 -8.96729 1.8447 -8.66351 -1.98277
4133 1 -3.96238 25.0904 -2.05666 -0.892345 -0.673767 -4.621
4134 1 -2.56119 27.3321 -1.2457 3.13567 -3.8393 -4.00412
4145 1 -4.41429 29.8112 -4.96321 -0.921534 -4.78707 -0.843859
4146 1 -2.87642 32.1913 -5.90009 3.10918 -0.549865 3.30675
4149 1 -4.71747 30.3212 -9.52466 -1.32203 2.54936 2.44217
4150 1 -2.94788 32.3544 -8.75819 2.09647 -0.499324 -1.31228
4157 1 -3.78075 29.6004 -2.08578 -1.13828 -1.65899 1.39305
4158 1 -2.23683 31.7362 -1.46563 1.50683 3.1268 1.20896
951 1 -8.07635 46.1664 -13.0463 0.63476 -0.745309 -2.57837
2061 1 -15.9299 46.4048 -21.7418 -0.691219 0.258704 -2.40079
2476 1 -5.18813 46.9715 -21.4393 -1.71114 2.33105 -2.84118
4061 1 -11.1203 35.0076 -1.6869 0.567231 0.900217 -5.95402
3857 1 -12.7999 46.1757 -10.3023 -1.15165 0.00255821 -0.398246
286 1 -4.83028 14.8885 -1.69297 -1.58747 0.347794 1.84506
1609 1 -23.8274 20.5542 -19.1762 3.32958 0.0120164 -2.2405
3255 1 -17.7108 11.7915 -16.8066 0.808869 -0.892054 2.33888
2952 1 -12.9052 23.6968 -23.0468 1.33923 -0.132482 -1.08576
4123 1 -0.374491 27.7502 -5.18076 5.54833 2.03301 0.576217
3160 1 -11.7606 45.9544 -23.0933 3.79489 1.77025 -0.266361
2480 1 -0.786062 21.5508 -8.23168 8.7692 0.381087 -0.580649
1291 1 -20.6375 16.3971 -1.83891 2.41124 -2.32522 2.30009
2956 1 -17.68 20.3977 -1.29493 -6.18983 0.0400163 -2.85275
2837 1 -18.4432 12.4626 -7.63979 0.169654 -2.87378 -1.3545
1998 1 -14.9198 11.6281 -0.0581823 2.69269 -2.2013 -3.70567
604 1 -1.10406 27.4785 -23.2352 3.21802 1.68205 -7.79468
577 1 -11.3175 22.9823 -0.125974 -2.58503 -0.246368 0.116895
4103 1 -7.21904 46.6473 -8.83429 -2.78057 -4.10272 -3.48614
3653 1 -0.682417 16.2493 -0.0969353 0.0498863 -0.30126 4.82856
673 1 -1.13402 15.5481 -23.4233 2.38313 -0.447197 -0.392093
2580 1 -23.4425 12.4997 -19.1559 1.11451 -0.72807 -1.60263
690 1 -0.81403 23.0043 -5.62871 -2.16047 1.64472 1.15381
3151 1 -10.3886 46.8994 -14.5757 -0.506161 -1.7725 3.74149
974 1 -0.772568 22.9708 -13.4258 -0.574025 2.0959 1.60018
2223 1 -19.5542 12.3924 -21.4577 0.281661 -0.215349 0.0106141
1383 1 -5.276 45.4906 -13.7493 3.76688 0.468365 -0.59836
1580 1 -17.2315 46.8673 -9.21856 4.07377 -3.98916 -0.287615
3984 1 -6.27925 11.6029 -22.0115 -0.403798 0.351243 2.38716
422 1 -2.05925 19.1462 -23.5372 1.60897 -0.696277 -0.376691
3174 1 -23.672 13.5569 -10.7029 1.49144 0.868231 6.29228
4109 1 -10.7639 44.3858 -0.951966 1.67851 0.892763 1.42789
4175 1 -0.409222 36.6729 -9.67565 1.36145 1.15169 2.95954
60 1 -0.395514 17.8438 -21.5421 3.22145 -1.03933 1.66675
1496 1 -2.74447 11.7482 -10.0265 -0.665994 -3.28976 0.129758
3544 1 -10.7334 19.2042 -0.159479 -3.42984 3.2635 5.20719
1941 1 -0.704809 46.4674 -11.2398 3.31256 -2.84821 -4.57888
1692 1 -0.43422 19.647 -3.96405 -1.86696 4.09882 1.60512
194 1 -0.492712 25.4295 -21.4814 -0.146827 1.76652 -2.60076
2596 1 -14.6508 11.4245 -19.3151 -1.26356 -1.79891 -7.72814
902 1 -10.3208 16.1294 0.00614961 -4.19503 -10.5651 6.06628
2 1 -8.14778 14.6622 4.755 2.67572 4.0049 1.00127
19 1 -15.6165 23.0788 20.5161 -3.16294 -2.56105 -1.99879
2754 1 -14.2843 23.4536 0.121236 -1.3005 2.66305 -2.43969
53 1 -3.14814 24.0489 13.4781 0.717253 0.0844 -1.81043
69 1 -6.51548 14.1124 9.49737 -4.26236 -1.91723 -1.28896
98 1 -3.5077 15.7135 11.9615 -4.38938 3.52648 1.03251
148 1 -17.0786 14.4596 12.3118 5.5706 -6.5145 3.57038
2129 1 -12.8313 45.4723 14.4301 -2.21143 -1.66463 3.87098
196 1 -18.4174 24.5054 4.59945 1.26756 3.68073 -2.05027
4115 1 -4.51765 45.1531 12.1032 3.38513 0.960144 -3.8978
219 1 -7.1671 25.2006 21.6591 4.26656 0.595601 1.24158
230 1 -8.25786 15.195 19.4414 -8.15371 -5.1703 -2.487
233 1 -13.6097 18.0533 12.6274 -0.0938943 6.74567 -2.56001
234 1 -8.30754 18.7508 9.13476 2.85669 -1.22488 -2.55365
237 1 -19.1456 23.6247 2.1988 -2.73463 0.465245 2.3948
239 1 -19.7319 19.6761 17.6737 3.08342 -1.62231 -3.40733
285 1 -15.6678 19.8354 14.128 1.07837 3.90443 -1.72552
2438 1 -5.29916 46.6786 23.7417 -1.30631 -2.54004 2.02701
2528 1 -11.5273 12.4172 5.56196 1.50857 2.98165 0.69884
372 1 -11.1232 22.0059 6.68083 -2.78827 -4.70186 3.08314
1005 1 -17.467 17.7705 0.134512 1.97296 2.01439 1.32617
4166 1 -1.91971 31.5369 6.09879 -2.50238 -4.29311 3.57609
425 1 -19.659 14.6698 17.83 3.18262 7.33659 -5.85722
453 1 -19.6319 14.6252 7.22476 -2.09881 -0.453176 1.62924
3840 1 -11.5952 45.1438 11.9867 -3.17956 1.45568 -4.73731
514 1 -14.3454 20.6116 20.0689 0.00163358 5.54486 -0.265992
3056 1 -22.6989 11.3407 11.0226 0.339106 -2.05238 0.790055
410 1 -17.8959 15.5624 2.17669 0.448108 -1.41115 1.75509
583 1 -21.4078 25.1197 14.3259 -1.14172 -0.476055 -0.206736
2362 1 -19.0776 13.4616 15.4116 -3.46875 -3.72731 1.62376
588 1 -19.1616 23.2789 6.85789 2.49621 -7.51952 1.55171
590 1 -6.00011 19.7036 21.339 2.90909 2.71021 2.38804
600 1 -21.6057 26.3188 16.9416 1.77771 -3.32643 4.17786
630 1 -23.1706 23.9889 12.3486 -2.98993 7.02121 3.4701
641 1 -18.0081 19.4013 4.50675 0.177054 -3.66024 4.94617
668 1 -10.9103 14.919 18.0792 2.44316 0.134134 0.417225
693 1 -10.2616 23.0735 2.63153 5.18292 -2.31624 1.01586
729 1 -13.2093 18.1935 15.7878 2.96669 -3.82244 -3.02091
734 1 -19.8162 23.9329 20.3546 -1.81898 0.230561 3.88943
1481 1 -7.58612 16.5568 0.466725 -4.70846 1.5067 0.131208
754 1 -15.2184 24.5719 18.0418 0.199087 -0.214077 5.2473
785 1 -4.27376 21.9959 21.6416 0.65114 1.75598 -1.90105
997 1 -22.8918 22.1264 23.4927 -2.63438 -1.17766 2.71836
791 1 -3.83069 24.9986 16.1176 -0.232968 -0.883028 2.04659
4210 1 -1.11713 40.7571 8.96715 1.32647 -2.99183 -1.10872
4110 1 -9.38181 46.3287 0.46978 -1.6154 0.215379 -1.6377
2715 1 -10.7907 11.6113 18.8364 1.76533 -4.00867 3.17948
913 1 -6.28005 24.1604 16.588 -0.450539 -1.55272 4.34545
914 1 -21.2827 15.6463 11.9758 -0.356951 -0.636393 3.53782
919 1 -6.6117 17.0043 13.3667 1.66042 2.06888 -0.335988
924 1 -7.58945 15.7475 7.28789 -0.885262 -3.25985 -1.41262
932 1 -18.8322 15.8792 13.8885 -1.86417 -0.430119 -1.10654
941 1 -20.9554 22.8704 10.9037 -3.78166 -3.95017 6.69632
947 1 -10.9994 16.3592 15.5662 2.98522 -0.042217 1.60283
949 1 -3.32858 15.3638 20.6705 -1.09179 -1.13431 -1.66915
961 1 -8.37244 12.4557 2.92331 1.00237 -0.516914 0.947183
965 1 -17.1037 13.2448 6.76676 -2.13265 2.08053 0.56276
985 1 -17.6891 20.3795 11.8962 -4.69738 4.67556 3.03896
23 1 -11.7561 46.0115 22.1004 5.0043 0.407661 -4.81574
1055 1 -11.3047 16.6653 11.3489 1.48117 0.168688 1.28006
1056 1 -9.37318 18.7414 3.93745 -3.42701 0.838003 -0.533868
1063 1 -2.17234 21.0287 9.02103 2.1344 0.666514 2.93982
3581 1 -14.9336 12.8437 3.21359 3.3038 4.84308 1.35253
1088 1 -21.4632 22.6388 8.12862 5.21274 0.251174 1.29747
1110 1 -12.5507 23.5504 8.69217 2.81351 -2.74853 3.09236
4214 1 -1.58198 40.8659 6.11601 1.44327 -0.0406419 -1.56462
1117 1 -8.18105 14.5079 12.536 4.02931 -3.86968 2.20708
1150 1 -15.7504 15.5528 6.18659 1.60756 -6.38917 -5.30268
1152 1 -13.1709 15.1667 19.8688 -1.74311 -4.05228 -2.40278
1166 1 -17.2677 25.9183 17.2101 2.57647 -3.47342 -3.06231
178 1 -14.2431 12.7512 5.98937 -2.84709 -2.71415 0.821449
1968 1 -18.5139 11.7898 12.8701 -0.97424 -1.55388 2.48035
1197 1 -20.808 18.463 21.2826 -2.92168 1.87676 -4.44373
1204 1 -5.05473 20.7703 3.80194 -5.1698 -2.30051 0.314379
1220 1 -22.6676 21.7062 16.8484 1.15392 3.79635 -0.352202
2426 1 -2.90166 18.9177 19.6712 0.19378 -1.85918 3.10461
1237 1 -18.9482 20.9585 15.2338 -1.57632 -0.641094 -1.7257
1642 1 -2.0438 22.7827 6.83356 -1.03745 0.687112 -2.66524
1285 1 -13.7058 24.583 15.5502 -0.2316 4.29828 -7.45774
2441 1 -21.1494 12.5419 18.8977 1.40232 1.35042 0.789505
1325 1 -2.81429 13.6696 8.19611 -3.86473 1.82507 -1.00546
1340 1 -18.6713 17.4564 11.3424 -4.28545 2.89492 -2.89469
1355 1 -9.62009 22.677 18.3044 6.50277 0.726031 -2.50916
1358 1 -8.85463 23.2733 22.7898 3.29234 -1.37661 5.42051
1372 1 -12.8394 15.5791 1.2798 -2.10163 0.988462 -1.69786
1374 1 -19.5759 26.0552 18.815 4.65703 0.630917 -0.621144
2475 1 -17.0157 11.4261 9.05234 -3.139 -0.646906 -1.85467
1385 1 -17.0097 27.2032 14.5841 2.97666 -4.7101 -0.994675
1391 1 -12.0423 20.3841 21.637 -0.839404 -0.85083 7.34641
1456 1 -15.6978 16.8844 11.0809 -3.03405 -1.71499 2.729
350 1 -23.4012 17.7233 21.9868 -0.196415 -2.21054 -1.09104
1461 1 -13.3957 15.9099 22.4512 -1.21659 -1.7679 -3.5739
1492 1 -11.2071 12.2737 9.69853 -1.35532 -3.46323 3.13463
1500 1 -17.6554 18.1897 15.391 -6.08896 1.29225 1.06845
1091 1 -13.2213 19.0849 6.50035 5.03023 0.460183 -1.27089
1575 1 -19.7858 17.0109 3.61596 -3.0027 2.53244 2.44832
3304 1 -0.719648 18.3255 16.5875 2.5451 -4.28017 -3.50127
1622 1 -17.7512 23.3723 15.8449 -3.14919 -3.54592 0.92438
3656 1 -9.42602 45.5672 20.107 2.1038 3.13772 3.08915
1655 1 -2.13658 16.0183 15.793 5.46396 -0.273254 -5.66462
1917 1 -23.3933 24.4611 18.0994 4.49379 0.251042 -3.68115
1658 1 -16.5056 23.0489 7.63208 1.81928 1.66351 -2.59872
1668 1 -11.1006 19.6106 8.27089 2.6349 -2.56544 2.63913
1679 1 -10.9186 23.1257 20.9795 -3.27803 1.81477 -2.45356
897 1 -12.8347 46.9918 10.069 -4.71986 1.29382 -5.89924
1705 1 -1.70037 25.4768 20.7926 -0.835324 -4.06018 0.10209
1708 1 -8.88478 24.8406 15.7459 1.45185 6.27132 1.98205
3774 1 -12.5844 12.5431 1.7058 -3.18531 -3.21875 2.34206
1167 1 -2.29717 13.7266 13.9562 -0.0172801 -1.3504 0.0998149
1784 1 -8.49334 12.3133 10.8129 2.9926 0.559796 4.02869
2897 1 -3.76803 13.753 0.520956 3.88853 1.43888 0.454411
1869 1 -2.03973 24.6419 18.0501 1.72937 -2.25399 4.47616
1873 1 -11.1239 14.9088 8.71114 -3.83198 -3.32337 0.689728
3529 1 -21.8945 11.9434 23.0329 -1.37964 6.91116 0.337479
1898 1 -20.4042 19.3127 13.1744 5.05077 -1.29702 0.390984
1916 1 -4.90551 16.1998 6.4661 2.3605 1.75992 -0.984763
4142 1 -2.77336 27.0811 5.58918 -4.57727 -3.89675 1.60545
1128 1 -1.49085 12.3083 0.368084 1.91522 -0.0156834 -1.21158
1963 1 -2.87374 17.4262 1.42298 1.31923 0.932418 1.08772
1515 1 -6.99986 46.548 21.438 4.83704 -2.61656 -1.99971
1885 1 -8.9313 17.204 23.4829 0.682968 3.4083 1.41309
2008 1 -9.42893 24.4569 12.9804 -0.118465 -0.810835 1.16404
2013 1 -16.1501 26.0293 4.60913 1.36405 -8.09261 0.352079
3150 1 -20.9873 12.5118 4.61627 3.57729 1.34492 -3.31567
2046 1 -11.0852 14.5719 13.4848 -5.2214 -1.41269 2.70797
3711 1 -11.0935 11.8982 14.6544 0.0990974 -0.0901858 -1.05786
2082 1 -7.42709 16.9529 3.17944 -3.55299 -2.95102 -2.29608
2119 1 -13.5024 19.9229 2.27324 -2.84551 -2.83285 -2.75094
2157 1 -3.9416 16.6695 17.9708 -2.61471 -0.829787 1.20159
2158 1 -14.7274 14.343 15.4878 2.51563 3.241 1.68594
2168 1 -20.9071 18.75 1.80119 -3.9512 -4.43117 -0.210102
4233 1 -2.19867 42.905 10.058 -0.0672388 -0.914737 -1.35803
3028 1 -14.0744 12.5588 20.3411 1.43709 2.01471 -3.99366
2231 1 -12.7243 27.1046 11.2489 0.927473 -1.36935 3.93858
2264 1 -4.81684 17.6018 3.76799 -3.04372 -1.44246 0.35758
2270 1 -7.81213 21.0956 4.40163 -2.15702 -0.550796 -0.101162
4209 1 -2.77392 38.5927 9.28896 3.05289 4.46973 -2.61279
2282 1 -8.24372 22.2331 6.87301 3.49758 5.93952 -1.96127
2285 1 -23.7327 18.418 1.98312 3.8434 5.03392 -3.86927
2305 1 -13.3282 20.1087 10.2475 -1.31164 0.617151 -0.796188
4119 1 -6.89143 45.3246 6.90445 0.554058 -0.82727 2.81937
2315 1 -13.9413 14.1526 12.7972 -2.98301 1.4072 1.20582
3831 1 -4.04345 20.1095 0.967035 -3.73649 0.537429 1.75342
2322 1 -5.675 20.9322 18.7321 -1.91844 2.50625 0.797387
2334 1 -10.0775 18.941 12.8276 -2.53783 -4.54277 -2.44941
2335 1 -3.74565 18.0674 22.1432 1.35521 1.63212 -5.0356
2349 1 -11.3746 24.8362 17.1484 0.753507 -4.67566 2.20283
456 1 -5.36842 15.6417 22.9699 3.06961 1.38587 -1.66572
2413 1 -7.62554 23.0863 2.15145 2.76546 1.65565 -1.88206
2199 1 -17.3403 12.7449 1.44853 1.652 1.07739 2.70418
4202 1 -1.43015 41.1431 2.28673 5.75868 -1.14073 -3.83838
2435 1 -15.7648 24.712 11.391 5.92508 2.82855 -4.38112
2439 1 -15.0702 22.3766 9.89128 4.13447 -0.913382 -2.45784
2575 1 -1.13419 18.6665 3.65767 -2.92788 3.96282 -0.375935
2462 1 -14.4255 25.1688 2.55508 -0.7599 1.81578 -1.32496
2488 1 -10.6077 20.336 18.9905 5.14489 0.745252 1.77045
2490 1 -12.8908 25.4084 19.5545 0.796801 -1.27934 -0.153773
2505 1 -11.3432 17.5422 21.9375 1.2593 4.05508 2.58286
2519 1 -21.4824 22.206 14.2844 0.0422418 -4.10795 -7.22754
2980 1 -5.80847 12.1746 1.59796 -1.04344 1.92052 -3.67103
2581 1 -7.21569 17.1835 21.0943 -0.653605 3.66897 -0.709187
2586 1 -13.781 15.1097 9.97271 -7.23615 0.0689843 -0.973096
2620 1 -9.41281 17.7899 6.56768 1.00716 1.2305 -0.946939
2660 1 -14.5445 26.1192 13.4163 1.51467 -0.802723 2.35229
2664 1 -15.6232 17.58 23.2725 0.0227113 -4.78804 0.428468
4189 1 -3.1154 34.0352 5.39047 0.0664399 -3.38025 -2.3102
2710 1 -6.75792 14.6275 16.9769 4.38343 0.0213794 -3.64552
2723 1 -8.71824 17.8323 15.2723 -1.93663 -3.04091 2.3599
2742 1 -18.3279 17.0268 6.23668 -2.20028 3.41395 -2.53871
2745 1 -15.1205 22.3633 2.69698 0.601983 -2.61177 4.32329
2769 1 -15.442 16.7096 16.4789 5.07731 -1.85416 0.261042
2777 1 -15.9971 18.771 2.66769 -0.842459 1.47065 -5.87988
2778 1 -23.0796 15.797 18.9695 -2.16476 4.54323 -6.16036
2788 1 -21.485 17.1458 14.5985 -1.32071 -1.47006 0.814237
2809 1 -13.085 20.704 17.2778 3.15967 3.92151 0.836736
4162 1 -1.92487 31.6173 8.83277 -2.59862 -1.21957 0.972941
2820 1 -14.1583 25.8238 8.98414 -5.7883 0.580097 -0.507398
2851 1 -7.04321 23.6438 19.164 -5.88232 -5.96309 -2.5173
2853 1 -4.39195 24.8357 21.3906 1.11981 0.67042 4.02755
4118 1 -11.5192 46.2032 7.60618 -3.04177 0.307857 -4.30928
2379 1 -19.9077 11.5812 10.1041 2.51994 3.08908 -1.76178
4178 1 -1.94602 36.3864 1.82881 0.0708595 -2.41543 0.711125
2895 1 -18.354 19.4517 20.0929 -2.07377 0.922823 -0.442221
2905 1 -17.989 22.101 21.0433 4.69199 -1.56409 1.4927
2921 1 -18.272 23.2523 11.5686 -4.27466 3.4477 -0.693106
2939 1 -13.7529 21.7822 5.40212 3.03518 3.26987 3.6238
2942 1 -21.6857 14.3555 21.2425 6.2471 2.01273 -0.746062
2950 1 -18.6038 18.5825 8.50546 -4.30807 1.82832 3.58074
2971 1 -2.87393 19.4555 12.3647 3.42508 0.0646003 -2.42303
2973 1 -9.87883 17.593 19.3547 5.0278 -1.35242 -4.80228
261 1 -2.6561 47.0915 11.4975 0.565447 2.91164 -3.53179
3530 1 -10.796 15.1714 5.85368 -1.80197 2.20369 -4.57362
3002 1 -20.9937 17.0033 17.3371 -0.415308 2.81045 3.78644
4225 1 -2.72059 43.3463 3.14603 -3.04939 0.786906 -2.93366
3619 1 -4.59546 20.6653 10.6365 -0.182489 -1.68247 1.18408
4185 1 -3.21789 33.9133 9.76542 1.54308 5.25872 2.27076
3042 1 -11.5815 20.4409 14.8059 -0.00437589 -1.31062 2.51406
3180 1 -0.8215 15.4487 3.81829 0.529361 -3.10405 -1.24348
3076 1 -11.4977 22.1363 10.9845 1.30114 1.81797 -0.146694
3122 1 -13.5068 24.3498 22.3186 -1.388 -0.920849 -2.80195
395 1 -9.38897 45.0153 17.3555 -1.57187 -2.4836 -5.517
3144 1 -3.49287 15.0856 2.75882 3.46621 -0.59078 1.99634
2321 1 -3.68748 25.8108 23.8607 6.38858 -0.426302 -0.303915
4201 1 -3.10555 38.8679 2.75419 -0.907445 1.68026 -3.22272
3186 1 -6.20607 20.5769 8.04787 3.31278 0.234064 -0.0751217
2591 1 -5.01102 45.8126 14.6932 -2.59179 -3.97358 -0.667046
3211 1 -6.78695 21.7445 14.8153 2.29758 1.03047 -3.10814
3214 1 -5.95848 17.3361 16.1946 0.974644 -0.27479 0.488367
3232 1 -22.3739 15.8704 7.2251 -2.2274 -0.343858 0.265358
3233 1 -1.98238 17.9813 8.84754 6.78995 -1.78005 1.81657
3245 1 -8.78344 15.9947 9.87047 -2.11916 -2.41629 1.98479
3286 1 -20.1977 21.1561 5.20081 2.85415 -0.123723 -5.0401
3290 1 -15.2985 22.147 16.2353 0.945147 -1.46378 4.16629
3292 1 -22.9215 21.9048 4.79735 -6.12034 -0.642876 1.91876
1175 1 -8.04498 13.0359 21.0026 -2.4434 -2.91685 3.46461
697 1 -21.9849 15.9497 23.9359 -0.513627 -0.911278 5.77444
3323 1 -4.74021 20.0215 16.0909 -0.165212 0.0554524 4.87367
3325 1 -12.7002 16.8771 4.74736 -0.837197 1.52972 -2.39452
83 1 -22.2084 13.4585 0.902111 -1.27044 3.05178 -2.77731
3356 1 -11.5194 20.9865 3.8495 -1.64096 3.40108 0.689509
1606 1 -23.1864 19.1382 9.42547 0.744716 -5.06321 -1.8922
3359 1 -7.54829 22.5024 12.3584 3.44103 -1.4409 5.57905
3361 1 -4.93953 23.2442 11.3476 -0.928082 -0.302327 0.919138
371 1 -11.2944 46.76 16.1835 2.35799 -2.43828 -6.15737
3428 1 -5.58787 13.4413 12.2006 -3.17588 6.12786 -0.581658
3444 1 -21.6322 14.8087 3.3803 -3.32642 -0.80278 2.50098
1984 1 -1.42672 21.5874 21.9807 -4.91921 7.61614 -0.782919
3455 1 -17.8824 14.8097 20.0277 1.57843 5.25582 3.10952
3459 1 -2.58487 21.7394 19.1985 -0.415886 0.981554 -1.35285
4213 1 -3.12784 38.6994 5.5386 0.988259 -4.01229 -2.1842
2619 1 -0.720322 11.6457 23.6435 1.56694 0.537625 -1.32919
3517 1 -7.78562 19.0383 17.9394 2.19612 -5.00977 -5.22417
4237 1 -2.57616 43.357 5.91479 -3.58138 3.87164 2.75766
1932 1 -4.53535 19.2661 6.23639 -0.671477 1.28366 -3.8061
3131 1 -9.80358 13.2916 0.671041 -1.17365 5.0889 2.36029
3550 1 -14.6104 17.4137 8.35777 0.0640998 1.70789 -0.705901
3561 1 -21.2784 19.4898 7.43777 -0.441168 -0.344503 4.05414
3583 1 -16.1178 19.6358 9.46344 1.14848 -1.1535 -3.97172
3597 1 -0.837342 13.6786 6.00622 0.397262 -0.519464 0.433671
1094 1 -19.7469 16.112 21.8448 3.88474 1.32835 2.92294
3627 1 -5.90995 18.1729 10.7083 -0.838394 -3.41816 -3.04807
349 1 -5.49279 11.623 20.6328 -1.56398 0.629567 -0.962495
3654 1 -18.5768 25.1974 13.6902 1.33825 2.12758 -1.95359
3677 1 -6.89859 12.8739 14.7555 -0.691216 -2.97013 -4.15174
3709 1 -19.2975 14.5876 10.2582 -0.18809 -3.16262 -1.82165
886 1 -6.29177 21.5336 0.26041 -2.08835 1.99975 2.87144
2811 1 -15.2134 15.9675 3.33389 3.36364 1.58416 0.768129
765 1 -23.934 11.6861 8.43925 -2.34617 0.725391 4.58895
3766 1 -11.9756 23.1085 13.8233 3.93973 -0.59358 1.71741
3771 1 -15.9307 18.5537 20.4544 -1.41029 1.87888 -2.71144
4186 1 -1.54593 36.0397 9.18708 2.47143 -3.35599 -2.38461
3793 1 -17.7084 21.1113 1.8656 -1.03101 -3.85792 3.45025
4114 1 -8.48817 45.1983 9.2781 -0.00569066 -0.330851 -0.569292
3846 1 -22.3709 22.8286 20.5037 0.581302 -1.57611 0.544269
3852 1 -9.12195 20.6149 15.9012 -3.98699 2.73279 -2.46046
3889 1 -15.7039 16.3666 19.0574 0.315949 -0.353004 4.18375
3892 1 -14.4735 24.3201 6.41909 -1.73175 0.405415 -3.84279
3000 1 -3.86623 11.3528 13.1557 0.548961 0.523132 2.01982
3946 1 -4.04749 16.1537 9.37453 3.75942 2.78259 -1.62904
3955 1 -9.21967 20.7274 11.0861 0.346491 2.73156 0.916983
3966 1 -22.5637 20.5859 11.7249 4.61517 -1.68007 0.687951
3230 1 -24.3404 13.1964 21.4455 -0.0753994 2.06921 1.47597
3976 1 -3.84571 13.7301 5.45116 -0.786127 -1.81462 2.45933
3985 1 -15.9983 20.2341 6.45793 -1.14501 -0.0882337 2.25067
3988 1 -21.8797 20.324 19.2899 -6.83675 3.93001 -2.25398
3999 1 -3.90688 17.6041 14.1848 3.37142 -3.99981 1.90823
4009 1 -11.6452 25.3799 3.10767 2.74324 3.87481 -0.872551
4010 1 -10.1688 27.6918 2.14815 3.44818 2.48178 0.911447
4011 1 -7.52113 27.4902 3.12862 2.82932 -5.66959 0.406863
4012 1 -6.12349 25.6066 1.94119 8.28308 -2.62301 2.7894
4017 1 -10.8082 24.8922 10.4997 0.725486 2.5435 2.88733
4018 1 -9.58058 27.0206 9.25489 -0.522785 1.25072 5.36382
4019 1 -6.88632 26.9139 9.97237 -0.26842 -0.280668 -2.40253
4020 1 -5.21384 24.8648 9.09467 -1.48088 2.20399 -4.89713
4021 1 -11.5701 24.8669 5.97983 -2.48496 -4.76605 -1.70541
4022 1 -10.1311 27.0763 6.53716 5.95182 1.90007 1.51751
4023 1 -7.44975 26.6876 5.75963 1.64779 -1.26937 -3.68673
4024 1 -6.21831 24.2344 6.38842 -2.56106 3.01936 0.333653
4033 1 -11.5884 29.9091 2.85541 6.02018 -2.11756 0.303945
4034 1 -10.3619 32.164 2.10396 1.52441 0.832954 4.42246
4035 1 -7.51424 32.1216 2.87009 -4.27851 2.30485 1.66896
4036 1 -6.60118 29.8536 1.84422 2.23231 4.968 0.675889
4041 1 -10.7564 29.1202 10.5846 -4.83181 -3.99352 -0.667549
4042 1 -9.89217 31.6915 9.78367 0.226954 3.9986 5.62699
4043 1 -7.14295 31.7022 9.87975 -2.59583 3.66545 3.07817
4044 1 -5.86664 29.1937 9.14644 -1.42412 -1.70932 2.37647
4045 1 -11.1912 29.6418 5.61525 -0.137913 6.18858 2.77447
4046 1 -9.82859 31.9605 6.96162 3.43909 1.71404 3.90067
4047 1 -6.99344 31.7097 5.64085 3.77144 5.6751 2.84056
4048 1 -6.15986 29.169 6.393 4.68024 1.3665 2.3664
4057 1 -10.913 34.904 3.3322 -0.356297 0.927437 -1.84772
4058 1 -9.68627 37.2329 2.15601 1.77021 -2.9926 -0.700504
4059 1 -7.15542 36.6586 2.93526 -0.129101 6.07822 -3.2425
4060 1 -5.85038 34.2557 2.05075 0.541897 -1.71615 -3.48445
4065 1 -11.1566 33.8043 10.7683 0.663006 1.45704 -2.33731
4066 1 -10.4587 36.4235 10.1152 0.86604 -3.51468 -0.14017
4067 1 -7.80457 36.2203 9.55185 -0.457936 0.687114 0.918785
4068 1 -5.99115 33.941 9.25308 4.5801 1.03326 0.538657
4069 1 -10.5371 34.5025 6.08889 0.226142 -2.62195 -1.32673
4070 1 -9.56829 36.8064 7.18144 -6.46272 -0.157234 -1.78741
4071 1 -7.14235 36.4362 5.70741 1.40924 -2.63385 5.56571
4072 1 -5.69391 34.1302 6.4664 4.15217 3.66639 3.23739
4081 1 -11.0006 39.3906 3.58563 -1.01322 2.20051 2.77435
4082 1 -9.34947 41.4068 2.71817 -0.986658 -1.04363 -5.46702
4083 1 -6.74406 41.374 3.31255 -4.56612 -2.63382 -5.87237
4084 1 -5.95274 38.8975 2.18565 -6.25724 -5.14517 -3.56448
4089 1 -11.467 38.9422 9.46979 3.4742 -5.38331 1.56797
4090 1 -9.33242 40.7713 9.84732 -1.03533 -0.30472 -2.20792
4091 1 -6.80134 40.7438 10.712 -4.23001 -0.948974 0.765871
4092 1 -6.00639 38.3693 9.40115 3.14076 -0.144945 -2.91601
4093 1 -10.7572 39.213 6.44136 0.0687432 -2.20021 1.31554
4094 1 -9.25083 41.486 7.13483 3.02356 -3.4944 2.87535
4095 1 -6.8915 41.038 5.9787 1.42577 -4.78326 -0.476983
4096 1 -5.68565 38.6433 6.62859 -1.01507 0.154712 -0.864553
4105 1 -10.075 43.8606 3.90111 -1.35516 -1.08277 -4.27285
4106 1 -8.89934 46.4068 3.33218 6.14444 6.76593 0.252174
4107 1 -6.24661 45.773 4.17812 0.171985 1.90053 2.46652
4108 1 -5.43902 43.6604 2.39625 -3.63035 -0.987473 -0.723976
4113 1 -10.2388 43.457 10.3677 3.24277 -2.40177 -0.373725
337 1 -21.3673 21.5212 2.53027 3.32855 -2.30538 -2.33098
2966 1 -3.02179 46.8409 16.7117 -4.41134 -1.3728 -4.26682
4116 1 -4.95093 42.7974 10.1755 0.86684 0.152089 1.12584
4117 1 -9.6684 44.2702 6.68852 0.783999 -2.01241 -3.47531
3735 1 -11.4861 18.0146 2.26327 -1.12508 3.87015 0.218749
3970 1 -7.51326 20.9132 23.4358 -0.188113 -5.00825 -0.078581
4120 1 -5.27057 43.0623 7.1297 4.18063 3.46287 1.90222
4129 1 -3.62087 25.7817 3.23405 -2.0649 5.47745 3.50722
4130 1 -2.63255 27.6882 1.46861 3.64031 1.65696 4.06828
4137 1 -2.92316 25.2985 7.732 -0.848956 -1.05196 2.3155
4226 1 -1.53286 45.8652 2.27618 1.82795 -0.136471 2.4485
4141 1 -3.99757 23.3484 4.82674 1.86198 -3.95521 -2.84388
1141 1 -15.7349 11.8388 11.7147 -3.73708 3.68016 -3.40258
4153 1 -3.72711 29.9232 2.55551 -0.714723 0.384573 -1.44156
4154 1 -2.04151 31.9928 1.38089 0.575193 0.604172 -1.48863
4161 1 -3.05217 29.0214 9.24202 -0.173792 -3.60162 2.1905
3460 1 -1.93056 20.752 16.5889 -2.25361 -4.2038 -1.2875
4165 1 -3.69253 29.7254 5.32744 0.875285 -0.0356039 -6.81289
165 1 -16.4935 12.2113 15.941 -1.67385 1.35196 1.25577
4177 1 -3.14041 34.0819 2.72688 -2.63021 4.40824 1.52101
1484 1 -6.31353 12.8799 6.66146 -2.33941 -2.31564 -6.88674
4138 1 -1.51921 26.7056 9.64044 -1.26596 -5.72687 -1.93643
998 1 -1.00017 12.2421 10.1988 -3.38849 -0.00134785 -1.10871
1723 1 -22.9298 18.0796 5.58611 -0.269275 -4.19842 1.58193
3757 1 -1.43809 21.36 1.06324 -2.03709 -0.553805 -3.62107
867 1 -4.67546 13.6217 18.4113 4.18022 0.0987184 -3.0806
2011 1 -2.78416 12.5277 16.6843 -1.04135 0.235979 -5.34605
2117 1 -24.1629 23.5794 7.83157 -0.616934 -0.770562 3.71281
1771 1 -1.07571 25.1178 11.8702 -2.4373 -1.66969 -0.581159
3337 1 -13.9971 12.5714 8.83451 -1.2807 2.02965 0.911128
2424 1 -23.197 16.2381 10.0178 -3.4793 2.40288 1.51926
4190 1 -1.85343 36.2843 6.42892 0.716049 -1.88847 -0.939485
3182 1 -16.7032 46.3218 20.9486 -2.79232 0.367641 3.60768
992 1 -23.2142 11.4923 3.00025 1.99892 2.49607 -3.059
3307 1 -17.0849 11.8654 20.222 3.06407 2.26552 -0.745707
869 1 -1.60652 19.6654 6.46862 -3.52486 3.12196 -0.801138
1368 1 -22.9133 20.43 0.141266 2.60197 -0.023789 -0.107316
2272 1 -0.829493 15.0397 10.7312 -2.27623 -2.1539 2.18926
2662 1 -21.0487 46.5164 10.3663 0.388037 4.68131 5.79606
3669 1 -2.06246 21.3818 3.87262 -1.86183 -4.12686 -2.48728
3920 1 -9.1189 12.7187 16.5491 3.66581 2.78595 -2.48747
3890 1 -1.92536 21.7431 13.833 6.42762 -3.63326 -1.47574
3293 1 -7.99463 14.609 23.5036 -4.00671 3.43338 2.25242
1906 1 -19.9908 46.2144 12.7884 2.10211 3.08976 -0.599731
3438 1 -18.249 12.0883 4.13328 2.69083 2.63788 1.00406
2307 1 -14.452 13.2572 23.0389 1.22485 -0.682976 1.28178
1458 1 -21.2871 12.1452 7.44019 2.27537 0.194259 -0.276357
2492 1 -24.3254 16.4362 3.74358 0.669949 2.13034 5.56154
4234 1 -0.77324 45.222 9.91745 -1.11712 2.68959 0.376801
2849 1 -21.3652 46.4565 15.1543 -0.495504 -0.518372 -1.57329
2634 1 -3.15952 11.3346 22.6056 0.779143 -1.66095 3.09654
4238 1 -0.869429 45.2622 7.02129 -2.20992 -0.102406 4.50524
570 1 -22.9481 13.5004 16.6869 3.09644 0.866685 0.427987
906 1 -6.80139 45.8856 16.8679 0.944501 -2.14097 -1.71115
2864 1 -12.7151 12.9446 17.1076 0.682919 3.78716 -1.09798
911 1 -0.664688 15.8563 21.811 -0.272933 1.35054 -5.20514
3602 1 -0.929327 27.7768 21.7332 -0.437638 1.12385 1.95503
3382 1 -21.4671 12.0682 14.5821 -2.02427 1.52263 -1.94094
1769 1 -23.7799 15.5475 14.9514 -3.0637 -1.73241 1.09493
3193 1 -21.3493 25.2604 1.18989 -1.17456 1.76122 3.88805
1270 1 -23.096 13.6352 12.8687 1.83124 -1.02656 4.3755
2701 1 -23.7673 25.718 2.57974 -2.28725 -5.71086 -7.10714
3672 1 -12.6353 11.6061 12.0237 8.05909 0.46805 2.89041
2887 1 -24.173 18.4525 19.4065 1.14458 -1.98165 -4.85272
1720 1 -6.88008 46.5561 11.3428 -1.41239 4.23582 1.43739
3931 1 -3.84316 11.2855 3.77717 -3.91947 1.60099 1.55819
3928 1 -17.6931 16.0099 23.7295 0.445161 1.20083 2.18691
4086 1 -9.68785 42.0304 0.0189962 -3.0678 -0.447257 -2.58215
388 1 -16.9846 46.7279 23.5803 -1.1548 -5.44859 -3.48221
1113 1 -20.6654 20.2647 23.6286 0.837191 0.154509 -2.52999
3297 1 -18.3458 21.9036 23.8111 1.295 0.327316 -5.45164
4 1 2.7519 -1.98815 -6.70431 -0.632156 0.820426 -2.18561
2477 1 12.3563 11.1547 -1.32844 -2.13052 2.10213 -2.34613
14 1 12.473 5.47523 -6.35938 -3.91231 0.248147 -4.64965
30 1 21.9026 -0.954364 -22.1882 1.31412 -5.02762 -2.88345
31 1 4.4032 -16.6219 -18.6468 3.47601 2.36421 -0.518022
33 1 0.416674 4.36975 -11.4077 1.65232 3.21524 6.16668
3 1 9.02365 -8.76115 -20.0905 -3.07925 -2.63896 -1.30485
41 1 6.94963 -5.6139 -14.5098 6.2406 7.04972 -0.815369
48 1 8.07275 3.17974 -6.50719 5.74045 0.962824 1.10626
52 1 13.1349 1.68483 -16.1701 -6.43056 -0.664842 2.00665
58 1 1.46403 -19.6264 -4.01358 -2.26494 2.04281 -2.2459
831 1 3.80171 -14.7232 -21.7782 0.345743 -0.565458 -0.536937
2365 1 22.6868 -8.13745 -2.4037 4.62782 2.71784 1.83117
1731 1 21.4071 1.1642 -1.38573 2.08992 -1.99043 4.28852
923 1 4.14721 -11.2136 -0.291898 7.23531 -2.34298 1.80926
2298 1 0.148027 -21.9306 -4.70219 1.97566 -2.54615 -2.39227
95 1 4.2738 0.907506 -14.2515 2.72218 -4.44153 -4.55422
99 1 13.5933 -21.5381 -7.06493 -1.79399 7.20734 1.25577
893 1 22.5171 -5.64425 -0.757628 1.68312 1.34903 1.55924
110 1 9.91304 -12.2567 -6.5883 -4.70982 -1.68824 -3.06513
111 1 19.8174 -2.06108 -13.0576 -2.08369 -2.93415 0.710257
116 1 5.58215 -19.1312 -13.9108 1.20541 -2.1334 -2.71209
118 1 3.97439 -18.1645 -11.5862 -7.4145 -3.11862 -1.31323
657 1 3.34858 -1.67872 -13.9405 -1.7202 -4.47036 -0.823432
3333 1 3.57051 -7.9731 -22.4263 3.52236 -2.05055 1.72069
131 1 4.33885 -7.66859 -19.6235 3.4202 3.25642 -0.335043
2593 1 21.5153 -5.95736 -22.5642 -2.03123 -5.10118 -2.42075
153 1 8.92549 -15.6768 -3.48549 0.461209 2.84994 1.78094
155 1 22.4209 -21.9705 -21.281 -3.86191 0.840763 -2.48101
157 1 12.0291 -14.2954 -14.7668 -0.00707395 -1.84119 1.84243
161 1 15.349 1.78352 -12.2649 3.01173 -4.69667 -3.69345
184 1 5.55662 -24.091 -21.2522 -0.616363 -3.9179 0.713355
2514 1 22.9394 9.53896 -20.9389 -1.86197 4.16508 2.91731
2210 1 20.7192 -17.6194 -0.421941 4.4121 -2.93336 5.17718
192 1 8.36971 4.27735 -3.86865 -1.98022 -1.59943 -2.66823
195 1 8.00096 0.293344 -5.7685 5.16827 1.90609 3.6338
200 1 12.7209 8.3948 -14.954 -0.785333 0.0393871 2.37821
1517 1 22.4328 -14.6855 -10.2321 3.4805 -1.34495 -0.903213
214 1 14.8676 -5.0841 -20.1487 0.0380417 -0.68198 3.92659
2406 1 22.9646 10.0872 -10.48 2.37711 -2.91382 1.59073
225 1 1.6039 -14.1412 -6.87475 0.120583 -2.68027 -4.09672
1410 1 0.783748 -20.5484 -16.6911 -2.66097 4.1315 -2.16397
852 1 10.6822 -3.03758 -0.526067 0.939582 1.29426 -3.41787
254 1 8.53715 -10.3065 -10.7547 -1.11177 -1.93411 -2.86919
259 1 15.9516 -14.2243 -19.5777 -3.11949 4.92588 -0.849154
260 1 10.6971 6.36156 -1.87861 -2.10582 -1.97606 -0.261089
265 1 13.0743 -17.6991 -5.52163 -3.81914 -2.33831 1.19326
1695 1 16.4683 -22.3944 -12.768 2.90163 -0.0131886 -2.04125
2818 1 1.99766 -1.23342 -0.844674 -0.208824 -3.84795 1.34712
277 1 12.226 -13.8539 -20.8378 0.755783 2.93267 1.41789
287 1 4.44625 -8.92383 -9.21801 -0.66803 -1.95081 -3.88216
297 1 20.0909 -10.9992 -9.82506 2.05475 0.674865 -0.196245
298 1 14.0596 -22.8075 -22.4559 3.81158 -3.13085 5.07472
2039 1 9.95464 -24.0834 -22.836 -3.15052 -1.11455 0.448957
2339 1 8.16436 10.7343 -5.90336 3.35529 0.879479 -1.1125
332 1 10.244 2.26355 -9.35999 5.86492 -7.51488 -1.27186
333 1 8.91198 -8.75391 -15.0021 -4.96154 -6.41815 -3.22509
334 1 6.1852 -21.5834 -4.01519 0.434817 -1.64401 -0.417462
344 1 9.29454 -15.1746 -13.6392 1.57312 -0.942254 -1.40517
1970 1 21.0975 -5.58946 -3.56992 -6.14479 -0.236673 -1.58847
369 1 9.24313 5.45688 -15.2104 0.870488 1.74224 0.894357
370 1 4.69083 -12.347 -20.381 -3.86864 -4.43843 0.153141
378 1 19.7856 -15.6524 -3.89038 0.332982 1.37153 0.57123
386 1 17.9369 -0.307046 -21.9384 -0.0268558 -2.93113 2.12485
401 1 19.3509 -17.0017 -7.56578 -2.88721 6.17005 1.62881
1611 1 5.62726 9.35336 -5.59425 -3.67082 -0.708956 0.375171
409 1 1.6996 0.520883 -8.01468 4.18836 -3.089 -2.75387
2706 1 2.17513 -18.8097 -23.7615 1.40226 2.02781 1.50824
424 1 4.27512 -4.64545 -2.56013 -2.46752 -0.390042 -1.29035
431 1 10.1868 -5.26685 -17.3776 -1.29573 5.83348 2.49532
441 1 17.3443 -0.117305 -3.46803 -0.704581 3.87441 -0.619747
445 1 19.2008 -8.48652 -11.3691 2.84133 1.19166 -4.35397
446 1 22.3862 -12.4586 -8.61432 2.42112 0.908601 -0.383295
94 1 22.5684 3.10267 -11.5357 6.56669 -3.27776 -2.11082
1548 1 13.8742 -23.1481 -9.41293 -0.906714 -1.62851 -5.12022
459 1 2.53838 5.2071 -12.8549 4.54494 -0.858447 4.70811
2419 1 23.5852 4.73686 -18.8966 2.9664 -3.07245 -2.16235
461 1 1.36974 3.34101 -20.833 -1.70354 0.899333 3.34008
2876 1 21.0649 -23.6826 -23.5011 0.355595 5.3797 -2.31296
474 1 5.3624 -4.26048 -12.4865 0.232734 2.06337 -0.107445
1378 1 8.51577 -9.71385 -1.30474 -3.83201 -1.58683 2.13761
2814 1 21.5218 -7.35752 -5.96403 -4.40685 -3.72389 -4.34114
485 1 21.1885 -21.8482 -18.9223 2.29716 -0.211323 1.60989
3443 1 22.9195 3.36369 -2.54808 -1.33273 -0.0977263 0.781307
490 1 14.2101 -15.4278 -12.2323 -6.66398 -0.506631 0.939342
493 1 14.3399 -2.32112 -14.5043 0.231432 4.77006 -3.57729
496 1 6.40543 6.33686 -14.7925 -0.750052 4.00226 -0.273878
1424 1 18.9121 10.7311 -8.75513 -6.14688 1.98509 -1.03484
503 1 7.89438 -0.533027 -12.7995 -3.94942 0.859886 -3.50514
3453 1 13.9755 10.1109 -19.2781 -0.818517 -3.76881 0.370587
534 1 17.3645 8.3913 -11.7251 2.70434 0.955305 1.57673
2384 1 6.99031 -12.3142 -22.2008 0.148122 -1.41652 -3.14376
3375 1 21.2002 -11.3363 -0.600415 -5.53807 -1.58195 -0.31706
543 1 17.481 -15.4238 -17.4278 -4.05756 1.98057 0.386627
547 1 16.1822 -15.3493 -22.0593 -1.68888 0.400088 2.35422
1395 1 1.01212 10.835 -7.20135 -5.46852 -1.2172 0.566578
551 1 11.8433 5.62415 -19.5894 3.89948 5.58465 -3.12964
405 1 4.78745 -24.0726 -4.38303 -1.75515 0.55892 1.95635
3006 1 23.0573 7.14471 -17.812 -5.38706 0.547923 1.99662
1791 1 2.41296 -5.3921 -19.3528 1.04481 -1.58578 1.64491
562 1 5.45863 8.33915 -21.0985 4.9766 -2.93947 1.62867
574 1 10.4892 -21.661 -3.90678 -1.3171 0.0963318 -0.705744
579 1 4.3535 -22.682 -9.93204 -0.145363 1.8382 -0.541869
584 1 15.5887 3.8503 -3.81142 0.531848 -2.01402 -1.29746
1154 1 1.08145 9.61142 -23.2134 -0.342941 2.09589 0.101948
2069 1 23.395 -21.4386 -10.8379 8.46405 0.528104 0.553282
608 1 5.6948 9.8422 -11.3626 1.11295 1.48027 -4.84118
613 1 10.228 8.50259 -17.781 0.929913 3.50635 -2.6199
620 1 23.0693 -10.432 -12.134 3.10265 0.034699 -0.99375
2080 1 23.08 -23.2441 -17.6405 1.78568 -1.70227 3.24258
2357 1 -0.075055 0.707053 -1.81403 -3.05634 -0.947554 -3.1668
647 1 5.42957 6.5922 -2.39685 -3.38561 1.29659 1.62899
648 1 19.6535 -18.2144 -21.2649 -4.51659 -1.12774 -3.43106
2420 1 0.764734 -10.5044 -9.98116 -0.403525 -1.45861 -2.14464
1126 1 1.08759 -14.5569 -15.5392 0.68922 -2.44341 5.7148
411 1 -0.0611259 -5.29497 -9.3681 -0.161815 2.74955 -0.0812107
684 1 9.50985 -22.2016 -12.5898 -3.77046 2.69295 2.72909
695 1 7.90434 -13.8949 -8.28237 1.07026 -2.78976 -1.40613
698 1 22.321 -9.7009 -4.67572 -2.13386 -0.879737 -3.66422
3271 1 8.79015 -9.89691 -22.8612 -1.61369 -2.71714 -1.63232
708 1 10.3214 -2.85153 -20.2807 0.293938 1.40737 1.01402
714 1 22.1969 -5.94389 -11.1183 -1.40782 5.10902 -4.52677
720 1 2.71717 -3.05086 -21.2259 -3.61063 -2.34032 -2.27104
136 1 3.34758 6.022 -4.52309 -2.28317 -6.49697 7.74971
727 1 9.75268 -2.99534 -14.7318 3.0739 3.25018 2.69349
730 1 12.9312 -21.0678 -18.1408 -0.338835 1.96124 2.24087
3112 1 1.09246 -14.5779 -18.442 -0.699861 -1.0207 -5.45735
744 1 9.47804 -10.7413 -13.4308 -2.41668 -0.834528 0.17509
750 1 19.8022 -4.217 -8.81419 1.20714 0.852475 -0.880634
853 1 12.2901 10.5464 -16.9183 0.406432 -4.18267 -0.0166683
775 1 21.9453 -19.1824 -11.1045 1.87532 0.283266 2.07089
506 1 0.238821 -21.6974 -14.1482 -3.53395 0.99601 1.65374
778 1 1.81234 -17.5217 -18.8445 -4.37977 0.992398 1.69537
779 1 4.78902 3.99403 -9.55333 4.36458 1.44099 0.907395
782 1 22.5899 -8.59113 -14.5165 -7.17587 1.70316 2.74337
803 1 18.2429 -11.4678 -7.6943 0.407718 2.86331 -1.32185
804 1 8.07171 -19.628 -12.6797 1.0356 0.827283 -0.300734
812 1 4.72795 -13.1275 -10.8211 -0.578038 -3.93057 0.736131
824 1 2.63013 -20.4498 -6.77997 -0.764243 -5.54202 -3.12974
3322 1 12.4535 -7.39876 -22.4858 -4.92147 3.74791 -5.17727
835 1 3.09827 7.64982 -22.8323 -0.693816 0.415733 -0.59946
844 1 17.8758 -19.9943 -19.6508 -1.81277 -4.01436 -2.7825
845 1 16.1475 8.37245 -1.81707 2.45995 -0.775458 3.51099
996 1 20.0611 10.27 -16.6701 -0.788823 -0.814639 -3.02677
849 1 20.5907 -14.1958 -12.1397 1.36611 -1.89304 3.4968
2964 1 1.76333 -21.8036 -20.6408 -2.26266 1.44087 -1.62832
3753 1 7.36949 -1.59924 -23.2433 3.15429 2.31987 -2.68554
1772 1 12.7367 -23.2136 -0.710291 -1.30837 -3.13889 0.0975118
860 1 14.1634 -5.77334 -15.3642 0.137945 -0.365521 1.94891
398 1 22.9028 -22.7903 -8.37278 -1.9035 -3.48849 3.44764
876 1 10.5395 -14.6921 -10.8429 -2.00556 -0.227848 -2.85182
879 1 17.6905 10.8456 -20.5952 -0.192731 2.43983 5.84843
884 1 20.044 -19.6188 -17.5921 2.5983 -0.271186 -5.53342
892 1 5.33476 -12.2742 -8.13599 0.00350092 -2.73279 -1.02225
2074 1 0.316564 10.4476 -14.0642 0.388405 -4.69711 -3.13714
915 1 19.7255 -4.66628 -11.702 0.762643 -3.79662 1.90604
2569 1 17.441 -17.8794 -13.5011 1.38425 1.77015 -4.24981
921 1 9.39476 -11.542 -18.6447 0.168352 -4.57549 1.34649
931 1 15.3224 -1.85433 -7.52027 3.4688 -4.81649 -0.859921
408 1 -0.330039 -4.13759 -14.2225 2.31582 -4.37472 2.33328
940 1 21.5521 1.31403 -9.64608 2.9357 -3.71256 -5.67222
952 1 11.6195 -12.838 -9.18841 -4.93938 -0.100125 2.01965
954 1 14.8466 8.46873 -7.38318 1.01891 2.71734 4.02179
964 1 12.1146 -15.8167 -22.8229 3.92104 -1.41144 -0.78619
967 1 17.8592 -1.58002 -15.3213 0.39474 2.80004 0.778827
981 1 7.6497 -0.969355 -3.02361 -2.52868 -4.22968 2.90857
989 1 7.3727 2.78123 -9.19197 -1.22266 -0.400498 -2.79477
1013 1 6.9019 -19.8658 -0.501788 1.378 5.21153 -2.56582
3868 1 7.31626 8.9286 -0.0280997 -0.446371 2.25834 4.26915
3587 1 20.336 -15.8941 -16.4971 1.49308 0.104461 4.22261
3856 1 14.7024 -19.7126 -4.21494 -0.0633954 -3.34543 -1.07536
1021 1 20.928 -19.0535 -2.99458 -3.14202 -0.277502 -0.640226
1025 1 6.99232 5.21733 -19.5515 -1.78161 3.55275 4.01869
2110 1 2.85914 10.6231 -0.0698805 -0.812056 -2.62662 -0.727608
3790 1 3.66542 -17.9461 -3.21969 -1.11524 -3.27245 5.38014
767 1 2.73087 -13.5303 -1.49412 -2.54003 -0.696502 -0.648459
1053 1 3.08255 8.91742 -19.5479 2.84083 -4.46944 0.576369
1058 1 3.10287 -2.75158 -11.2129 -4.77499 -1.70502 0.215133
3107 1 19.5418 -10.3316 -23.5739 3.89268 -0.416167 6.91084
1061 1 7.87479 8.17014 -12.8682 3.99038 -3.73765 -3.48212
1066 1 13.3843 -3.88714 -22.5203 1.4276 -1.3912 -3.6058
1072 1 16.3101 8.52768 -18.9793 -1.38016 -6.21832 1.66754
2325 1 14.7197 -24.4943 -17.9142 -3.90318 -3.87299 0.715617
1309 1 2.22334 -12.5163 -13.9922 3.35865 -5.95089 0.134381
1077 1 14.5363 -10.0786 -6.67504 3.69157 1.78794 -4.59785
1087 1 12.9554 0.929093 -19.05 3.51717 1.72389 1.54439
1229 1 18.7531 -15.5667 -1.3523 -1.11141 6.29199 1.47721
1118 1 20.5803 2.2331 -13.5525 1.47551 -1.4068 -1.56374
1121 1 12.5442 -2.2482 -18.8706 -1.38604 -0.960266 0.381191
1123 1 16.1825 -5.56384 -4.76026 0.137042 -1.40315 -1.33233
1131 1 19.8849 -9.15469 -2.06752 1.24846 -1.37427 0.963531
1140 1 14.1752 -6.87147 -18.0424 3.62416 -0.468275 -3.47076
1143 1 2.321 -6.2169 -15.4657 -3.25227 -1.50624 -1.56527
1144 1 11.7706 4.87654 -13.424 1.01509 3.20151 2.73254
77 1 13.074 -23.2451 -3.50705 0.263607 2.84313 7.44304
1157 1 2.66889 3.22159 -7.69934 7.40204 7.96002 1.43071
2302 1 14.4784 10.868 -14.6969 1.63499 2.02881 0.670851
124 1 23.6111 -19.5947 -15.4792 0.331325 -5.11011 -0.0789125
1177 1 10.5733 2.97068 -16.4239 2.05939 2.32334 2.12499
1179 1 10.2 -8.1688 -10.1489 0.597741 -0.303002 0.0253818
1183 1 3.57301 -4.27969 -17.1008 3.52993 3.41824 -6.94988
1190 1 15.4896 -1.83812 -22.6158 -5.06315 2.12561 3.40395
1195 1 14.4058 -12.1356 -16.2064 -2.38709 -2.10414 -0.0354163
1206 1 21.9524 -19.3688 -22.657 -8.60598 4.46902 -1.80084
1207 1 19.5966 -0.0163563 -16.8844 2.54033 -4.65017 1.55712
1212 1 16.8622 5.34059 -10.7378 -2.30284 -0.892526 2.29657
1214 1 13.2054 -1.02236 -4.14112 0.287627 2.56511 -0.585487
1706 1 7.54721 10.5504 -21.3767 -2.8419 -0.711522 1.52848
1216 1 16.4312 -8.0692 -12.5714 1.70643 -1.81582 5.73517
1218 1 17.8442 -2.05879 -9.21125 -0.0493459 3.62067 0.122192
2096 1 11.077 -6.17297 -0.434756 -1.33584 6.16285 1.8102
1238 1 6.62727 0.321027 -10.4649 3.65786 -1.13783 4.40875
1242 1 8.71868 -21.3611 -16.3593 1.59796 0.425638 -8.58583
1256 1 4.75123 -21.3386 -17.7715 1.59026 2.45917 3.22013
1260 1 3.47015 -6.43018 -13.0069 -3.44901 4.17029 0.197084
1261 1 15.6594 -11.436 -8.80618 3.90982 -5.38835 -2.06078
1262 1 11.0565 -14.0248 -4.19121 -0.653799 -4.69515 0.50986
1278 1 15.3505 -7.49791 -21.9111 0.828796 4.36412 -3.76024
1280 1 1.28969 -4.15798 -5.63217 3.89977 -4.71654 -1.25437
1282 1 8.15077 -22.2548 -2.00593 -3.56149 -0.0948191 -1.89289
1283 1 4.33927 -22.6724 -7.02004 0.114649 -0.301206 -2.45427
1288 1 3.55117 0.462422 -17.0917 0.196727 -2.83664 1.02208
3817 1 3.37051 7.76014 -0.778579 -2.02747 1.79769 -1.71814
1294 1 13.7571 -13.4137 -7.67693 -0.503719 -3.48379 -0.892914
3800 1 14.2034 -3.47902 -5.31005 1.1593 -2.77085 5.60433
1298 1 3.66166 -7.30446 -3.95408 -0.776339 -6.43366 1.02335
1300 1 3.00754 -0.366893 -4.37898 -1.93975 -0.947601 4.21314
1304 1 3.81465 3.00031 -5.1163 1.33227 2.59847 2.51351
484 1 22.1947 -14.3594 -14.4241 -7.33958 4.13667 4.12801
1316 1 20.4436 -6.90188 -13.4714 2.95991 1.14517 0.112834
1320 1 18.3975 -6.73985 -9.05809 0.799244 -6.76369 1.41822
1321 1 11.7817 -24.0253 -7.53211 4.25336 -1.03186 1.78163
846 1 8.44254 10.8152 -11.5183 -2.86593 -0.785265 1.92459
3696 1 7.29355 1.05119 -15.3364 0.265586 -1.39796 -1.23059
1334 1 14.9541 -8.8247 -10.1342 1.56489 0.914624 2.61684
1338 1 1.60958 2.95966 -1.67141 3.14558 0.33679 0.579844
101 1 2.42974 -20.4944 -10.5496 -1.03743 1.72086 -4.30343
1346 1 15.7361 0.380753 -14.6676 4.0474 -0.487001 -1.43407
905 1 20.073 -3.47803 -22.6307 -3.12138 0.274718 -4.05052
1364 1 14.2586 -12.8302 -13.2588 3.07569 0.514703 -3.73969
1365 1 6.72892 -3.83359 -21.8653 -3.25779 -1.40981 -1.92754
2145 1 21.891 9.2017 -23.5755 0.961903 0.136389 -0.449675
670 1 0.582523 -16.9591 -0.982205 0.802968 -1.12213 3.11968
3481 1 3.12595 -23.3596 -22.1451 0.39751 0.174717 -1.49349
2992 1 18.6079 11.1862 -11.8012 0.760067 0.0957432 -1.45199
3053 1 21.4007 -21.3686 -1.32192 -0.673228 1.19792 0.764652
3916 1 17.2843 -9.48441 -21.7539 -1.16282 4.22107 -2.53679
1329 1 22.5634 -13.5769 -1.63632 5.34834 -4.53767 -4.50499
672 1 21.7638 8.11151 -12.3316 0.852424 2.53926 -2.12507
1427 1 18.1703 -13.16 -3.41725 -5.85748 6.46468 1.51457
1446 1 2.51117 -8.33118 -11.2338 -1.36768 1.93249 6.32832
1447 1 22.2368 -1.95661 -19.0168 -1.6114 -0.970788 1.32372
1454 1 8.73109 -12.419 -2.48834 -4.32335 0.228864 0.356621
1215 1 3.65739 9.40825 -7.54279 -3.53389 0.0908471 -0.486795
1473 1 13.0184 -21.0473 -15.35 -4.36219 0.138183 1.17699
3926 1 11.6861 -1.722 -22.5945 -2.60791 -0.330561 -0.251667
1483 1 10.2333 -24.2249 -19.9999 -2.05089 -4.30308 -4.44204
1491 1 14.3124 10.3091 -3.30937 -3.57888 4.1277 -3.99166
1497 1 11.4026 -7.42702 -18.6193 5.40463 1.07135 -2.89776
1168 1 12.7764 -8.50015 -0.429453 1.63326 2.07467 -0.786032
1508 1 19.3015 -10.5929 -4.35535 -1.37488 -5.27426 -2.4459
3895 1 13.682 -4.92605 -0.91122 -1.41973 -2.41119 -0.77371
1520 1 10.7473 0.774451 -12.8402 2.27919 4.09738 -1.95678
1527 1 1.30974 1.67357 -12.0201 6.24121 -3.26063 0.103091
1532 1 18.3953 -5.16906 -16.9069 -1.07536 1.55519 1.45057
1539 1 1.57833 9.77829 -16.4882 3.79723 -1.81825 -2.15379
1541 1 7.19232 -19.9854 -8.26687 2.83573 -5.44751 -1.11795
1547 1 12.2267 -4.51105 -3.37224 2.20602 0.573457 4.76914
3934 1 22.5435 6.62908 -15.0862 0.287856 -2.34851 -2.22483
3424 1 1.67659 -9.47511 -0.947486 -4.29127 1.34713 2.57178
1551 1 10.6424 1.70511 -6.68376 -3.10571 1.0779 2.07013
1552 1 16.8592 10.1118 -16.5611 -3.37706 -5.63436 -4.10994
1556 1 17.8275 -18.4889 -9.473 -0.628907 4.18994 0.801892
3692 1 7.53044 1.34506 -19.4746 -4.13574 2.20649 1.70281
1026 1 -0.159733 10.7963 -9.81903 5.04178 -3.35013 -0.974147
1894 1 -0.479816 -17.5082 -4.63974 -6.20069 1.4114 -2.07578
3982 1 8.20944 -5.21309 -3.47027 -3.97671 0.340295 1.10288
1578 1 16.7786 1.49923 -8.71838 3.68482 1.69454 0.444103
1583 1 9.83445 -2.98333 -3.18821 -0.370048 -5.97937 1.34757
1587 1 19.5601 -3.99706 -5.73661 -4.74864 0.30693 0.910558
1590 1 16.1584 8.16018 -14.6496 6.94056 -3.14759 -0.536213
1594 1 9.19978 6.88076 -4.27096 2.92675 -2.87908 2.40254
1600 1 14.222 -16.3577 -15.0265 -0.443819 2.95954 0.699827
1603 1 5.66326 -8.01786 -13.2648 1.70066 4.15463 -1.19314
1604 1 18.7328 -13.7416 -19.2904 3.63242 5.29159 0.346949
3808 1 9.91298 -12.3868 -21.2726 1.47961 -0.950978 2.5386
3303 1 22.2752 -22.176 -15.1524 1.35008 -2.41096 -1.12289
1616 1 15.2246 -9.80945 -17.9372 2.97731 4.2071 -2.22578
1620 1 11.6353 -9.92064 -7.2472 3.01443 -0.230719 9.31029
3937 1 14.8534 -19.1836 -19.0722 1.5002 -1.68105 -1.2153
1635 1 6.62009 -16.945 -11.1787 1.33409 -6.5566 -1.20087
1638 1 15.6147 -2.35754 -19.6475 1.82489 1.49346 -3.9472
1650 1 11.6222 -4.46759 -11.3181 -1.21646 -0.968256 0.889183
495 1 0.239325 -10.2486 -5.51805 -0.620793 1.63504 -3.51828
1652 1 14.7952 5.70473 -19.2733 -0.587237 -0.0935377 0.326823
1657 1 13.9437 10.6847 -9.09305 4.85102 -3.35422 3.80956
1660 1 0.941068 -13.8143 -21.2654 1.71767 0.540203 5.08451
1664 1 3.35962 -8.76032 -16.0206 -4.91933 1.54766 2.27356
1666 1 17.9314 -2.35841 -18.0256 0.351914 2.56423 1.4413
1669 1 14.1906 -20.794 -12.7631 1.04942 -1.21834 -1.14654
1674 1 5.32752 -3.03355 -6.72118 -2.90065 -3.54688 -1.38694
1687 1 18.0355 -14.2228 -10.7011 -2.02452 -0.771742 1.87054
1841 1 7.00973 -23.9456 -9.34699 4.65656 -1.59431 -3.81987
1394 1 0.779842 6.75069 -0.635885 4.40993 2.43962 -2.76038
1700 1 13.9424 -2.85928 -11.8955 -1.39135 -2.93295 3.85659
1703 1 9.57416 6.31907 -11.0436 0.902542 0.259454 -1.43414
3775 1 4.01697 -0.739986 -9.40888 -1.17127 0.332656 4.68385
1714 1 4.01113 1.83919 -11.4287 2.28581 -5.97477 0.250881
3921 1 14.4954 5.94061 -14.0868 -0.779061 1.77096 0.727046
1717 1 11.4151 -16.7822 -0.173586 3.52122 -0.0593275 2.92438
1718 1 6.49029 -22.1701 -13.2449 -1.48437 -0.528597 3.17769
3802 1 7.15226 1.99932 -23.3089 3.03613 0.758039 0.853481
550 1 1.41308 -24.2113 -13.3573 1.37382 -4.17838 3.67929
3126 1 1.78644 8.24407 -5.42351 0.810882 3.37227 -2.32867
1747 1 5.04935 -18.6835 -6.68793 -2.9422 -2.28512 -1.19968
1748 1 16.2996 -2.8878 -3.46875 0.203359 1.334 -2.76452
451 1 21.6855 -13.3615 -17.1716 -0.931948 0.224565 -4.06233
1757 1 15.7192 -15.1305 -6.85508 -0.166046 2.2625 -1.70397
1761 1 22.601 -17.6007 -20.156 -3.5877 2.09714 -2.51193
1765 1 3.52108 -15.6318 -5.34539 0.925287 -0.298351 -0.324564
1779 1 7.26944 8.70511 -3.05614 -1.92665 5.77208 -1.96289
1780 1 10.5975 9.40264 -5.1501 -0.0539455 1.25788 -0.998992
1783 1 18.8137 7.35025 -5.72217 -2.375 1.69331 1.27893
2025 1 3.02089 -10.6398 -23.8209 -1.27248 4.12665 -1.86495
1790 1 7.96271 4.1331 -11.6306 -0.334338 -4.09712 -4.75911
3207 1 -0.224252 -6.49277 -18.6296 2.84095 -2.544 2.17719
3772 1 14.0061 -14.959 -2.30614 1.80709 -1.02152 -3.8049
1794 1 17.7802 5.16967 -20.2569 -1.77347 -1.0869 2.61654
1795 1 13.0438 -1.3874 -9.39134 -2.11467 -0.577701 0.70856
1798 1 19.5976 -4.48794 -19.8116 6.32497 -5.95428 -3.66437
1805 1 12.278 4.80901 -3.67282 -4.81027 -4.16292 3.00413
1273 1 21.0094 6.76824 -21.7918 -2.3291 3.79776 2.3364
1814 1 12.6645 2.7312 -12.0898 -3.64304 2.09293 -3.49834
1822 1 15.8188 -6.6643 -2.33764 0.34496 -1.44019 2.18212
1825 1 7.70029 -10.7692 -7.99687 1.27702 1.61309 4.28419
1827 1 15.5017 -22.3801 -4.99704 0.31421 2.29485 -0.242679
1831 1 11.6969 -16.5817 -3.1553 -2.23986 2.5286 1.21671
1834 1 6.90539 -7.8729 -18.1914 -1.84418 3.61271 -1.40387
3584 1 6.82737 6.66273 -23.4431 -0.259797 -1.63467 3.22665
1843 1 5.31325 -2.211 -20.0025 0.155143 1.12726 2.95746
1848 1 5.42052 6.85163 -17.5626 1.66683 0.478562 0.623363
3830 1 18.0038 -10.4316 -13.2036 -1.12744 1.68911 5.27224
1850 1 15.8598 -19.9138 -7.99287 -1.5549 2.23549 -1.06532
2065 1 14.7025 -17.3248 -23.4306 3.55918 -0.176013 -0.715224
1856 1 10.1806 0.197288 -20.1595 2.74284 -0.879742 -1.13369
1858 1 2.73457 -19.9045 -13.5672 -6.76609 1.71296 -0.970886
1859 1 6.93193 -16.0615 -17.0404 -2.89928 0.259107 -8.98704
1867 1 5.67215 -9.29618 -4.2605 -2.22636 -5.80025 -0.20406
560 1 21.9734 -20.752 -6.92423 -4.33137 3.4131 3.89504
3904 1 10.7521 -7.2561 -7.35814 -3.51421 -5.46699 7.72944
1902 1 20.2585 1.61512 -22.291 0.398072 3.27408 3.60722
3278 1 -0.333943 -8.03772 -23.1927 1.99654 4.84839 2.91276
1911 1 23.4446 -2.11356 -6.83952 -2.88609 2.60239 1.03579
1915 1 20.0435 -20.6574 -14.8968 -2.07615 5.05281 -1.93756
1923 1 10.4451 -0.391464 -10.299 -1.42146 -3.94484 2.27651
3917 1 2.63731 -5.56188 -10.2366 -0.18616 6.65739 1.74157
1926 1 10.6877 -1.08513 -5.57482 -3.8707 0.624047 -1.23791
1934 1 1.78429 -12.47 -4.31827 -3.45258 2.83622 1.15661
1946 1 11.4237 9.44262 -7.7751 0.421234 -0.87168 -3.64412
1948 1 11.759 -0.86669 -15.08 -3.06984 1.32927 1.6008
1952 1 6.6741 -16.5038 -14.1826 0.321831 -4.53554 1.66511
1953 1 16.9708 -19.2505 -2.83823 -0.834247 0.202216 2.79944
1875 1 21.8322 -3.12691 -14.7487 -0.650688 3.07767 -2.54458
1961 1 15.7253 -13.9998 -4.34251 3.24377 1.90324 1.64856
2774 1 22.909 1.83966 -15.2978 5.71801 -3.63398 -2.8816
1209 1 1.39432 -5.82729 -22.2076 1.34588 -2.11538 2.02729
1975 1 10.5057 -17.4174 -17.788 2.64841 -4.09532 -2.23049
3691 1 19.1251 -24.6582 -7.39562 -1.70533 -4.55859 0.436159
1983 1 18.5199 -6.78275 -6.0519 -2.72296 0.804041 -0.461283
1505 1 18.6169 -24.277 -22.2873 0.153755 -2.16592 -2.50943
1990 1 19.8376 -13.3324 -5.91432 2.47474 -0.0720243 1.51562
2000 1 4.83125 5.52363 -21.4048 1.51803 4.2958 -3.18593
2003 1 12.3918 -5.49988 -8.72936 -5.17733 -2.28737 -3.4304
2963 1 22.1768 9.32959 -4.44554 3.88494 -0.930095 6.87322
2006 1 9.69055 -9.8014 -4.87414 1.26879 -1.25129 2.82904
2020 1 8.86254 -12.8297 -15.112 6.00417 -1.22966 3.61892
3798 1 4.30195 2.15114 -1.46418 -1.7199 -0.00471601 -0.0108866
2029 1 15.8937 -9.3113 -3.35537 0.280076 -0.869013 -1.88321
1903 1 -0.0923251 -19.7446 -11.8603 -3.39842 1.60906 -4.95039
2190 1 1.98348 6.00597 -7.26851 0.307261 5.12343 0.0137896
2045 1 8.47955 -18.5874 -16.2407 1.28214 -2.07101 -0.286692
3288 1 -0.346612 9.59811 -18.4501 -2.72473 -2.91105 -1.67493
2030 1 9.33995 -16.7244 -22.9215 3.85961 -2.47875 -3.79919
3951 1 5.08569 3.53559 -15.3139 0.190548 0.236633 6.37073
3727 1 2.19486 -11.0805 -21.2363 -1.7672 1.56065 1.04761
557 1 9.70664 -23.6646 -10.0105 4.04719 4.49629 4.07465
2079 1 10.8794 -13.46 -17.2131 -1.34071 -3.80579 0.733419
2083 1 19.959 8.38142 -9.84992 0.786983 1.4412 -5.32819
2102 1 9.72279 5.6174 -6.84101 4.50011 1.79561 6.39707
2103 1 9.98064 -18.0021 -13.7484 -0.926578 -2.08705 -0.939145
2105 1 14.6314 10.0467 -11.6298 3.14745 -1.10315 -4.7486
2115 1 16.4743 -12.1707 -11.5181 0.205605 1.2212 -6.87666
2122 1 13.5863 6.15764 -8.88505 4.80114 -4.9424 -3.58792
2123 1 21.6831 -7.37613 -20.3379 -1.88429 5.67025 -1.82085
2124 1 21.873 2.73272 -18.0208 -4.01028 -4.10003 3.23975
2126 1 9.78536 -7.57486 -2.90673 -2.15572 -1.713 -3.29121
92 1 17.1237 -22.1949 -2.43851 -0.0373679 -3.76724 2.28669
2131 1 18.8794 -3.71939 -2.75726 0.998852 -0.811275 -2.12767
3833 1 17.2753 0.159129 -11.0355 1.1521 -3.39092 -0.439069
2143 1 16.7958 5.99535 -16.8948 -0.629488 2.61319 -1.04214
2149 1 19.0215 -1.09129 -6.90093 3.03021 -2.45993 -0.803132
2151 1 11.7202 7.68734 -12.284 2.20301 0.926621 1.84241
3990 1 9.63517 5.56152 -22.904 3.81199 2.60484 1.47626
2162 1 19.9451 5.94977 -3.42543 -1.31093 -1.24763 0.686473
2164 1 17.943 2.42512 -4.58296 -1.10159 -0.127928 -1.02547
2169 1 9.11763 -6.24152 -21.4783 -2.10326 -0.194343 1.05461
2173 1 19.3617 5.05553 -13.5022 -1.25414 -0.282694 -0.0531724
2174 1 1.92133 10.1537 -2.96757 2.51985 -1.91511 -6.46171
2178 1 18.1852 -14.6224 -7.80437 -0.22725 -0.0740977 -1.13183
2180 1 12.4046 -9.95987 -9.92682 0.476164 -1.83586 -3.23679
2186 1 2.83439 -9.86459 -18.6203 -2.5933 -1.70715 -1.00509
2193 1 16.5716 -13.7297 -15.1714 -3.08945 -0.218709 6.99481
2201 1 14.0252 -11.8987 -21.6296 4.9462 3.46296 -9.4921
2202 1 17.1055 -18.4225 -17.2306 -0.184318 1.08331 6.72314
3806 1 1.01681 1.86913 -4.43567 -2.29679 -0.318884 -1.8056
874 1 12.1535 -0.289391 -1.70355 3.83775 1.40878 3.50364
3335 1 23.0359 -0.913237 -2.43274 -2.51147 -0.104675 -1.03433
1689 1 5.68715 -23.9458 -1.42696 -4.4406 2.1543 -1.11462
2216 1 2.22161 4.31942 -15.5814 -2.00036 5.49515 4.43002
2225 1 2.88616 -19.0982 -21.0063 4.77487 -4.12001 -2.172
2227 1 6.43607 3.89796 -1.63991 3.10051 0.61358 2.25578
1295 1 13.466 6.55854 -0.821554 5.29547 -0.944724 6.75994
755 1 13.2743 11.3851 -23.8741 -3.17866 5.13635 -1.10145
2253 1 6.2541 -18.6986 -4.16155 -0.550592 0.499054 1.88015
2255 1 1.89011 -0.245935 -19.475 0.61376 -2.1883 1.57136
2261 1 15.9713 -4.02989 -10.3528 0.388292 0.535456 2.34937
2262 1 19.8127 -22.0605 -3.58666 2.59787 3.68007 -3.47175
2263 1 1.11133 -15.2584 -3.42061 2.28994 -0.636725 -1.07202
2268 1 14.1637 1.80698 -5.06978 1.7823 0.674522 -3.85707
3369 1 0.61912 -0.907832 -10.5588 -4.33374 -1.53253 -0.474799
3248 1 9.61628 0.557751 -1.86094 2.22299 -1.5248 -2.84915
2337 1 8.66124 11.2343 -1.98885 0.495145 5.45639 2.01789
1073 1 0.0177466 -22.3587 -10.3195 3.57973 -0.740552 -4.8164
2297 1 9.30684 6.95835 -20.2673 3.75701 5.536 -3.49774
2299 1 7.59978 -13.5279 -5.28748 -0.183355 -1.5254 -2.49001
2434 1 2.90768 -23.7475 -0.739623 3.38917 -3.71505 1.94064
2308 1 3.61134 4.07629 -19.3693 2.93533 1.52638 3.81896
81 1 -0.292801 -10.5443 -16.5215 -0.677848 1.36139 5.76856
2320 1 20.4621 4.93626 -16.2223 -2.18715 2.61784 -0.904889
2323 1 6.19424 -3.12728 -4.11119 1.86437 -1.38362 2.0605
2324 1 6.35874 -22.8835 -16.142 2.59747 -1.03045 -6.34052
3761 1 19.2848 -11.169 -18.4086 1.08068 4.76551 4.59616
2326 1 21.0546 -11.0003 -15.4498 -0.154136 3.72079 4.81222
2327 1 15.9542 1.91234 -17.2161 0.141503 -5.75647 -1.56903
2333 1 10.788 -22.6894 -14.9268 0.297999 6.8574 -1.86309
2336 1 13.3126 -9.17765 -20.2327 1.58394 1.25451 2.01588
3485 1 1.25149 5.19735 -3.14606 -0.620545 -0.638426 -3.12921
3879 1 18.7508 -14.6008 -23.3426 0.896814 -2.36048 2.77497
2341 1 6.32754 -21.4614 -20.1762 0.367842 -1.48622 -5.16891
2350 1 11.0282 9.91527 -10.7565 -2.3123 2.20799 -0.93294
2919 1 22.7417 -15.6958 -3.73282 2.61725 -3.04197 0.362953
2354 1 16.995 -19.0369 -22.2229 -1.77134 1.23646 -7.61637
3601 1 22.7497 -13.6135 -5.99863 0.207877 -2.02183 -0.835376
2358 1 5.13774 -11.5844 -14.0688 3.10832 -3.67479 3.43014
2363 1 17.0185 -11.1923 -1.54392 2.03728 -0.542146 1.70328
2718 1 8.1017 -14.8967 -21.3271 3.06501 1.90426 -0.848692
2813 1 0.0281722 -9.234 -19.1548 4.00636 -0.239184 0.243122
2381 1 13.3078 -8.93305 -3.20592 2.63433 -1.92158 1.07913
1389 1 22.0685 -2.67908 -4.4909 -3.29819 -1.9381 -1.14824
3900 1 12.0287 -18.4344 -15.5217 -0.917126 5.09675 -3.16335
2832 1 23.2869 -18.5959 -4.26609 -5.39022 -1.91641 -1.49545
2414 1 14.5915 -7.30163 -6.29923 -1.25192 1.66046 3.97592
2418 1 13.2838 2.2868 -2.56218 1.98452 0.293651 2.52257
2371 1 16.5828 -18.7165 -0.144381 -0.0278184 -2.2354 -2.93683
2440 1 6.4822 -2.37968 -14.4573 0.710369 2.23897 0.568289
1571 1 0.138708 -11.855 -0.515612 -3.96267 -0.62584 -1.37967
2448 1 2.34933 -14.4558 -9.71335 -2.14735 1.53472 0.947558
2213 1 17.7531 9.49377 -3.83419 -2.72298 4.15898 -0.641909
3957 1 18.6507 -22.6577 -20.0132 -1.21699 2.4188 4.99578
3967 1 2.65273 -6.63394 -6.42982 0.886353 2.38874 2.20141
2470 1 11.9264 -21.8996 -10.9298 -2.6947 -3.57872 -0.655245
3746 1 7.20824 -22.338 -6.75789 -2.53084 -4.42687 -0.15223
2856 1 16.1486 -15.8648 -0.306773 -3.78458 -0.105189 -0.874582
2482 1 8.0616 -5.8298 -0.385604 2.66193 0.749851 3.79226
2484 1 4.35637 -16.7522 -9.03983 2.54073 -1.79816 -3.44423
353 1 17.0506 -22.962 -17.6528 -1.90194 -0.735089 -6.75343
2495 1 11.9102 -15.4436 -6.74374 -0.0481577 1.98491 -1.6886
3740 1 5.95321 0.176266 -21.4015 4.26362 4.71948 -2.11426
2507 1 9.2652 0.375974 -17.3328 -4.71165 4.22936 -1.50927
1043 1 17.3783 9.6063 -6.78033 -1.88775 -5.6084 -4.9221
2530 1 4.6986 -14.4043 -13.749 3.13957 1.03605 2.42657
3997 1 18.9625 -22.0175 -11.4363 -3.12858 5.12425 0.825711
2548 1 15.4129 -6.51391 -8.89427 -1.45595 6.28317 -2.4883
2557 1 17.3311 -21.1264 -15.5683 6.46753 0.782354 3.38041
2563 1 19.772 -1.50035 -20.1829 3.48439 -1.32915 2.266
2568 1 19.0349 -8.22142 -19.6498 -0.834447 1.38308 4.5664
3400 1 16.358 -23.7205 -23.5883 -6.67914 1.14965 -4.93335
2573 1 17.3994 -22.1273 -6.99996 4.29696 -0.528115 -3.51151
2588 1 18.0368 2.27538 -15.2057 2.37555 -3.68141 -0.116718
2590 1 13.0856 2.94954 -7.28839 -0.665118 -1.49267 1.83557
2598 1 20.0284 -1.05876 -2.87946 3.91995 -2.76848 3.36546
2203 1 6.43041 -1.65221 -0.415112 7.13353 -0.323558 4.83844
2192 1 1.04947 1.63167 -23.3515 2.8248 -1.00379 3.3959
2608 1 14.1229 -19.9067 -21.9527 -2.05932 0.623805 -0.0879079
2610 1 1.04065 7.09952 -20.4552 -1.83458 0.48661 -2.73278
3960 1 20.6571 -11.5004 -12.8262 1.07543 0.485007 0.162735
2628 1 11.7786 -5.46759 -20.6301 -2.60133 1.77201 4.77908
2632 1 19.7592 1.52122 -19.4648 0.888693 -2.40707 -1.32628
2637 1 13.4866 -14.054 -18.2235 2.458 1.80641 -6.26727
2638 1 16.1423 5.87869 -6.14444 1.23839 -4.84249 -1.68024
3463 1 20.8354 7.94741 -19.3084 1.24134 8.03418 2.01252
2644 1 19.4027 -19.4957 -12.1442 -1.18278 6.68649 8.56332
2654 1 18.5318 -6.36251 -1.79418 4.92261 -2.40172 2.71489
3666 1 1.51801 -16.6429 -21.8653 0.95829 -1.44456 -0.445349
2675 1 19.0601 3.15638 -9.14006 0.905675 2.56319 3.08716
2678 1 3.75503 -22.5223 -12.8981 6.78417 4.72136 6.36329
2680 1 7.84678 -4.28771 -7.97299 -1.10477 -1.19835 -4.96806
3923 1 22.6495 5.90202 -10.4528 -7.91238 -4.1455 -1.04133
2687 1 18.5935 -15.3104 -14.0779 5.35168 5.5528 0.135544
2692 1 5.35441 4.60009 -12.3798 5.58082 2.57525 -1.38413
2697 1 5.50478 1.00168 -3.7693 4.46077 -2.99579 1.96468
2703 1 17.1097 -5.37943 -12.495 7.20296 7.54068 -2.67399
3723 1 9.16822 2.88821 -13.8079 1.9003 -2.66457 -0.159747
2483 1 0.426542 8.91752 -11.7136 5.41079 -1.05526 -1.02559
2743 1 1.98097 -18.4415 -8.59239 4.59796 -4.05648 7.34182
2746 1 4.82548 -13.3354 -3.84648 -0.0190571 2.66251 2.62109
2765 1 5.43837 -18.7075 -16.9091 -0.43194 2.95228 -2.84083
2927 1 10.1461 8.96801 -0.625201 -2.98207 1.66606 5.7811
2776 1 13.3403 8.37657 -5.0395 -1.32498 -0.433278 -3.44821
2783 1 12.8611 -10.1192 -15.1276 -0.197749 -4.73638 -1.55142
2785 1 22.3838 -0.813597 -16.2746 3.48281 1.09218 -3.71765
2789 1 8.66084 -6.01759 -6.08156 -0.744526 -0.94758 3.7705
3264 1 10.0197 9.09155 -22.2521 0.694782 -10.9773 3.23664
2803 1 21.0256 -5.7236 -16.1395 -0.0507417 -3.99578 -1.53828
3768 1 1.56867 7.0842 -15.1971 -4.78638 3.73007 -4.25332
606 1 0.970586 -0.790897 -22.1619 -1.90047 4.01351 3.45554
3328 1 1.20793 -17.0169 -11.1964 -0.324116 3.95967 -2.74667
2817 1 5.92788 -16.4976 -20.8649 3.46874 -1.35254 1.97498
2821 1 18.4178 -8.20551 -15.0667 4.60942 -6.26326 -2.69895
2826 1 10.5718 -21.2432 -0.585502 -0.586559 0.954777 -5.83473
2828 1 1.17122 -2.76292 -18.6779 8.13088 5.68949 -0.683352
2831 1 14.5497 7.18799 -11.3953 -0.645657 -4.06295 1.43253
3707 1 16.4336 3.99416 -13.3468 -2.42297 -4.47762 2.03778
2841 1 18.6758 -17.9262 -4.97424 -0.49688 1.18826 4.7827
2843 1 15.4118 4.5382 -21.8256 0.890705 0.46969 1.17759
2845 1 19.7305 4.56291 -22.7491 1.55159 -2.01381 -1.22165
2850 1 3.96636 7.04955 -9.33439 1.23812 -1.15285 -1.52346
3295 1 3.59183 -21.0389 -2.71611 3.29497 -2.08659 2.74832
2854 1 6.45656 -7.1991 -8.48515 1.41123 3.25146 1.15346
2094 1 20.0553 10.4626 -2.81916 -3.96345 -5.3646 -1.57816
2858 1 9.50689 0.210082 -22.9929 0.391061 -4.99834 3.24555
2862 1 12.3778 -3.63357 -16.3318 1.96071 0.130646 3.69743
2863 1 22.1951 -17.8594 -17.1833 1.77055 -2.71012 0.811524
1227 1 1.29332 -8.40286 -3.4809 0.114632 -1.1657 2.04089
2875 1 22.5693 -4.15445 -8.81555 -0.597435 3.6963 -2.29374
3731 1 5.72217 -19.1453 -21.8867 2.80501 0.207154 0.0597255
3872 1 20.4849 -23.5604 -9.6823 0.669984 -5.73298 -2.17947
1453 1 0.32776 -22.4375 -7.63243 1.56971 5.72714 -3.7828
2912 1 9.82712 -16.2301 -8.21744 -0.903314 -0.369414 -2.53083
2913 1 17.3744 5.64211 -2.39245 6.55895 -3.27844 -3.87991
2918 1 21.5698 3.99451 -5.06527 1.10458 -2.83027 1.16539
486 1 15.5548 0.585825 -1.30642 2.80425 -1.17051 4.08853
2999 1 12.4559 -19.4329 -2.36968 -4.36106 0.50917 -0.425148
2934 1 8.66773 3.43267 -21.1106 1.80554 -0.931588 1.45091
3733 1 4.85075 -15.5936 -1.71243 -2.91118 -0.746352 4.12125
625 1 0.0975626 -7.54439 -7.73585 -0.0602836 1.32578 -6.01777
2951 1 11.4194 -19.2919 -9.80975 2.36739 0.862301 -5.13069
2958 1 9.71733 -6.05527 -14.7836 -1.59343 4.00467 -1.09178
700 1 1.38488 5.3602 -22.8731 1.19148 5.8008 -2.49949
2965 1 19.9151 0.427638 -11.6525 -2.88415 4.47021 1.64783
2970 1 18.2088 -11.1676 -15.9091 1.9809 -1.30537 -1.29419
1693 1 18.4418 7.78487 -20.8815 1.40517 1.84511 1.37274
2977 1 4.01619 -11.2277 -5.75326 1.34459 8.20118 2.63852
2988 1 2.07763 -23.5146 -3.56351 -3.33375 -1.55102 -4.94732
3679 1 9.01358 -19.9901 -6.15816 0.179577 -2.9421 1.94737
3005 1 6.10304 5.38725 -5.3553 -4.33167 0.952825 3.81887
302 1 -0.0559834 8.08118 -2.98788 -2.85989 2.4196 5.10349
3758 1 22.1005 -5.09087 -18.6821 -2.35136 -5.49109 -1.59238
3016 1 16.5397 -11.3614 -19.812 -1.57998 -2.36867 -3.93422
3032 1 17.303 -9.43424 -5.85516 -0.836163 2.45125 1.64603
3043 1 6.38421 -13.3868 -16.1269 0.527724 -2.52229 1.44222
3046 1 17.146 -7.62139 -17.635 -1.25609 4.81158 2.71487
2364 1 2.18022 -2.69449 -3.2185 -1.37748 4.97808 -2.89363
3065 1 5.53021 -10.3704 -11.3642 -1.61256 1.8739 3.87262
3069 1 7.55904 -8.58184 -6.35534 -6.12419 0.250925 -5.08403
3301 1 21.1625 8.40324 -7.12201 2.45072 -2.82425 1.38773
3079 1 12.1039 -7.11202 -4.84198 -2.12741 1.77276 1.89295
3083 1 7.73998 -14.1389 -11.2691 -3.31852 -0.478275 4.6593
3090 1 12.0789 -2.9518 -7.42803 -2.59554 3.87865 -1.0821
3507 1 8.20208 10.6042 -8.67279 4.07695 2.23004 0.876839
3100 1 17.631 -5.84614 -21.4035 1.54971 0.981024 3.04577
3106 1 2.21847 -9.56659 -7.4121 2.43209 -1.02675 5.54717
3108 1 8.34755 -17.3139 -5.85779 -0.691948 -2.4088 1.36121
3111 1 9.05115 -21.736 -19.1979 -3.8827 0.85609 3.65525
3935 1 9.26095 -15.1572 -18.9558 -0.330943 -0.0545782 2.68317
3113 1 10.6187 -9.53125 -16.9475 -0.900734 -2.013 2.46616
3114 1 4.4148 9.55428 -17.0311 2.36772 -2.40636 1.20766
3117 1 13.5029 -12.3968 -5.06343 5.37309 5.17427 0.281106
3918 1 9.89613 8.51815 -14.8025 4.35323 -0.0734428 -1.98604
3128 1 4.2101 8.3972 -14.2659 -3.26929 0.888119 -2.71193
3134 1 18.3327 1.89177 -1.49528 7.00513 2.57265 2.20984
3137 1 5.11281 -1.92361 -17.1421 -2.11649 0.149199 -1.77928
3975 1 3.5159 1.55839 -21.495 0.760712 -0.628744 2.58231
2271 1 22.0324 -17.2447 -9.06361 -0.372214 -5.65788 1.47823
3141 1 9.1936 -1.94496 -8.18349 -1.23397 3.94463 -1.49885
3149 1 7.42358 8.89894 -18.6614 1.24756 -3.78871 0.581282
3755 1 15.503 4.16673 -8.33743 -2.88303 -5.51591 -4.63077
3158 1 16.5708 -22.5223 -9.69013 -4.55575 2.13523 1.88978
3159 1 18.8874 4.40813 -6.40951 -4.55933 -0.220345 0.21424
3167 1 20.3498 -15.4515 -20.7867 -0.82962 0.714831 1.00244
3169 1 12.8673 -23.3763 -19.7501 -1.46436 0.548279 -1.62706
3175 1 20.7665 1.16831 -4.35833 -0.241596 1.1756 1.54994
2318 1 20.91 -8.30977 -8.7235 1.23557 -2.39159 -1.88037
3191 1 7.61213 -7.57921 -10.8886 1.25218 1.89746 2.93073
3870 1 14.27 -18.7921 -10.5123 1.98874 2.75107 0.738736
3198 1 5.15 2.44322 -17.945 -0.646573 2.35102 2.15769
2035 1 14.3819 -14.0598 -23.7252 -4.74665 -0.951831 3.24645
3234 1 11.156 -6.98516 -12.5412 0.747239 1.44144 -2.65466
3242 1 20.6691 -8.60987 -17.0558 -3.1775 3.11059 0.851384
3250 1 14.1539 4.31703 -16.5016 5.50908 0.083369 -0.59096
3254 1 19.6899 5.5605 -10.4643 1.1361 -3.16606 -3.42645
3954 1 2.66743 6.50372 -17.8814 -5.25129 -5.2833 -2.27417
3265 1 7.97052 -2.1788 -17.0792 2.81136 1.37955 5.11723
144 1 23.4341 -8.61626 -18.2349 1.49982 1.40463 3.64904
3282 1 1.55825 1.36739 -15.0138 1.74408 1.90702 4.57075
483 1 7.39081 -17.2385 -1.57412 -1.65935 2.47418 -1.13303
3298 1 6.15533 -9.4786 -15.9207 -1.76568 -1.58911 2.3926
1976 1 19.3476 -7.56413 -23.2352 2.93337 -0.389195 -1.65951
3949 1 2.5662 -16.4142 -13.9246 1.76672 -5.07373 -4.65589
3305 1 6.3863 7.30561 -7.51162 -0.950202 5.13039 2.57943
3311 1 11.6268 4.50312 -10.1136 0.0566964 -1.93251 -3.498
3315 1 21.964 -11.8427 -20.0262 -0.739257 3.84008 0.431324
3316 1 4.43309 -5.31955 -8.04373 2.47469 3.86549 -1.88371
1310 1 0.653501 -19.8036 -1.11264 0.565754 -3.92708 -0.463982
3320 1 9.0329 7.85529 -8.59424 -0.273065 -0.4478 0.896169
3887 1 2.01471 -12.0774 -17.0534 2.26538 -2.9028 -2.4354
3324 1 11.8314 -17.0928 -11.6156 -0.494719 -0.442236 -4.27957
3327 1 9.48801 -23.5985 -5.73639 0.799119 -0.110645 -0.350223
3153 1 15.2349 7.4221 -23.0317 0.116222 4.5338 -1.21532
3329 1 11.8049 5.98783 -16.891 -1.88697 -0.243168 0.858997
2641 1 19.1944 7.7601 -14.0253 -4.3179 -2.28977 0.564541
3340 1 17.2534 2.28174 -21.1206 -0.028419 3.86136 -0.22538
3363 1 16.484 -4.1981 -14.8172 -4.73826 1.529 0.269392
3367 1 2.2103 -22.2993 -17.8936 -3.10865 2.65493 -0.133747
3372 1 6.4125 -0.62429 -7.89278 -4.29003 -2.16979 -0.460019
3374 1 20.9476 -12.9364 -22.3752 -0.239982 -0.892608 -1.62059
3384 1 15.2967 -19.1492 -14.9474 -1.91947 -1.19632 -3.23989
3386 1 11.5915 -10.2916 -22.6784 -0.796311 2.43057 1.97193
1040 1 5.33243 -5.92637 -23.179 -1.42764 -3.53291 -0.00176896
3402 1 11.438 -18.734 -22.3441 1.77322 3.77161 -3.03427
3407 1 9.52061 -2.7106 -11.9053 -3.22099 -3.6247 -3.56043
3412 1 7.43298 -4.61518 -10.7149 2.25541 -1.88357 -0.377212
3416 1 19.268 -20.3728 -6.01871 0.678929 -1.38551 -3.84685
12 1 17.2045 -3.83215 -23.5829 -0.462309 0.117262 -3.75109
3441 1 6.10269 -15.7264 -6.8589 4.9461 1.13955 2.92078
3451 1 4.13126 -13.8696 -18.047 -2.30439 1.98494 -3.01453
3031 1 22.0213 -9.66016 -21.9666 3.5302 -0.20576 -0.273694
3458 1 13.238 7.91864 -20.9035 2.17031 -2.14009 -2.14386
449 1 15.2956 -2.48292 -0.5495 -0.525896 -3.36339 0.338634
3618 1 0.881586 -12.7696 -11.5485 -1.78964 2.10777 0.358582
3674 1 0.388492 -2.9417 -8.29047 -0.374752 1.4422 3.79131
3487 1 12.0691 -11.0721 -12.4417 2.42092 0.143375 -2.28232
3489 1 21.5365 -0.145329 -7.0696 2.32312 4.1372 -2.79296
2058 1 20.7632 10.4481 -13.7238 0.26148 -3.70142 2.68035
917 1 22.9795 2.98954 -21.3814 3.54908 -1.38235 -4.04142
3860 1 13.5646 -16.9155 -17.8398 2.25481 2.29049 2.10239
3535 1 10.8246 -19.5298 -19.5078 3.05405 -4.27263 4.72982
3541 1 13.013 3.26186 -22.8145 -4.78627 0.0275868 3.30918
3547 1 8.79829 -18.3801 -9.96821 -6.89279 -1.51642 1.09441
3548 1 6.61592 -11.2503 -18.2331 -5.80566 -1.56553 -0.710442
3551 1 11.4732 2.96564 -20.5991 -0.610332 -1.5282 6.25417
3557 1 7.78776 3.47518 -17.2754 0.66322 1.18659 3.5045
3101 1 22.9667 -14.6292 -19.7443 -5.0143 1.53895 -5.15986
3992 1 21.4041 7.97556 -1.94351 -1.99304 -1.0605 1.95349
3565 1 16.0115 -17.8615 -6.09646 -1.15077 3.07974 -1.72835
276 1 23.3332 6.35222 -4.75234 -3.84848 2.33639 -3.74475
3586 1 16.5408 0.347981 -6.10434 0.495393 -3.71659 3.92806
3914 1 11.4903 -11.3558 -3.32898 1.95345 2.89416 0.117956
3590 1 10.5212 2.46934 -3.68422 0.227066 0.0220941 1.15452
3593 1 13.6387 -7.82958 -13.6727 2.78467 -3.38033 -2.23241
3606 1 3.05133 8.2126 -11.8172 -2.42087 -3.25558 0.143638
2410 1 7.40698 -22.709 -23.3 3.10176 0.763657 2.47283
3617 1 15.6599 0.50167 -19.5977 -0.721345 -1.26024 2.99552
3782 1 2.58733 -18.503 -16.2439 3.22218 -0.47681 -0.760703
3630 1 6.19932 -11.19 -2.20984 4.34106 -0.839889 1.04472
3633 1 14.6323 6.60243 -3.57245 1.4979 0.550557 3.36474
3670 1 13.9502 1.31564 -9.72586 -0.671039 -2.33684 -1.24992
3636 1 5.90775 -20.5516 -10.6972 1.32187 -1.27897 0.0609398
3640 1 16.3861 -16.5943 -11.0601 2.48797 9.39285 2.44532
3646 1 18.3932 3.64156 -17.7808 2.43546 -3.69813 -0.171636
1549 1 1.53413 -2.4273 -15.8506 0.563295 -0.701082 4.20525
3650 1 6.29299 -5.36184 -17.2566 1.67346 0.782823 2.39478
3659 1 19.2869 7.41819 -16.9923 -1.91676 7.70499 3.30138
2874 1 2.01915 -9.67646 -13.8694 2.06277 5.54124 6.08526
3884 1 11.7789 -19.5915 -7.06225 0.111763 0.685242 0.965688
3665 1 8.06091 -4.25836 -19.1 0.380169 -3.53152 4.91958
1425 1 -0.000856994 6.90986 -9.23931 -1.83008 0.337857 0.856187
2280 1 11.2499 -10.8295 -0.592441 3.20982 7.87214 -0.294199
2135 1 17.6142 9.1547 -23.3178 0.0542525 2.17642 0.318944
3319 1 -0.114564 2.90317 -17.0064 -1.09923 0.582531 3.15788
1369 1 23.2144 2.53288 -7.12673 -1.59273 0.801464 -1.3623
597 1 23.2215 -23.4066 -13.024 3.29155 0.229785 1.90571
1893 1 4.80554 3.51939 -23.4402 -1.13545 0.469834 -3.82662
1754 1 20.5398 10.8412 -19.7297 0.875587 2.19814 1.77462
329 1 -0.32977 2.16143 -9.42444 -0.761703 -2.92644 4.73535
552 1 3.41256 -17.6759 -0.352683 -0.241194 1.58753 5.1347
1815 1 13.5785 0.334928 -23.4746 3.44191 -0.753032 -2.8349
3573 1 19.3287 -2.36013 -0.100004 -1.41154 -2.9098 3.08611
498 1 23.3192 2.13312 -24.1081 -4.45437 -7.17591 -4.67399
2604 1 13.0803 -13.0174 -0.215049 1.71737 -6.0772 1.04339
995 1 8.47866 2.48589 -0.101603 0.912391 2.54926 1.24795
3610 1 12.5051 8.52389 -23.9885 -5.42513 4.06985 -2.70611
3685 1 5.87142 -4.21335 -0.0486055 4.66786 1.58996 1.83018
1185 1 17.1063 7.53532 19.7225 -1.82246 -1.13812 -3.18388
3177 1 0.460955 -11.2325 22.7656 -2.64765 -2.06474 -1.97134
865 1 -0.137829 -21.7194 12.5657 3.79148 -1.58603 -3.69616
11 1 8.1032 -12.1558 17.5571 -1.59125 -1.42516 1.45398
17 1 17.2594 -7.48304 18.1166 -0.780656 -5.96152 -2.14188
20 1 20.0569 2.6299 20.9085 0.763108 0.580936 -2.77012
35 1 18.7586 2.56994 10.7698 -0.524771 -0.263882 0.218423
10 1 0.760355 -5.77162 13.6569 -1.10618 -2.39315 1.12521
50 1 16.6627 -19.7099 12.7011 1.70931 -0.111511 -3.61025
65 1 20.3569 -1.31799 7.94833 -6.21712 -4.25622 2.19516
1099 1 16.9095 11.095 14.9089 0.0469249 0.0953802 3.67847
86 1 13.7444 8.79197 16.6865 5.87546 -4.93531 0.132217
90 1 8.83186 -4.43821 6.45235 2.22111 -3.1132 -4.44026
102 1 3.2664 3.33297 4.46233 -4.10786 0.275881 -1.76038
106 1 14.2444 4.6417 6.28153 -1.89156 -2.41077 5.46657
107 1 16.8014 -3.73471 19.4459 -1.28328 -0.327532 -0.323496
2868 1 2.37178 -21.0503 22.2086 -0.858774 3.95699 0.239712
120 1 5.61504 -2.47367 18.6565 -1.33728 1.91147 8.39841
1012 1 0.889208 4.15693 0.831324 0.586286 0.964443 -4.83507
127 1 10.8003 1.45147 9.78797 -1.44211 -0.449256 2.8133
129 1 16.1597 -11.202 3.90283 -1.4122 1.26101 -0.120045
140 1 4.8167 -4.46382 22.2155 3.96585 2.30691 1.49238
141 1 10.9652 -16.4626 3.70673 1.48592 1.11669 1.89566
142 1 14.6669 5.17608 22.1813 -1.49516 -1.13677 -2.0332
145 1 19.0981 7.85377 17.4119 -3.09472 1.18441 -4.38003
3841 1 23.2186 3.78953 11.9689 0.910522 -3.34535 -1.85961
151 1 19.3783 -0.241478 20.6314 -2.24063 -4.68166 1.02296
156 1 15.062 8.25752 22.0225 -3.85123 1.22246 1.53019
3683 1 5.6283 10.0063 5.51334 1.21145 -1.74061 -3.70904
163 1 2.98828 -1.36539 15.2302 -0.412492 -0.433192 -1.99126
164 1 20.5134 8.46923 10.7573 -2.64364 -2.73525 -0.841641
193 1 6.50754 -0.552168 4.06751 1.20148 -1.20471 -0.831597
205 1 21.3516 -6.13768 10.2212 2.55055 4.49093 -1.43886
208 1 1.39394 -3.91907 18.3787 -2.54861 3.04894 0.1407
211 1 13.8811 0.0959152 6.71562 2.08873 -1.77912 -2.71777
236 1 15.9075 -7.99047 7.13743 1.31091 1.54458 -2.22912
3925 1 22.4194 0.439637 1.81295 -1.92312 3.7314 -1.30927
240 1 10.182 3.43539 14.8372 0.491812 2.14501 1.52216
246 1 10.6084 4.20174 21.3487 0.0736784 0.0442443 0.264895
1366 1 20.3648 -14.0151 0.69347 -0.616291 -4.22278 -6.31258
2944 1 9.25846 -23.5009 15.7019 4.06428 2.75358 -0.892549
272 1 14.5121 -18.796 11.0178 -1.28615 0.881289 1.96262
274 1 12.5594 -11.6095 10.1668 -0.863804 -0.126862 1.01943
278 1 21.864 7.42807 17.2509 1.32319 -1.25346 -0.785273
2665 1 22.0684 -2.2823 1.20321 -0.13143 -0.922241 -2.61919
1219 1 14.2627 9.83746 12.5899 5.2078 -0.423883 -3.84027
293 1 16.2889 4.20083 13.9223 -2.31123 2.36457 3.84964
2968 1 2.19611 -14.934 0.687141 3.81278 0.221997 0.215951
300 1 17.0718 -3.38245 15.3641 -0.870686 -0.680266 -1.84376
305 1 2.99683 -19.4882 19.9049 -2.0408 -6.44434 -3.08828
309 1 6.67724 -18.7082 17.2373 -1.90488 1.19078 4.76321
311 1 14.2619 -9.44313 1.92718 5.83212 -5.29429 2.06108
1543 1 -0.196511 0.630754 13.995 1.82049 -0.698096 1.87264
318 1 19.8868 -16.6481 19.0429 -1.87673 1.021 -3.53418
2191 1 12.7867 10.5597 4.57478 1.76185 3.457 3.00028
331 1 11.7054 7.96294 3.42132 0.911847 1.91932 -2.57534
516 1 9.28578 -23.5731 1.28435 -0.111682 2.56447 -2.03361
338 1 4.87782 -7.7496 16.669 3.37045 -3.97959 1.51888
346 1 15.9945 1.38743 3.12354 0.571298 -0.333077 -0.498662
347 1 22.7727 -6.47794 7.67243 2.42404 6.85664 1.24869
535 1 4.72928 10.04 9.37617 -0.658365 5.03095 1.15159
358 1 20.025 -11.9798 12.5842 1.98894 -0.937922 6.24146
368 1 5.73664 -5.21521 10.106 2.82493 -3.17895 0.962731
377 1 16.4952 1.21322 13.1126 -6.12217 3.31384 -1.26254
1558 1 9.3828 -18.7085 0.524577 3.07105 0.370921 -2.57442
3658 1 22.8479 10.1391 11.6652 -1.19648 0.697666 3.10791
390 1 11.4513 6.12726 6.68344 3.74053 -0.100532 -1.27102
391 1 20.9578 2.68468 18.2562 -0.121336 3.93946 -2.93296
392 1 19.2119 -9.31326 16.2375 1.70467 -1.2837 -1.79137
2185 1 6.43347 10.5748 19.1434 4.38459 -0.231682 0.853692
76 1 23.7926 -3.21871 3.45571 7.30007 -1.35679 3.63707
2552 1 0.867719 -9.69776 8.4459 -3.05743 -4.06996 3.54497
407 1 5.44226 -12.1123 16.2445 -6.00457 3.70796 -2.21596
1682 1 3.02589 10.1757 2.66396 -2.60824 -0.182629 -6.70745
432 1 6.8996 -1.43021 10.7142 1.27865 -2.92295 -1.40987
442 1 5.89673 4.27009 16.459 -1.94981 -0.612417 -4.23198
450 1 14.7961 -20.1304 6.93931 -3.17082 -1.25504 4.17763
455 1 13.8796 -13.6143 12.8379 -3.0123 2.44704 -1.90261
3631 1 10.1434 10.1128 18.3918 -0.110434 -0.634866 1.55132
295 1 2.14452 6.82522 11.1127 3.044 4.87259 1.32259
479 1 18.3364 -16.6635 14.2589 -0.98001 -1.40073 0.979028
480 1 2.72273 -9.7214 10.5138 3.74262 -0.524388 -2.82565
2705 1 0.69727 -4.37593 5.18607 3.32235 0.916326 -3.15702
494 1 5.53632 4.98928 3.6672 2.89968 -1.68842 -1.68813
502 1 13.7846 -13.2718 18.0098 0.441287 4.95305 3.10813
510 1 8.7191 -15.7046 13.8785 1.98425 -2.2377 4.26151
511 1 8.80872 -13.0774 4.82965 -1.21897 3.55381 -0.00789778
2150 1 18.8364 -10.0441 0.662315 0.155933 -2.58383 -0.953121
898 1 17.2751 2.29037 21.7889 -1.6761 -1.91568 0.397258
522 1 5.36591 -17.5615 9.01528 -1.13658 -0.738296 -6.31161
2679 1 9.12843 -1.03614 0.802679 -0.128203 2.69013 -1.35447
1719 1 19.3856 7.36563 0.0299788 1.74008 -2.03376 -0.63571
365 1 2.20917 -15.377 18.1123 1.73831 -0.794401 -2.72216
537 1 10.364 -6.61068 2.27754 0.512055 1.09521 -1.16832
420 1 -0.326 -3.55946 11.9109 -1.0378 3.50522 3.92748
548 1 11.4913 3.68899 18.4339 2.52809 -3.70086 -3.52245
561 1 7.38524 -22.7835 19.6056 -3.93067 2.68466 -0.874895
563 1 6.33985 -22.196 8.85346 -1.10275 2.30346 -1.33961
565 1 15.2721 -21.3865 21.2481 8.57745 1.82628 2.9217
568 1 6.96521 -6.53815 7.514 2.09577 2.99751 -0.637274
3054 1 21.7622 -2.3814 23.225 -0.655888 -0.486574 0.471489
292 1 15.6418 10.9003 3.78799 0.350707 0.60424 -0.87075
573 1 19.4349 -5.69144 7.02758 1.2666 -4.53863 -0.0483145
3252 1 18.6957 -21.9719 16.1071 1.21526 -3.09329 0.0511854
1722 1 19.5591 -23.8828 18.182 2.32453 -3.80588 -2.99753
598 1 15.8325 -14.9065 5.39012 -1.80804 -4.35579 -0.153889
599 1 9.82973 -13.6755 15.9043 -5.82459 -4.67189 -1.50113
218 1 10.2606 4.68541 0.398219 -3.24662 -5.24718 -2.46477
609 1 11.1639 -20.3752 20.6067 -3.91969 -2.78282 -2.22339
610 1 19.396 -4.47666 14.0818 3.10594 2.48671 -4.11263
615 1 12.1687 0.952082 19.0452 -0.0703502 -0.804053 -0.562256
616 1 13.4225 -3.33018 21.0066 -1.37777 -2.19087 -0.410439
618 1 13.7319 7.12907 7.95629 0.98815 2.92135 2.53277
619 1 14.846 3.61083 8.66454 1.28657 -0.125283 -3.63653
623 1 22.3941 -15.2249 5.14155 2.79531 -2.71637 1.15323
640 1 0.702024 2.30577 3.0622 -3.12404 -0.537191 0.930685
643 1 11.2691 -19.4711 7.99506 1.32221 2.56125 5.02422
649 1 9.01385 -16.055 20.382 1.15632 -1.1572 -4.74667
659 1 7.1967 -0.83437 20.3478 3.35165 -2.66357 1.21539
660 1 7.93158 4.37636 7.25033 -0.592837 -2.26938 0.0949909
662 1 4.34093 -7.73546 6.46765 3.93662 -0.394532 1.02159
669 1 10.1587 -16.406 11.6839 -6.58966 -2.64959 -2.20608
676 1 8.7406 2.97044 17.1555 4.80028 -3.52232 1.95965
685 1 22.6619 0.251551 8.9 -6.61623 2.86105 -0.956022
158 1 9.27525 8.85573 2.2049 3.48694 -1.97801 0.519527
694 1 9.05663 -18.2719 3.30196 1.69547 2.9086 0.789795
701 1 16.2211 1.01074 8.00887 -4.02204 1.5911 1.92296
706 1 2.92876 0.51608 22.5675 -2.46242 -1.94503 2.07717
712 1 5.90903 -10.3304 14.1401 0.131815 0.20151 1.28835
713 1 0.211243 7.03773 4.5105 0.620683 -1.11059 -1.08121
719 1 14.0949 -4.78312 10.1174 9.1364 1.6532 -0.368368
735 1 15.0892 8.88725 6.10127 0.963035 -5.39915 -2.11152
737 1 20.6466 -17.5888 5.23286 -3.1866 2.94574 1.1679
747 1 11.801 -10.2638 3.1798 1.7092 -0.729177 -2.01572
752 1 22.5884 -19.7093 4.66266 0.467837 -1.51927 6.43156
943 1 19.9273 -5.25929 0.511664 0.963455 3.41609 -6.28322
763 1 18.348 5.85408 8.12717 0.560967 3.1016 -2.37642
764 1 21.6907 3.99207 7.37765 -0.319916 1.70146 3.92451
1749 1 22.9677 9.25191 15.4028 -0.394766 -1.92952 4.37583
771 1 12.259 -14.6224 10.4677 0.429125 -2.50958 1.92395
772 1 3.67949 5.88276 7.41759 2.89688 -0.0770436 1.27783
773 1 11.6545 -21.3648 11.642 0.0267391 -4.77203 0.646943
1076 1 21.6389 4.13346 22.8737 -4.59893 -1.8249 2.19575
783 1 5.51571 -18.7789 20.4906 0.601318 -1.37099 -6.95912
790 1 4.53858 1.1105 14.4425 -4.01786 -2.03623 -1.11538
3039 1 16.9297 -24.48 19.0615 0.554056 -5.30912 2.34957
795 1 20.6396 -8.08677 21.2828 0.0780403 0.00212172 -0.801822
816 1 20.1398 -21.0568 20.4907 6.51226 -1.24683 -2.01817
817 1 10.1745 -11.7281 13.7837 -3.92657 1.79421 -4.72882
822 1 22.1019 -16.0809 13.6556 0.942344 0.795362 -1.71839
823 1 9.17105 -9.25735 2.65072 -1.12922 -0.085741 -2.04905
1925 1 21.8507 -23.1539 19.2266 -3.62023 -3.02841 -0.0803137
836 1 6.69483 -15.6653 21.9927 -5.42964 -3.3529 5.19573
3839 1 18.0402 4.78093 0.507223 -0.607966 3.04175 -4.83458
840 1 4.85893 -17.4264 13.4256 -0.906873 3.17214 -2.44907
841 1 21.6025 2.60019 9.86223 0.276757 2.42476 0.0286544
843 1 21.4148 -8.72448 18.6346 3.62832 -6.1516 0.166654
858 1 17.8963 -11.5937 14.4615 -0.125905 -1.36283 -0.457124
863 1 15.7107 -18.0374 5.4941 3.04419 7.93666 -2.16911
2900 1 17.4179 4.58167 23.7675 0.717686 -2.57035 -1.87489
866 1 14.3002 -1.40215 18.7792 5.56351 -0.0228289 -0.23746
2685 1 0.905212 -8.95238 3.68402 -1.21674 -1.05956 2.21063
877 1 4.42866 -16.8707 16.9756 -1.97171 -0.217494 1.55302
887 1 9.51376 -23.983 18.5207 5.15295 -1.83649 2.73505
890 1 14.996 -19.8393 14.9112 -0.414173 -0.916187 -1.57614
3121 1 0.0615664 -24.3248 16.7968 -0.129396 -0.801273 -0.600919
895 1 2.58185 -23.7082 6.48757 -0.432896 -0.392632 1.77939
896 1 11.5519 -1.67064 17.9271 -3.21743 -0.926187 6.00701
899 1 15.4466 -18.7451 17.5447 -0.417585 -0.586075 -2.6271
901 1 1.23082 -17.4871 9.85696 3.60907 -4.97722 2.0042
478 1 0.814479 -1.66033 22.9051 -0.509655 5.01342 0.0529136
909 1 17.3274 -22.1982 11.4836 -3.04053 -0.560901 2.81882
3850 1 18.8078 -17.2616 24.0144 -0.0908576 3.11904 0.572022
926 1 2.86762 -17.2014 7.62751 3.59364 -1.2026 -1.60352
928 1 9.96859 -19.1267 10.7453 -0.199722 1.97677 -6.10995
938 1 19.1668 7.71265 4.54431 -0.472864 4.03676 -3.90549
3786 1 22.3258 7.50274 19.9875 0.818479 -2.38421 1.9119
945 1 6.1013 -21.46 17.5124 1.98852 -0.167578 -3.87413
953 1 18.8567 -4.90685 3.37822 6.46213 -3.74145 -0.952645
38 1 21.3089 11.0339 9.36389 1.05316 -3.57487 1.88148
1 1 23.4219 -23.0152 12.5679 1.22921 3.54222 4.00876
977 1 4.04853 -23.5608 14.2608 0.518595 5.55885 -6.83863
990 1 12.8738 -7.17214 13.1275 1.11586 0.181888 -5.80725
1333 1 -0.0687176 10.9341 5.21228 2.87 -3.83463 0.0370922
1003 1 13.9795 -16.6757 9.18087 -3.09122 0.662081 0.488847
1007 1 15.0537 1.03392 20.3778 -3.35211 -1.28775 -3.50691
1008 1 5.09027 -4.4211 14.4817 1.11119 1.47521 -0.187543
1009 1 9.78698 -15.5121 6.05702 -1.87895 -1.39212 -0.428204
1777 1 22.8882 -11.4108 16.8668 0.875892 -0.875818 1.67135
1023 1 11.0127 -2.70241 3.3559 -4.506 -1.48631 -0.145995
1032 1 12.5087 8.61697 20.5695 2.7342 -1.26305 -4.09878
1036 1 6.80248 -13.1671 23.1949 2.70272 0.934657 2.07012
2385 1 0.902859 8.27422 1.87366 -2.24105 -0.141578 -1.87121
2840 1 4.74622 -19.523 23.0946 2.27164 3.29198 2.23304
1051 1 4.94921 0.30484 9.74795 -2.61739 -4.60004 -1.0942
1064 1 13.7088 -17.491 3.69634 -4.76651 1.16753 -3.32197
1078 1 10.2437 -7.90278 12.0873 5.0025 1.07352 5.21684
1081 1 8.40767 -9.28694 17.1617 1.12889 2.00523 5.13166
1093 1 20.8193 8.5261 2.25413 -1.38366 -1.66691 -3.16056
1213 1 22.5018 -12.3274 21.3764 -5.14395 1.52933 -1.8372
1100 1 10.9911 -2.36267 22.5064 4.21304 -1.58475 1.7851
1101 1 5.9354 -15.4686 10.6455 -0.253031 5.29872 -3.41903
1102 1 15.8415 -16.4398 15.8008 3.75779 0.168015 2.39743
320 1 -0.304068 -0.673215 6.29976 -4.54979 -1.1797 0.879562
1107 1 6.5954 -16.6952 2.53168 0.955997 -0.437451 2.44166
1111 1 13.9473 -7.32229 9.04197 0.900155 -0.302471 -0.856599
1119 1 9.06284 -8.49145 6.37372 0.0200464 6.20598 1.23802
1132 1 22.7712 -3.52511 18.9279 7.01663 -2.97923 4.14754
1134 1 14.1368 -21.1338 18.7776 1.21838 3.21962 0.536121
39 1 2.74316 6.33806 22.1733 -5.88612 -2.0672 0.258157
1137 1 4.63519 7.08598 1.69665 3.54335 -5.1158 -1.12311
2931 1 1.18559 -6.27446 22.8525 -1.30026 2.6286 4.6268
2342 1 9.04428 -13.58 0.0872597 -3.64661 -0.0967033 -1.86341
1155 1 7.40625 -18.1718 14.4878 -3.42364 -3.4925 2.50736
2146 1 4.1416 10.0792 17.3685 4.17983 -2.82002 2.55453
2250 1 0.360225 -0.115882 9.15329 -0.236077 2.89127 -2.19687
1169 1 12.6056 -5.43712 17.1885 -3.37921 2.36856 7.45823
1173 1 8.12073 -20.1425 20.1555 -0.961289 -3.79018 -1.0253
994 1 23.2016 -14.2379 15.6978 0.600656 -2.62813 2.25707
352 1 13.5684 -0.220343 0.62493 -1.12784 0.202143 1.33732
2283 1 23.0835 -12.3754 6.50704 -6.45279 1.60666 -0.882995
3822 1 9.121 6.88064 8.15496 -5.75278 0.0499657 -2.18377
1193 1 8.97589 -6.33756 15.2613 -4.30249 0.515758 -0.0184124
3867 1 21.7893 0.968214 4.41722 -2.27005 -0.719074 -2.38017
1200 1 14.1215 -9.2793 11.255 5.53896 3.27584 7.04004
2204 1 4.03675 0.236012 0.52727 1.72408 -3.39402 0.119898
1936 1 20.7553 -20.9943 23.4254 -2.83091 -3.01785 -0.90865
310 1 1.29524 10.7149 13.1805 1.73633 0.16173 -6.08307
3996 1 5.13003 -19.0496 1.86048 -3.24997 1.36654 2.82792
1217 1 15.8345 -14.3053 2.34254 -7.82086 -0.226264 3.75922
1477 1 17.988 -0.288128 2.00524 2.18556 0.785879 1.30619
1224 1 17.7795 -5.96523 12.4684 -3.9644 -5.17958 1.67358
3179 1 2.94389 -1.34931 18.1692 3.21877 4.01369 -2.17937
1135 1 5.68789 0.103019 22.7844 3.35246 -1.73118 -3.15522
1248 1 9.45218 5.8165 18.0552 0.651891 1.04695 -0.148426
1250 1 7.33412 1.92073 19.6103 4.59304 -3.44465 0.185727
1251 1 21.437 -0.936328 19.0663 1.46765 -4.84181 -2.01322
1252 1 18.6303 -18.11 1.64993 -0.191844 0.0768909 -6.27408
1259 1 19.7066 -9.94009 7.28406 -2.19229 -0.0117804 -1.66759
1266 1 16.3956 -8.22402 4.07615 -0.945004 1.26387 7.50388
1716 1 15.7744 -24.2238 21.6062 0.464302 -0.408752 4.43973
1269 1 8.35467 -6.87482 19.6777 1.23588 3.91614 1.36628
3037 1 2.33655 -11.5304 3.77972 -2.19604 3.62786 2.2254
1469 1 19.869 10.4334 7.14133 -3.03347 -1.50735 1.05533
1275 1 3.87424 4.10349 9.99045 -2.61727 -0.7933 1.0573
1281 1 12.8439 -10.4011 18.6427 0.877391 5.43676 4.14253
1284 1 8.19412 -11.9627 2.20983 -1.92637 -4.07489 -0.238428
1287 1 10.2265 -17.5909 15.8745 2.20545 1.85134 1.00603
3203 1 19.9443 10.5358 17.8665 0.969505 -5.30916 -1.6114
1323 1 15.295 -7.70736 15.0556 -0.959719 -0.186333 0.255191
2366 1 8.76036 6.02122 2.36912 2.5193 -3.73838 -2.1015
776 1 11.0488 0.573233 22.6198 -0.125789 3.31019 -0.469357
1337 1 8.77684 -23.3815 8.80305 0.68898 0.940514 -1.52922
1339 1 2.87556 -14.4918 21.5544 -4.30045 4.62201 2.51479
1341 1 3.19434 8.75861 13.2211 0.113629 2.54861 -1.20047
1344 1 19.2522 -7.88802 3.48768 0.450785 1.92122 -0.631193
1349 1 2.26415 -14.4193 7.473 0.350253 0.351686 0.236432
1351 1 16.4704 -14.1858 17.4509 -5.97825 2.08819 0.744557
1360 1 18.8992 -12.7985 7.62409 -1.44398 1.70859 -1.35495
473 1 4.66614 11.0621 12.1543 3.67917 3.75803 1.64957
2943 1 22.9838 6.6092 10.6099 -1.80264 -2.61179 -0.192131
1375 1 17.0031 -5.42999 5.41418 0.645318 0.83786 -2.30553
3368 1 22.7179 -19.7189 16.941 -4.20596 1.97772 3.06575
1382 1 16.6503 -13.8385 9.24188 -0.274987 3.30915 -1.25028
1388 1 15.8199 2.68206 17.937 2.98778 0.0332683 -1.69595
1390 1 8.29273 1.79436 10.9843 -2.56194 -2.43815 0.0290602
1392 1 20.1905 4.11213 2.2935 -3.74684 -1.66098 -2.22467
3728 1 12.256 -6.66632 20.6052 -5.18539 1.50985 -2.10037
2054 1 11.7579 2.96959 2.08205 -0.603243 1.191 -0.656443
2496 1 6.65876 4.76012 22.5014 1.36024 1.31327 1.76843
1404 1 21.7876 -11.0033 8.74334 2.19864 -2.57671 3.74399
1417 1 12.3502 6.34614 10.4848 -0.279093 0.224974 -1.3324
716 1 1.63107 -24.3829 9.07155 0.851726 1.98532 2.05237
1426 1 8.11767 -20.381 5.24791 1.04809 4.12165 1.95706
1443 1 18.9916 -13.393 16.5863 2.75127 0.258907 2.89701
1445 1 13.6319 -20.7801 9.41225 -3.02118 0.293576 2.61545
1449 1 8.98265 -4.02064 1.64448 2.80582 -2.63724 -1.06108
1463 1 5.72329 -1.63814 14.4605 -0.670686 0.471797 -0.711952
1464 1 5.06782 -20.8481 4.43055 -0.0411276 6.06511 -1.10216
3365 1 1.45207 -10.8005 12.6652 0.137012 -1.99258 2.90282
512 1 2.53688 -3.80622 23.7897 4.76106 0.880932 -3.44305
1479 1 11.2537 -7.98732 8.38564 4.05736 -1.11843 2.46472
2380 1 9.63519 -13.1677 23.7703 -4.25844 0.181409 -0.7627
1499 1 16.6706 4.40393 20.1425 5.57408 -0.276655 1.92937
571 1 1.07539 -12.6394 20.5351 1.05019 1.88027 0.129949
793 1 21.5506 -9.3465 2.50392 1.59533 -3.37454 0.0429152
1531 1 7.56494 -6.98283 11.6133 -2.06836 2.42051 2.22347
1535 1 3.66842 -6.96267 10.5181 -1.86674 1.01139 -3.34521
576 1 23.3053 1.15485 18.3126 0.00769652 -0.431316 -1.83664
1566 1 4.13439 -10.4868 7.01212 -3.04466 -3.71129 1.07216
1574 1 18.17 -18.8263 4.49296 -1.07405 -2.77319 2.95927
249 1 0.589745 -20.2851 9.34731 3.44161 -0.685516 1.80134
1592 1 17.6835 8.97258 11.2907 0.18862 2.82269 3.28852
3241 1 0.488756 -21.3555 16.3891 1.9942 -2.91558 3.01869
62 1 0.97202 -10.7467 18.0804 -1.8526 -1.31805 -0.198968
1793 1 17.9835 7.16772 22.426 -0.28385 -3.1585 -3.0384
1626 1 14.0041 0.557814 16.5561 0.60725 2.89693 2.20957
1628 1 20.2714 3.23057 5.26342 2.30741 2.20202 -1.20027
1630 1 10.7909 -8.27687 18.5482 -1.86168 -0.183288 -0.214382
1636 1 19.6059 -10.0971 10.74 -0.61102 3.86012 -4.60192
1641 1 19.9222 -12.3525 20.5247 0.865582 -3.79176 3.20849
1653 1 14.319 -22.5312 1.42421 1.09144 -1.75451 -0.647561
1654 1 5.44426 -19.499 11.3266 -1.04776 -3.57719 1.49258
1198 1 20.9051 -23.8822 11.4126 -8.20252 2.52736 -2.94944
1673 1 3.39839 -18.5806 5.0076 -3.40945 -1.14933 -3.49778
1675 1 2.01985 7.70411 15.4236 2.63777 4.66082 -2.09909
1524 1 1.25549 -19.6066 6.72089 -0.435389 -2.25509 -1.06679
3716 1 6.73639 6.18877 0.256728 0.86984 1.0134 0.914578
1686 1 9.90948 -8.14185 21.715 2.40488 4.09198 -1.75542
238 1 17.6613 -2.66788 21.7968 -0.105071 4.38864 -1.03918
1696 1 13.0475 -3.15895 1.44342 3.49024 -0.0521838 4.30352
1699 1 11.9486 1.43473 14.8836 1.46116 -1.51586 -4.00882
1702 1 2.24565 -21.4741 14.2052 -1.26233 1.74773 -4.48843
1472 1 21.8887 4.74784 16.3491 3.41458 4.15383 -3.13026
1721 1 6.12882 3.59811 11.7661 -0.117967 -5.87883 1.25875
2042 1 4.57639 -22.515 23.6224 3.86082 -0.0758295 -4.97026
1732 1 14.1787 -12.4847 7.92333 3.3455 -3.90028 0.0897612
1736 1 17.0704 4.74331 10.3841 -4.94287 3.95136 -3.35018
3132 1 2.8788 10.2241 5.62879 0.502874 -0.617199 3.83101
1743 1 21.0323 -17.0605 8.00231 0.355523 0.235884 -2.44279
1370 1 4.11589 -13.1859 23.8853 0.773411 2.20026 0.553755
1751 1 3.19097 -9.01733 14.1846 1.71877 -0.614581 0.497208
1758 1 21.0633 -21.9005 6.04645 -2.21471 0.516158 -1.62032
1188 1 2.15035 5.50554 2.96418 4.1468 -1.56531 -0.0592728
1768 1 11.7468 -3.02482 10.1469 -0.699969 -2.41325 4.73086
2861 1 16.4213 10.3036 20.3946 1.96131 1.33013 -2.14586
1774 1 16.4984 -17.335 22.4819 -0.500429 1.23549 -4.99803
3533 1 18.4644 10.1437 2.99444 0.132871 -2.28626 1.69762
1806 1 14.5065 -2.84877 13.947 -4.4143 1.67319 -4.07246
1808 1 20.3273 -11.3417 18.0669 -4.02369 0.0540112 -1.1464
3891 1 9.02297 -18.0692 18.585 -2.08434 1.39605 2.3057
3687 1 10.964 -13.7429 8.14004 -1.22559 2.36335 -1.98711
3643 1 -0.379663 3.54681 7.93715 -1.10121 -1.76847 -3.42759
3777 1 15.043 -6.74678 0.78547 -1.74618 3.45761 0.138654
1837 1 14.9513 -23.0692 10.389 -1.0152 -2.59032 -2.32916
1842 1 13.1224 -20.0176 2.56691 -1.25713 3.36027 -1.16032
1846 1 12.4193 -23.9192 6.88801 2.89377 0.930956 -5.32366
1847 1 18.1675 -14.4933 19.8098 -2.24096 1.63622 4.87139
1853 1 3.61544 -14.0386 4.89999 5.56547 1.34582 1.7015
1271 1 0.279887 3.53404 17.5916 0.272295 4.28816 -1.46745
2696 1 20.8831 -17.6588 21.6161 -0.20331 -0.286749 -2.9726
1860 1 7.03616 1.14374 6.32787 -0.945693 -2.55154 2.36848
1871 1 17.9641 -13.2918 5.07116 3.73796 -0.136566 -1.24372
1881 1 8.7593 6.33173 20.9667 1.59751 6.83218 2.06246
1887 1 18.831 -5.07813 18.2132 0.545393 3.39776 0.830408
1332 1 12.9505 -24.5204 21.1615 -0.786615 -7.90236 0.377396
1909 1 12.7813 -11.0797 13.2063 -1.3076 -8.40777 -0.828689
1914 1 17.7588 5.49041 3.55162 -3.39129 1.01062 -6.72627
3580 1 1.72034 -11.617 6.65368 -0.237541 1.58971 -2.33127
3189 1 12.5256 9.77432 7.404 5.08659 2.7636 1.89651
2684 1 22.8854 -11.5962 3.76977 0.605544 1.83913 -3.01958
1935 1 18.6332 -15.3271 2.5323 0.494539 -0.824893 -2.33397
2639 1 0.316532 -6.65334 18.7598 -1.66276 -1.20714 2.85009
1937 1 2.87248 2.60728 16.3414 -1.74093 -1.00777 -1.9408
1938 1 2.76607 7.7161 18.1946 3.21937 0.486222 1.45449
3827 1 0.195364 6.15731 18.416 5.16687 -3.46439 -0.397636
1954 1 4.85972 7.21948 9.88618 0.443981 3.31217 -0.914891
1958 1 13.6188 4.47125 13.9459 2.48061 -8.07329 -4.68581
1965 1 14.5834 -5.45945 19.5032 -1.61506 1.96077 0.414116
3848 1 7.02149 -15.8034 7.28491 -3.72426 -3.36605 0.136346
1973 1 12.3454 -17.8214 21.202 3.51109 1.06404 1.78242
1974 1 17.7496 -8.36719 9.07903 -2.68612 -4.58652 -0.196732
1977 1 17.0111 -9.95674 11.2691 -5.76951 -0.106086 5.99122
1978 1 9.18894 -4.67299 21.7338 0.802838 0.426993 -1.6965
1986 1 14.6949 -5.66679 3.3274 1.15356 2.71104 1.71448
3962 1 5.26054 -16.3195 5.36224 -0.744969 1.0101 5.43952
2659 1 15.7825 -6.3264 23.4838 0.416687 1.90035 -2.95911
2005 1 7.2793 -3.08964 22.2503 2.33303 -0.779671 1.32754
2012 1 18.7569 -19.5072 14.4726 0.765663 2.95187 1.37332
2017 1 10.0379 8.58807 22.1329 -2.93754 -0.615663 5.03516
2024 1 9.82172 10.5428 14.2449 -4.97128 2.10066 0.0974188
1225 1 1.10913 -17.3592 19.6679 -2.68417 0.732271 0.773077
1411 1 20.9167 0.392478 23.0461 -5.20297 2.40684 0.150005
2038 1 17.1474 0.291219 10.5421 -0.290897 -2.68589 1.01942
3138 1 19.9362 -4.42337 21.8739 -2.54922 -5.142 3.6875
3871 1 18.5211 0.906372 18.1304 2.35999 2.22233 -1.96851
2044 1 3.18537 -5.41047 2.95822 4.44187 -0.590024 1.03025
2057 1 15.8499 -2.99203 6.42156 0.00213999 0.0729796 3.57205
2059 1 2.50765 -7.04618 20.4381 2.74428 6.57627 2.22409
2066 1 21.0074 6.70489 8.27265 5.64468 3.83856 -5.52216
2090 1 17.1826 5.95786 16.1713 -5.06146 -1.73757 5.58067
971 1 13.038 -5.65919 23.1487 -5.76213 5.54375 -3.67004
2099 1 14.5018 -10.3639 6.21282 3.26216 -1.97386 -2.5537
2125 1 0.477243 -15.6142 15.8312 3.9179 -2.70116 -4.47525
2111 1 21.9976 -9.88717 23.0232 0.457449 0.532326 2.11346
115 1 7.5742 8.05722 4.35143 1.55345 3.29643 1.84976
2116 1 21.1168 -3.56641 6.60402 5.40715 0.671176 0.299412
2120 1 16.9702 -17.6365 10.6119 1.09063 2.73489 8.83687
2121 1 8.29092 -20.333 23.052 -4.33121 -3.80644 2.21206
1105 1 19.8878 1.63066 1.00726 -5.55071 -2.83211 -2.93611
2140 1 11.9588 -15.4526 16.9444 -1.07985 2.13396 0.606427
2144 1 2.82321 -3.59161 8.32915 -3.15345 1.58037 1.53442
2132 1 11.311 -20.7019 23.5544 -0.994188 2.51592 0.204943
2908 1 1.4327 10.6101 16.0677 -0.838275 1.09042 3.81131
2147 1 3.24283 5.10534 14.7876 -1.96794 -1.89541 3.47307
2148 1 11.9257 -22.9567 18.9894 1.47632 1.18674 -5.79531
3908 1 23.2865 -18.0754 9.54881 0.18714 -1.07036 -0.906557
2155 1 13.9267 4.24433 16.8579 -1.73041 2.25323 -0.0268174
2159 1 2.76079 -20.3829 11.2612 0.892625 -0.786325 -0.777673
2163 1 6.35408 -7.37707 14.2232 0.434566 -3.5786 1.94356
2175 1 13.1318 -23.7712 12.5409 2.49764 -0.0228363 0.494731
2176 1 10.7101 -20.0585 14.1331 -9.53393 1.32248 0.410204
2179 1 11.5673 -4.37141 5.58075 1.23696 1.65277 1.7045
2183 1 4.19214 -2.77418 10.5526 -2.11458 0.123107 3.8988
1201 1 22.7592 -16.0042 18.2594 -0.0390695 -1.40073 1.18252
2187 1 16.5479 -3.26402 9.16141 -5.46703 3.05605 1.25711
1418 1 17.7542 -7.28483 1.03827 1.73561 -1.01711 0.150273
2883 1 11.3331 -14.4615 1.48786 0.647669 0.268077 0.188792
1597 1 15.1921 -24.2324 6.31109 -5.09659 -0.715983 -1.18622
2217 1 10.9713 -12.0388 20.1072 0.49767 -1.18786 -0.520987
2221 1 20.2355 5.69031 20.9171 -0.930763 0.387405 0.41679
2222 1 1.76668 7.6817 6.82064 -4.13778 0.499421 0.49128
2226 1 20.7547 -0.233662 14.1511 1.0755 2.73748 -5.00443
2229 1 19.8056 6.66151 13.0622 3.77384 -1.42436 0.416992
1042 1 10.3983 -6.10722 23.9494 4.82423 -3.77821 4.35141
3964 1 7.87662 10.055 16.6752 2.6408 -2.02338 -0.501856
125 1 12.6536 8.90787 0.8825 3.19499 2.07404 2.25983
838 1 23.4873 -20.3019 2.08747 -1.03753 0.963048 -2.21314
3938 1 18.7692 8.80927 14.662 -0.964855 3.71468 -4.89009
2286 1 7.05743 -9.55313 4.6873 1.28113 -0.463407 -2.83232
2290 1 13.7393 -9.03314 21.0105 -5.71142 3.45189 -0.662462
2293 1 2.01294 4.15811 12.2077 -0.158801 1.40496 2.25196
2301 1 5.16567 -23.4705 21.1574 2.56628 -2.57824 -3.25541
2677 1 1.06424 -21.5961 2.74318 -3.23694 0.0690545 2.90613
2310 1 7.55164 -19.5344 9.23494 1.89496 2.76291 2.32934
2311 1 6.87564 0.453529 1.50809 3.54939 -2.09739 -1.44476
2319 1 7.23153 -8.86895 9.48814 -0.0139856 -3.61246 0.269448
2329 1 7.03997 6.20973 11.6483 -0.221439 1.14775 -1.8422
2330 1 14.06 -22.4907 14.9266 3.44337 4.58028 3.57507
2332 1 20.8999 -14.4988 11.5027 2.72049 -0.338272 -1.07369
3878 1 10.2981 -21.9218 6.88599 -2.64529 3.35809 -0.203839
2340 1 9.28251 7.65297 14.1338 1.38309 1.84757 -1.54792
969 1 16.7341 -21.5467 0.3059 -0.357143 -4.60121 -0.505334
2348 1 8.83047 -1.84488 5.26143 -4.1718 -4.66069 -0.206757
2353 1 13.2883 -2.62467 7.67373 -2.95145 2.33814 -2.11275
2359 1 8.98407 9.92709 9.26191 0.740815 2.05508 0.393324
1186 1 7.30938 -8.30538 0.651579 2.35586 -0.174311 -0.416535
3776 1 8.86494 -4.59075 17.7385 0.51251 -0.501191 5.85334
2369 1 21.0573 4.3483 13.5868 1.93139 0.262866 -2.25868
2378 1 7.80731 -2.27208 16.5205 0.700752 -1.84712 -1.65039
1577 1 14.0067 -23.8764 3.68663 -0.14686 -0.139995 1.42394
201 1 8.67832 2.38758 22.3242 -4.59766 -1.55283 0.555051
3624 1 23.193 -8.02914 4.39601 1.41275 0.00391315 -0.332805
2386 1 2.01734 -2.76274 3.23233 3.14389 -0.109113 -0.132458
2389 1 8.79758 -12.2517 11.0643 -4.18308 4.60286 4.13065
2393 1 4.80244 -15.8343 19.9222 -3.9225 1.24556 0.898715
2400 1 12.0251 -3.30462 15.2984 -1.58603 1.22604 3.12287
3909 1 3.5995 -9.52512 18.9594 -1.23414 -3.14451 1.68303
2427 1 14.2526 3.70332 3.53119 0.26203 4.23347 -1.38624
2428 1 13.3701 -15.8218 14.545 -2.78968 -0.773933 -2.55631
2433 1 22.6981 -19.9533 21.4392 -3.64065 3.14678 -2.29153
250 1 2.60479 -1.97634 6.18113 3.43364 0.46336 2.98725
2449 1 19.1669 -23.2697 13.5471 0.151659 -0.390643 -0.494425
3701 1 18.8294 -1.96523 10.0975 1.04463 1.24301 0.162307
2451 1 9.40902 -22.8585 4.01373 0.0738817 -1.93094 -1.1849
2455 1 15.7553 8.27924 14.625 -7.01888 1.99496 -4.14127
2467 1 2.24924 -17.7399 12.4387 -1.83661 -2.63583 0.321045
2497 1 5.12245 6.44007 18.6315 -2.97643 -3.60465 -1.88972
2511 1 4.79612 2.61039 18.6893 2.84977 -3.00545 -4.07073
2513 1 21.524 8.34571 6.05557 0.208739 2.03951 -1.71044
3832 1 20.9374 -3.14406 3.87583 3.05544 -1.91306 4.65171
2515 1 1.95918 -19.0095 2.27503 0.501664 -2.2527 1.61693
2521 1 12.2398 8.42781 14.2962 -5.59592 -1.45791 -3.70743
2527 1 6.3961 2.66128 8.78879 1.20945 2.57857 1.94925
2535 1 15.4708 -5.46637 16.485 -4.23038 1.5711 -2.60815
2539 1 15.5098 -11.6086 16.3314 0.00848966 1.68583 3.36695
2540 1 22.072 -8.78079 15.8282 -3.67997 -0.320979 2.54976
2541 1 5.81594 6.40464 14.2722 7.09714 1.5496 -1.14646
2544 1 12.3527 2.70251 6.00897 -2.80884 4.53619 4.85315
2560 1 21.0618 -22.9751 8.67977 -1.14047 -6.33447 -2.95182
1613 1 2.34107 -16.1142 3.36107 2.05693 0.37867 1.28511
2571 1 15.2102 -1.10006 22.5037 -3.19685 2.23257 2.55551
2585 1 16.4992 -14.4701 21.9548 0.910489 -0.549735 2.76735
2587 1 16.8891 -22.161 6.9019 -3.15343 -2.73821 1.91266
2594 1 21.3508 -6.46555 14.4446 1.49379 -0.925334 -1.1629
2621 1 5.22403 -22.88 6.31434 -1.95227 -1.28913 -3.3159
3209 1 10.8001 -15.8927 22.4627 -3.24808 -3.07158 1.74719
3899 1 5.78971 9.56904 14.5944 3.67426 1.58545 1.00461
2645 1 6.76941 -22.4554 14.8496 -0.0288148 3.5919 -2.62573
2648 1 13.6839 -0.139969 3.7225 1.02972 -0.813747 1.56526
2661 1 6.60713 8.16377 20.3928 -1.06186 6.90315 -0.753871
2666 1 20.7522 -20.1995 1.14312 4.9787 3.10272 -1.74992
2669 1 1.94217 -8.3303 16.86 1.8531 5.15279 -9.57739
2672 1 7.01707 -4.00079 12.2477 -1.16369 -3.02922 5.37916
3969 1 17.6306 -19.8065 21.3958 1.68084 -0.219078 -5.13471
658 1 20.9363 10.4796 13.7459 -2.11277 -1.80658 1.56155
2695 1 14.1472 6.91799 12.5052 2.89265 -8.45282 4.94538
3156 1 23.4603 -3.73164 8.21599 1.44492 1.8607 -2.74531
2698 1 13.9216 -14.7266 20.529 1.19726 -2.69224 -5.6221
2704 1 2.53854 -23.7361 1.84042 1.29786 4.31158 -1.61945
2797 1 13.3415 -10.8436 23.0093 -1.45285 -1.6479 -0.038103
2709 1 17.145 -1.56986 17.67 -7.99258 0.253635 -5.93247
2719 1 18.9935 -10.9114 3.43342 -0.0460405 -3.18443 -4.31661
2721 1 3.86439 -13.4329 9.53318 -2.53845 4.87735 -2.37156
2728 1 22.7786 -3.8673 11.1819 1.01259 -4.86738 0.494533
591 1 22.5048 -20.353 12.7859 0.966567 3.43822 -4.96703
2734 1 18.1351 -9.79289 20.8055 -1.66125 -2.02101 0.33562
2615 1 0.87118 0.330513 16.6708 3.64193 1.14331 -1.56793
2755 1 4.23987 -14.5926 15.4203 4.53155 2.23131 -0.465869
2757 1 18.0387 -18.5937 18.8988 -5.33671 2.02018 4.22962
2766 1 11.6291 7.73083 18.0763 -1.13561 1.0526 -3.04521
3096 1 4.99056 8.08595 22.8957 -1.38416 1.15842 -3.2288
2782 1 8.85209 -9.22222 14.0949 -1.25553 -3.98486 -0.464629
2786 1 6.2504 -4.51331 2.62479 0.209508 0.0493012 2.90278
2796 1 18.2448 -15.4154 11.6549 0.560702 0.166504 3.18151
3898 1 20.029 -1.2616 16.6702 2.7227 1.46535 -3.07316
2816 1 5.98454 -13.2626 19.1655 2.64684 -3.02038 0.379258
3697 1 7.66751 3.31201 2.62131 1.36808 -2.08065 8.53601
3953 1 21.3769 -18.8358 14.6168 1.0673 1.31829 0.00339394
2823 1 13.0165 -14.037 5.85543 -3.0937 0.762116 4.4066
3745 1 5.17684 -10.859 9.70624 -0.855873 -3.16968 3.53256
2829 1 18.5688 -21.5921 9.0509 -3.27118 -0.84241 -4.41582
2838 1 18.1936 -12.3977 22.7767 -2.97278 1.69066 -0.957123
2857 1 15.9271 8.90153 9.1095 2.75579 1.93243 3.16247
2415 1 23.6431 -24.2163 23.2972 1.95779 0.0718417 -1.53413
1677 1 21.8073 -20.2985 9.94147 -1.81071 3.34932 4.74069
396 1 10.4799 -20.8029 2.3225 -2.55013 -1.34367 0.764875
2872 1 6.61578 8.42017 7.76802 2.31479 1.98585 3.45204
2877 1 12.2916 -6.634 4.24602 -3.70965 -1.68529 1.68379
3866 1 12.3859 -16.937 6.64441 -0.894571 1.58175 -2.39067
3075 1 19.7241 9.25962 22.5387 1.84689 -0.520629 -0.383143
2889 1 5.82028 -3.73391 7.32235 -3.56362 -2.1791 -1.91801
2891 1 5.90436 -5.14232 17.3452 3.60778 2.91771 -0.43662
2906 1 12.9192 5.84362 19.9914 5.16876 1.12214 0.249919
403 1 17.855 -0.162205 23.2544 -6.16837 -2.47708 -4.35748
3176 1 23.4956 0.373525 15.3794 3.03665 -0.758216 -6.03481
2925 1 20.2069 -7.83368 12.4057 -1.07821 -2.40589 0.245853
3784 1 10.9902 0.320215 2.55073 -3.60786 -1.27339 -4.85527
2929 1 6.8816 -12.8639 8.0172 -0.950008 -0.813389 1.93419
3314 1 0.322686 -3.01267 9.33543 2.01269 -2.47962 3.28593
1182 1 15.3653 5.92888 1.55704 -2.96549 2.45937 1.18822
536 1 2.17028 -7.66239 1.26596 -1.64845 -5.76147 -2.40054
2914 1 1.35358 -0.142486 11.8713 1.19995 -3.60931 -2.32052
2946 1 14.6687 -1.80863 10.984 0.387817 1.55451 1.9086
3708 1 4.21288 0.709262 5.46802 -0.12484 0.696461 -3.47374
3008 1 -0.295048 -20.6123 23.5954 -3.84976 -5.17771 -0.43281
2955 1 11.7475 -7.74778 15.7798 3.34323 9.16599 -2.4102
2957 1 2.95884 -18.9775 15.6645 -0.663255 -0.500744 -0.61861
3773 1 1.40566 -3.71887 15.453 1.24619 0.413245 1.6895
1811 1 0.536922 2.58687 20.5236 -2.98771 1.03133 -0.772228
2979 1 7.48906 7.16262 16.6156 2.07098 -4.89055 4.43275
2990 1 13.4961 -17.0497 18.8642 -0.143677 -0.570804 0.77136
2991 1 3.55027 1.687 11.9198 -1.58551 0.764871 -1.54308
2994 1 19.3411 2.18562 13.5624 4.95904 2.51669 -1.26646
2996 1 10.9249 4.98734 4.04056 0.46596 -1.80469 -2.03498
2998 1 1.93281 -15.2198 13.6207 1.58336 -2.46128 -0.096359
3013 1 13.8238 -19.68 23.0652 -1.15276 -1.94563 1.93922
3022 1 15.4559 -11.8016 0.908482 -3.77851 -1.62354 -1.37219
3024 1 22.6302 4.77058 1.5039 2.27559 -2.36812 4.37242
3025 1 3.87955 -22.7537 10.1436 1.6217 4.13977 0.906906
2043 1 17.8613 8.48141 7.00761 4.34464 -0.546647 2.45384
3027 1 12.6012 3.54765 10.3316 -8.01801 1.54508 -0.140415
3029 1 7.14181 2.41039 14.4076 0.293361 -1.80401 -3.9834
1403 1 16.0248 -22.503 17.1115 3.00794 0.213216 2.29701
3040 1 7.92235 -20.3369 12.8211 -1.64539 1.27204 0.465777
3048 1 6.44448 -11.1678 21.1337 -2.3866 -2.95279 2.43461
3050 1 3.37944 -23.6226 19.0439 2.04797 -1.15114 -0.563134
1485 1 9.21567 -10.8519 21.9063 3.36437 3.75484 0.100599
3055 1 17.7959 1.80555 5.72864 -0.347112 1.83714 2.24801
3057 1 18.9525 4.98706 18.3108 -2.19013 -5.33921 0.457279
3058 1 11.1 -4.83297 12.2296 1.56615 5.50998 -5.49963
2827 1 4.23169 -9.22119 21.9765 -3.27444 2.162 -3.33549
3764 1 17.3591 -10.4051 18.0542 -3.96179 -4.61349 0.724823
3072 1 1.96961 8.79525 20.707 4.36436 4.94948 -2.59596
3088 1 11.6387 5.87754 15.785 0.117996 0.278006 -3.32181
3089 1 13.0852 -18.3535 13.358 -0.620519 -0.255105 -2.37543
3094 1 14.9157 6.6396 17.971 1.05684 -1.66338 4.42086
3102 1 2.46845 3.49695 22.7813 -0.272823 4.1648 5.58205
2607 1 13.1777 2.60308 22.1056 -0.240791 -1.30919 1.78412
3109 1 2.86169 0.0344313 2.91181 4.40293 -2.99729 -2.71503
3110 1 5.82467 9.53904 2.60078 -0.665985 4.82027 -3.60689
3118 1 2.36015 3.29455 7.52407 2.46435 -3.37948 -2.99351
3127 1 15.3698 8.8265 1.99028 0.784899 2.06451 -0.0753834
134 1 18.3396 -6.68691 22.3475 -2.49826 0.428076 -0.445469
3026 1 0.490345 -22.2492 5.4045 -2.84796 0.297734 -3.09168
3145 1 19.2352 -18.8301 9.46163 -0.344279 -1.06983 1.10522
3148 1 8.2758 -6.01271 4.12895 -4.65805 2.34776 -0.464246
894 1 3.34111 11.1667 20.0957 2.40814 -0.230451 -1.63925
3157 1 9.16421 2.8643 4.79111 1.67262 -2.20778 1.21272
3722 1 20.8808 -7.79248 5.75375 -1.09127 -0.226637 -1.74564
3166 1 17.6323 -8.65214 13.9614 0.0741707 0.336813 1.11519
3705 1 5.00129 -2.76284 4.55838 -2.75137 0.412031 -0.598886
3422 1 6.9111 -15.0531 0.325331 -2.2949 3.32708 2.44323
3184 1 14.9014 -2.9521 3.54611 1.39092 0.47972 0.962743
3504 1 17.0752 -3.09675 1.56848 1.90028 0.630119 -3.04934
3858 1 14.3612 6.99979 4.11035 0.296396 0.410808 6.00475
2447 1 3.28546 -12.6324 18.4668 2.74509 -4.40237 -0.0649512
465 1 0.402126 -12.9579 1.96789 4.99049 2.24768 -2.31072
3208 1 4.79794 -9.00843 1.61798 4.94427 -3.2901 -3.26945
3743 1 6.07737 -14.7658 13.3214 1.10959 -1.364 -4.16649
3215 1 13.518 1.85464 12.5887 1.34748 -0.199227 1.76933
1125 1 22.8621 7.08429 3.55905 -1.06224 -4.24706 1.87751
3217 1 10.5395 3.81669 8.13359 -2.02602 2.00703 -4.61395
3825 1 21.2393 -14.0902 8.69987 1.71015 -2.52508 -2.52718
3246 1 17.2091 4.6327 6.09779 3.21128 -0.00935665 2.26406
3942 1 11.5852 -21.8286 16.2256 -3.06718 1.19357 1.16919
3249 1 10.3684 -1.06286 13.8299 -0.788803 0.208087 1.1418
3843 1 0.0637758 -18.3407 15.9645 -0.865415 3.41383 0.876209
3262 1 9.66413 6.81874 11.027 0.668009 -1.4718 0.295775
2445 1 2.89332 0.843994 19.7003 0.500583 2.00378 1.10172
505 1 -0.153717 9.14691 22.4243 3.89929 1.26793 3.27604
3266 1 10.0646 -0.635361 20.2267 -6.07953 -1.31924 5.14643
3268 1 9.13757 -22.7437 11.5691 -0.484392 0.0130438 -0.813317
3270 1 20.43 -15.8722 16.0423 2.23273 -0.737156 -1.11198
2504 1 10.4988 9.70696 11.516 -4.67131 5.04759 5.96828
3274 1 12.8118 -21.3905 5.06803 -0.389589 -4.28535 -3.34708
1176 1 0.513442 -11.8455 15.4456 2.83616 3.20073 -4.59098
3276 1 10.1894 3.95949 12.147 0.464714 5.03024 -0.238476
3279 1 7.84676 -0.182479 13.1195 -0.921623 0.00113728 1.39264
3915 1 7.64078 -1.33823 7.7764 1.29538 -6.2988 -1.80073
3309 1 2.24793 -2.71033 12.7697 -0.20067 -0.553621 -0.612552
2975 1 17.5939 9.59081 0.495804 0.0197417 4.71145 -0.371383
3821 1 13.4155 -9.91766 15.6952 -2.93929 1.09889 3.69884
3317 1 2.83611 0.558705 7.97146 -1.92039 -1.45495 -2.84083
3814 1 1.86468 9.01449 9.3875 -1.2677 -8.68947 1.92257
3336 1 13.7041 -15.8136 1.47255 -5.21812 0.84934 -2.32519
2589 1 2.26705 -6.345 8.06816 -2.85992 -0.305351 1.77137
3344 1 19.9948 -20.139 17.8845 -0.382898 -0.932094 4.154
3905 1 5.11607 -11.7742 2.29783 -1.51338 -4.57547 0.379269
3357 1 6.02093 -7.23667 21.5243 -5.74856 -4.36342 -5.18391
3853 1 20.529 -13.5482 3.72401 1.51621 0.878165 2.54953
100 1 23.1301 -13.6801 23.9572 1.54853 1.67596 6.19413
3373 1 11.1348 -4.23721 19.3469 2.61992 2.75462 -0.617843
3919 1 9.94923 -14.0732 18.8067 -0.308752 3.51314 1.16535
3377 1 6.24817 -12.2291 11.9918 -1.82616 2.68874 -0.20455
3379 1 10.7339 -5.11221 8.33872 0.992205 4.0157 -1.5906
3995 1 5.03669 -23.1221 2.68314 2.03672 -4.06487 5.08894
3395 1 16.5285 -12.7798 11.9622 -0.617149 -1.13937 -1.48621
3399 1 1.17312 -3.50473 0.708483 2.19977 4.03343 -3.14782
3405 1 17.0566 6.59234 12.4595 -2.4315 1.8397 1.92729
3406 1 5.69693 -7.21617 3.94498 1.61629 -1.09282 2.56387
3704 1 20.5778 -2.38111 12.2132 3.06904 -1.40616 0.600778
3429 1 3.24745 -21.1655 17.7271 1.31267 4.5857 2.64156
3439 1 1.83916 -13.3804 11.4665 -5.79691 2.16378 3.19693
1627 1 16.0468 -7.68273 20.6382 -0.359667 4.04046 -1.38931
3465 1 3.53289 -6.37485 13.2015 -1.24045 4.84718 3.52729
3474 1 20.9354 -4.1043 16.4862 1.36922 -1.5235 4.04861
3478 1 11.3904 -12.8712 3.66478 1.72061 0.0375089 0.473576
3479 1 18.4777 -5.68697 9.69655 -1.14131 -4.85972 -2.29775
3492 1 19.5127 -0.6609 4.14156 0.0174891 1.50939 -1.30435
3763 1 10.182 8.68576 6.06866 -5.01847 0.600241 3.83692
3503 1 18.7442 -22.0785 2.03736 0.380955 -5.4003 -1.53941
3505 1 4.73941 -14.5464 1.95631 -1.95845 5.88049 2.8623
3515 1 16.2352 -16.4248 7.77583 5.56467 -0.264635 0.88554
3531 1 4.41954 4.51524 20.8323 -0.776663 -0.957818 1.67317
3834 1 6.19602 6.07695 6.12523 0.748137 -3.10348 -0.161791
3534 1 6.30138 -8.80813 19.1352 1.38216 -5.65508 -1.82621
3739 1 2.02273 -6.68121 5.02344 3.14218 0.919032 -3.78919
3538 1 3.91299 -4.83272 19.461 3.60772 0.0421687 1.48097
3542 1 17.8319 -1.05371 6.55233 1.1878 4.52199 0.762928
3559 1 9.12513 -3.80153 14.1441 -4.18699 -2.12875 -1.35393
3237 1 1.16097 -16.6385 22.4608 -3.41427 3.53895 -2.19881
3567 1 5.96007 -12.1965 5.29538 1.40864 -2.73374 1.28497
3568 1 15.9939 -0.712869 15.0971 -2.30593 -1.25059 -1.80535
3576 1 18.081 2.98815 15.9944 2.39998 -6.73893 1.74411
3578 1 21.5103 10.0547 20.4055 -5.05297 -3.51678 -1.88415
3981 1 11.9705 -9.05991 5.67179 3.49118 -4.02442 3.69315
850 1 17.9595 -21.2284 24.0232 -5.07051 2.21753 1.43919
3585 1 12.1287 -0.434236 11.6535 -2.04577 2.74047 -0.882861
3594 1 10.7738 0.192926 5.46396 0.821385 0.175206 -2.92909
3609 1 9.26028 -11.3509 7.24629 0.708526 -1.51231 -0.0745442
3622 1 8.72864 -14.7943 9.65567 5.73113 0.273222 -0.0203649
3623 1 9.74858 0.0264119 16.4002 1.86819 -1.03858 -4.08203
3730 1 15.1234 -5.35177 13.122 -2.18628 0.744264 0.752933
3625 1 11.7606 -19.48 18.0433 5.46828 -1.71344 -1.74334
3628 1 10.8108 -0.817825 8.35716 -2.03783 2.5318 -3.3153
3811 1 12.2322 -13.2789 22.4328 0.87958 -1.47652 1.30077
3638 1 21.378 -5.72496 19.7867 -0.677697 -3.42576 -0.509884
3639 1 8.75908 -18.2549 6.97967 -2.88368 4.32921 3.40561
935 1 23.3076 -9.57204 0.161357 -0.635717 -4.72283 -3.16711
3647 1 18.6467 -21.6801 4.87286 2.04334 -0.470336 -0.893353
3652 1 22.6527 -11.9166 13.904 -1.75914 3.59799 -4.98137
3660 1 12.714 10.7368 10.2133 -1.37108 6.01512 0.271039
3762 1 9.85894 -9.94075 9.91843 -2.0194 -3.37847 6.21829
2114 1 1.13448 -23.4733 20.8174 -2.07486 1.33263 0.558464
82 1 6.89157 -24.4383 4.26076 2.3307 -3.9451 -4.02032
2372 1 23.3934 2.56419 0.213504 0.227528 -0.886276 2.94059
1672 1 4.49219 10.8527 22.7202 -5.27344 -1.4036 0.81544
531 1 22.7598 -9.45859 12.7592 2.50189 1.64608 2.68592
1651 1 13.8073 -18.503 0.0454458 -2.90798 -0.122175 0.993362
1924 1 22.8571 -15.9889 0.173052 8.4155 -0.675053 -2.99302
2953 1 15.9976 2.47737 0.594081 -0.0299769 1.50542 1.76786
2967 1 -0.303888 10.4208 7.99791 0.362063 -0.759793 -1.12963
96 1 23.1791 -15.8971 22.366 -5.20462 -1.18414 -2.35772
460 1 7.92533 9.37468 23.8664 -4.31245 -0.517977 -0.849329
1306 1 6.80471 -22.3598 0.618787 -0.0497192 -2.86992 1.1667
482 1 23.4231 -1.79896 21.1781 0.601592 -4.69934 3.56105
1407 1 23.0163 7.85621 0.647683 -0.730835 0.581217 -0.860668
2373 1 15.8416 11.0694 17.71 2.89767 2.96123 -0.0210392
2852 1 3.22604 -5.16876 0.076663 2.05191 -1.96409 -4.16341
595 1 7.19324 -17.8481 23.6973 0.53098 -0.399013 -4.28154
2469 1 12.1551 -23.3989 23.634 -2.98477 -3.10139 4.6906
2884 1 7.76577 -7.41359 23.8196 -5.1977 1.95813 -1.64037
3680 1 11.8286 5.67096 23.4842 2.15339 1.48598 -1.51997
387 1 3.20978 -20.7146 0.0748168 -1.36242 -0.704571 -1.57972
2947 1 15.9884 -11.2013 24.1512 3.72627 -0.874479 6.98427
3813 1 13.5189 3.71779 -0.185039 3.86036 -0.472949 -2.78451
24 1 9.40427 21.0941 -3.94622 -1.22809 3.06269 4.49809
85 1 5.36763 13.9849 -2.55585 -0.74685 0.960805 -0.867515
1738 1 2.74345 11.9188 -22.8986 0.45432 -0.00621225 3.60436
91 1 18.7976 19.4654 -22.5231 -2.99075 -0.327673 -2.30537
105 1 4.08643 20.1236 -21.4679 5.77115 3.46679 1.9045
117 1 20.138 17.0785 -21.6193 1.18915 -2.84713 1.46579
166 1 6.82122 19.5245 -20.4984 0.33319 -3.34005 0.964756
4151 1 -0.218297 32.0248 -9.26703 -2.10033 -3.17903 -2.94932
169 1 3.63761 24.6676 -13.2013 1.17659 -1.1405 1.25984
183 1 20.0015 15.5377 -2.72385 1.59116 1.7917 1.38142
186 1 13.3196 23.594 -13.7732 0.373413 1.69352 1.00603
3684 1 12.445 16.2876 -22.4465 4.87421 -2.92025 -2.74947
3835 1 20.2947 46.9172 -4.7372 -0.429237 4.42194 1.13096
252 1 18.2285 16.3702 -12.0005 2.57586 0.156946 -1.44955
271 1 1.69194 23.4048 -14.6106 -5.15579 0.246158 -4.57005
275 1 11.679 23.88 -20.605 1.41297 -2.67368 -2.11619
3345 1 12.7724 23.1509 -22.9637 1.2075 -1.98531 3.06821
306 1 10.3982 20.2329 -13.3635 -0.219381 -2.33378 -3.12706
4343 1 10.7273 44.9839 -10.5269 -0.585921 1.37499 -2.75506
336 1 18.246 15.0926 -23.1032 3.96568 4.76841 -3.97045
354 1 9.23416 20.1534 -6.85149 -2.41326 -0.645706 3.55362
367 1 6.10011 18.4053 -17.6575 2.85933 2.27526 -2.11263
380 1 13.8162 14.9318 -20.3643 5.22785 -4.95627 3.84491
382 1 15.8392 17.8814 -3.41724 0.33512 -2.32446 2.23211
414 1 4.02936 20.065 -16.8661 -0.70643 -0.816153 -2.24911
428 1 9.21525 13.6396 -5.82666 -4.68065 -2.49967 0.10404
437 1 16.5822 17.6293 -9.78034 -3.30961 1.16605 0.976641
2935 1 8.52627 22.0101 -1.11352 2.75273 -4.0424 1.63798
3347 1 23.0462 11.8015 -12.791 3.53033 3.64149 -4.07446
1506 1 16.0599 13.571 -1.82315 -2.06822 3.31881 -0.587632
1318 1 22.5596 23.1939 -1.10008 -1.32155 1.55907 2.61543
507 1 12.3594 20.0075 -15.4971 -4.48267 3.2161 2.4087
509 1 19.5983 15.545 -17.036 -1.63727 -1.86025 0.457047
554 1 2.85913 16.2783 -18.5876 -2.36531 4.38676 0.800219
3689 1 22.0391 19.2244 -17.75 -3.34983 -1.6734 -2.80106
586 1 15.8595 23.5972 -19.6483 -0.33005 -0.230934 1.35727
635 1 10.9961 15.4894 -2.31224 -5.56125 -0.606732 0.519644
638 1 13.2058 18.1636 -5.30851 3.62021 1.74487 1.15795
1059 1 4.71182 44.7287 -14.9498 1.40143 -3.04661 -6.66791
680 1 6.91158 25.4203 -13.0405 -2.33275 -0.925983 4.48594
3765 1 22.815 45.8197 -3.84087 5.85059 1.18925 3.8562
703 1 3.98976 26.9948 -22.2163 1.57515 1.68418 2.97478
705 1 5.61181 22.3405 -15.5961 0.130293 -1.65949 3.69042
736 1 4.95865 20.4251 -7.40281 -0.102567 1.6073 -0.493213
784 1 12.4092 17.8843 -2.36569 4.76345 0.0670889 -2.53941
787 1 7.19731 14.7633 -14.2712 0.584161 2.53909 -0.068541
468 1 21.3042 16.8805 -8.08898 7.00951 -1.62185 1.01841
2269 1 20.3194 13.4237 -21.6222 0.978385 -3.09649 -1.53887
1845 1 20.7991 21.2516 -23.7294 -1.52898 -2.93702 -0.0178652
862 1 0.581827 15.2648 -8.43372 -3.42851 5.23223 -1.57019
2392 1 10.9776 45.9841 -15.448 -0.813123 -2.08153 2.44069
3563 1 2.11848 46.8419 -6.86925 0.66886 -2.1513 -1.38855
883 1 16.1546 20.7755 -7.22494 -0.419779 -1.39086 4.63646
3849 1 22.3983 15.361 -21.3062 0.0127429 -4.15621 2.28201
3427 1 22.5878 11.4109 -17.5151 -1.74846 -0.926723 1.75119
2865 1 1.10011 12.7478 -0.896303 9.08517 2.47855 3.00569
3947 1 23.2695 12.6015 -21.5881 -3.20455 3.45404 3.0511
979 1 3.9834 25.9918 -19.6832 4.44608 0.845803 -2.18053
1000 1 16.3212 20.3215 -11.6689 1.81234 4.02702 -1.46559
1507 1 22.2404 19.6558 -7.53209 4.17643 -3.67555 0.696889
1035 1 13.8479 20.9943 -5.66186 0.444724 -3.30372 1.73212
1039 1 19.0989 22.8146 -9.45393 -0.885601 -5.67469 2.041
1046 1 14.9301 14.5495 -17.0028 0.190954 2.72371 1.76949
1065 1 14.5365 19.6789 -19.6789 -1.42149 -5.61948 -3.84854
2352 1 0.881841 23.8412 -23.7197 0.587112 3.41228 -5.46611
1096 1 8.70617 18.3637 -11.8708 0.14373 -1.2799 1.74955
1127 1 11.3386 22.1392 -6.76743 -1.70042 4.57102 6.1668
1165 1 16.2666 23.739 -2.86387 0.2137 -1.02133 -4.47895
1181 1 7.27622 22.0867 -6.90308 4.36901 -4.9864 1.60656
1194 1 5.82097 17.7808 -6.84485 1.14117 -2.27488 0.124399
1196 1 3.23802 18.2511 -13.6831 2.98186 -1.87249 6.00837
3142 1 1.79881 27.5953 -23.6944 -1.08246 -1.22946 -2.19549
1849 1 13.625 45.7248 -10.6547 1.80058 2.83496 1.46603
1243 1 6.88308 19.1042 -23.43 4.25929 2.23882 -3.42954
1249 1 7.96202 16.791 -21.0781 -1.39361 1.08817 -0.202619
1253 1 12.4828 24.4903 -2.97549 5.47965 -3.45664 -2.09862
1274 1 21.5715 20.993 -20.901 1.68015 0.1066 3.7818
1301 1 8.14819 16.1042 -10.3695 -4.64224 1.82696 2.16786
3604 1 11.1591 11.6121 -22.2052 0.569194 -0.398316 0.238038
1336 1 1.40457 21.39 -4.55184 -7.90938 3.51193 -0.303018
1820 1 15.0617 13.967 -6.15142 -3.45627 0.654269 -2.99541
1776 1 9.04798 15.1425 -0.111836 0.00642234 2.19301 -0.568824
1380 1 14.4553 19.3136 -13.5851 5.55581 2.48518 1.75301
1384 1 1.28747 21.0977 -10.325 -2.45757 -2.69444 0.861592
1397 1 3.66957 22.3128 -11.558 -1.69782 0.641029 -1.36308
1398 1 4.26216 20.6726 -4.63365 -4.04039 -3.82828 -1.17566
539 1 18.3149 13.5928 -8.91626 -1.36085 -4.4595 -4.04084
1419 1 7.9576 23.7137 -4.69785 0.788251 2.6071 1.44074
1423 1 4.55643 23.3407 -20.4164 -1.1066 -3.27583 1.94158
3809 1 4.66765 46.1138 -18.9769 -2.94068 1.73593 3.8525
1435 1 17.5731 24.7285 -8.11103 0.603575 4.01106 -3.75192
1437 1 3.85206 17.2837 -22.3287 -0.666237 3.22951 1.50592
3882 1 19.3567 18.3049 -1.37518 -4.63741 0.557486 6.33309
1451 1 7.53581 21.5633 -9.80527 0.357993 1.40069 3.43605
3140 1 1.52402 15.8887 -21.0824 3.38538 1.19532 2.62137
466 1 16.9064 12.13 -23.1256 -6.1527 -3.64757 0.7725
920 1 1.56014 14.6076 -23.5373 2.82217 -2.23499 2.55171
1501 1 8.47166 18.6643 -16.2424 -2.46695 0.709564 0.697992
1503 1 8.15498 25.4738 -23.2025 5.88233 3.15441 -3.65354
1348 1 3.05114 12.3249 -17.307 1.28836 4.04936 2.16565
1509 1 10.1842 19.8967 -9.77446 2.34128 0.406513 0.445826
1561 1 18.1963 20.2823 -9.07115 -2.86761 0.58374 -1.07049
1564 1 7.39215 15.5238 -7.6513 3.41435 -0.940549 -1.06145
1568 1 19.1633 19.1105 -12.3683 -4.51524 -0.393242 2.52916
1576 1 12.0467 21.3843 -19.324 0.252884 -0.108986 0.895888
299 1 6.93043 46.5951 -12.0013 0.611422 -3.1365 -5.89132
1593 1 1.2963 25.3819 -19.4584 7.18215 -1.28658 2.18272
1595 1 8.40541 14.0617 -2.90914 -3.53936 1.04959 0.743022
1601 1 5.53105 15.4944 -17.8981 -2.36669 2.88407 -5.677
1624 1 3.55197 23.1631 -23.0346 0.704731 0.0186118 -3.68796
1625 1 12.4682 13.3928 -10.1376 -0.81962 -3.95685 -0.348186
1482 1 5.43814 25.0686 -23.6752 -0.500683 -2.09642 -3.10408
2411 1 8.93834 12.1429 -19.2345 2.74148 -7.21155 3.11454
4350 1 6.80564 44.981 -0.921913 -0.0197264 -0.247369 8.43758
1678 1 2.52579 21.31 -19.1605 -1.60519 2.1732 0.595564
1683 1 12.8003 24.8169 -16.4047 2.08547 0.019969 -2.75596
1701 1 10.7011 24.4715 -5.13495 -1.65442 1.86243 -0.766028
1709 1 18.5376 19.7733 -3.53809 -1.12034 1.27843 1.80404
1712 1 14.7803 12.2818 -21.2967 -1.85298 -0.476807 2.0761
3902 1 9.8937 13.051 -8.59548 -6.25769 -0.25814 0.0112083
1744 1 14.7297 24.4985 -11.3164 -3.21976 -0.743939 -3.10774
1745 1 5.19104 13.8855 -7.6997 -2.36895 -3.86817 1.98902
1746 1 15.4127 21.6352 -14.8527 -0.791467 0.766223 -1.58803
1752 1 22.5805 18.295 -22.2827 1.3638 -0.745234 1.2586
1775 1 7.3135 13.7858 -11.5646 4.5855 4.18736 2.18159
2491 1 12.9306 45.5013 -3.70714 1.93206 -1.78659 4.49893
2081 1 23.4687 18.4232 -15.2947 -4.31195 4.36598 5.00775
1787 1 3.3779 21.1933 -14.1425 -1.11924 -1.72063 0.743901
87 1 2.3141 17.949 -7.59102 6.67506 1.84996 1.33009
3818 1 11.5207 20.4496 -23.4168 3.76863 1.60399 0.610117
722 1 9.3796 45.3124 -13.1172 0.830479 -3.92385 -2.1396
2473 1 10.8206 11.8497 -3.92742 4.1012 -1.76679 1.43555
1647 1 15.9221 12.2155 -18.5878 0.300942 -3.81141 -0.742774
839 1 22.7467 17.6512 -11.6253 1.99252 -1.57403 1.27984
1809 1 10.6027 20.1922 -0.147503 0.570281 -2.9997 -0.00155712
1921 1 15.813 16.6296 -6.14241 -6.62075 -1.3747 -1.15502
1943 1 1.42662 16.4856 -4.11277 -2.23499 3.11527 -2.63113
1950 1 19.9348 22.3696 -5.57115 -0.983875 0.340476 1.36263
1964 1 18.6586 24.914 -17.2924 -5.40436 -4.63241 0.00369632
1981 1 14.3087 23.7981 -5.12075 5.36607 4.2802 0.00703516
1993 1 0.963155 13.1401 -13.1643 3.22148 2.16268 -0.68267
2027 1 5.92612 19.3569 -12.8152 0.538446 0.221186 -2.67561
3272 1 1.32117 13.4567 -6.27786 3.1717 -1.03719 2.03599
2048 1 1.56505 14.6828 -16.7277 -2.60348 3.00707 0.912613
2049 1 16.2324 21.3275 -18.1887 2.269 -3.78865 1.9845
2089 1 8.21846 14.8672 -18.9022 5.08057 0.171651 2.67605
3073 1 2.15908 22.5025 -1.86921 -1.96009 -0.933435 4.83057
2138 1 13.4914 22.033 -17.029 2.15782 0.114251 -0.837765
2152 1 6.78533 24.8411 -7.83686 3.2516 -2.59046 -2.61266
2165 1 17.3555 17.1187 -15.7492 1.81536 -3.67044 -0.91903
229 1 12.2634 11.995 -12.5606 1.08955 -3.28142 0.493272
2184 1 14.4103 17.0762 -18.49 6.51301 0.540263 -1.12816
2189 1 3.43567 17.7972 -10.0654 -5.28994 3.44465 4.06523
2198 1 3.99157 13.5992 -5.09291 -1.67154 -2.10677 3.65609
2208 1 16.9839 23.289 -5.72394 0.74954 -3.24126 0.87726
2356 1 15.1007 46.4412 -12.976 -0.0334032 -1.56245 -5.07394
188 1 8.88152 46.2822 -2.38269 0.539943 -0.43363 2.83297
2351 1 16.2837 12.4327 -11.632 -0.754718 -0.427699 -0.823749
2238 1 11.9354 13.0059 -15.2573 2.32402 4.56181 0.914792
2243 1 10.1778 22.607 -10.2708 -0.192627 5.436 -1.21261
2808 1 4.82832 44.4904 -12.1965 0.112121 -3.7808 0.564684
2246 1 1.57982 18.6743 -17.6999 -2.43026 0.559416 -5.10994
2256 1 15.9223 19.9917 -22.1431 -2.14165 -3.9416 0.889099
2260 1 19.5677 17.9367 -18.9434 -1.90338 -0.945689 1.43086
2345 1 4.67833 15.9791 -15.1748 -3.13666 -1.43879 -7.58165
2394 1 18.0481 18.9503 -6.37277 1.26544 0.677861 2.99715
2402 1 16.6872 14.4918 -20.6801 -4.07813 -0.195017 -2.03118
4352 1 10.8073 42.0228 -1.22381 -2.43931 2.0567 4.20069
2432 1 18.7196 13.2617 -18.8183 2.5979 -6.42394 -5.26993
2452 1 11.9023 15.6339 -14.2701 -0.214309 -2.20921 -0.981264
2464 1 7.83263 20.7722 -14.427 -0.127134 2.17061 -6.51537
2443 1 5.66762 12.5954 -22.0296 -0.115889 1.89149 -1.98395
2489 1 6.39027 22.6331 -12.3062 -0.829568 3.83054 2.93656
2493 1 18.0158 25.8163 -19.9362 1.40082 1.50445 -5.63365
2503 1 14.5226 16.7624 -0.782179 2.99405 0.410266 -5.55203
2508 1 12.9114 22.8751 -9.22766 -3.69376 2.07634 0.129364
2524 1 7.30463 22.3048 -19.8476 6.14218 -5.81124 1.73323
2549 1 3.18093 13.557 -14.6472 2.09611 1.15452 0.536439
2554 1 15.3511 26.1678 -9.18771 -1.0278 -0.274914 -0.398059
2555 1 3.59132 16.3041 -5.72517 -0.603311 0.940079 0.811965
2577 1 13.1932 20.5075 -1.32969 1.48124 -3.83147 3.16099
2640 1 5.94688 15.3848 -22.341 -1.23352 3.21905 1.92281
226 1 22.7126 15.9781 -13.8665 2.90493 0.256531 -0.169199
2676 1 18.6483 20.5622 -19.7929 1.44087 0.0497117 3.38972
2693 1 7.97592 22.2418 -17.069 -4.1003 1.25822 2.104
168 1 20.7883 23.864 -3.13425 -0.89963 4.85812 0.618802
3473 1 21.5486 23.9646 -20.8074 -1.41617 2.04604 2.85751
2764 1 8.84148 23.7573 -14.6312 -3.45173 4.32021 -4.26456
2791 1 21.0595 11.9717 -5.31985 -4.22769 -2.68347 -1.35799
2794 1 4.93911 20.1399 -10.2078 6.07151 1.15847 -2.56181
2795 1 18.791 12.7566 -16.0631 -2.38668 4.82813 0.263676
3482 1 15.6672 20.8129 -3.18896 -0.501268 3.42172 2.28245
2810 1 5.48753 25.2424 -15.3541 -3.84211 -1.96425 -2.47146
2825 1 12.5408 19.7083 -11.5441 -1.4925 -3.88586 4.38737
1029 1 13.3733 14.0606 -1.21322 -5.48234 0.773651 2.84156
2916 1 14.3579 20.5532 -9.59963 -4.22991 -1.88194 1.24731
2807 1 22.4152 20.1649 -0.542171 4.80155 1.74813 -0.0376507
1810 1 12.3568 45.0969 -6.35503 -4.44567 4.21028 -2.21551
2978 1 12.4668 17.513 -16.4996 -1.55187 1.08242 3.81965
2989 1 19.9547 16.7191 -14.2364 1.01353 5.19595 0.326521
119 1 18.3555 12.4661 -6.34141 -1.61869 -1.3232 2.96332
3004 1 17.1047 16.3574 -18.3461 -3.14124 -2.37868 -0.376292
3023 1 5.02829 18.0639 -3.73166 -8.87427 -0.868982 -1.76546
3063 1 8.50388 26.2065 -18.6364 3.2317 -5.07377 -4.22339
3067 1 16.3512 13.1617 -14.6866 -2.93527 -6.13676 -3.71825
683 1 2.42069 11.7491 -20.134 0.999683 -0.84234 0.36722
2516 1 5.12511 13.0239 -19.2019 2.95355 -5.00751 4.15021
1526 1 18.531 25.1908 -1.73531 -6.37526 -1.13029 -0.491074
3480 1 23.5032 23.3524 -4.1273 0.370165 3.25199 0.454822
3143 1 19.612 25.6089 -22.1486 -1.68143 3.58409 -2.97954
3183 1 19.7746 14.9056 -5.56807 -3.00873 2.59134 -0.776773
3206 1 13.1577 13.6559 -4.36736 0.0626561 0.275667 2.90019
3227 1 4.16619 23.2374 -8.10398 3.32765 -5.28742 0.0825388
3238 1 20.8306 19.4153 -5.07669 -7.06077 5.50755 0.089921
3244 1 22.3684 14.0438 -16.4734 -2.08361 0.588139 0.0483566
3269 1 7.53705 16.8813 -3.12546 -3.23647 4.23641 0.561268
4147 1 -0.0975786 32.2686 -5.08449 3.37704 -0.504195 0.0678619
3284 1 13.5788 25.312 -19.0168 -2.45802 -6.96856 0.351371
3285 1 1.51919 23.3747 -17.356 0.70828 -0.941171 -1.97786
3291 1 19.6588 23.3656 -12.3986 3.24585 -2.07391 2.3388
3339 1 9.93309 18.2879 -19.738 -2.49121 3.63575 -6.78062
3341 1 20.1382 21.4833 -17.6212 -3.42253 3.40418 -0.757324
3721 1 -0.187708 17.872 -6.11696 5.9262 -3.53308 4.36973
3349 1 12.4061 16.9155 -11.7876 -2.06804 0.0496482 -2.34525
3421 1 9.02883 16.7111 -14.2609 -0.51658 -3.57606 0.550375
868 1 0.654499 18.1192 -1.93886 -1.85949 1.85724 -3.27458
3434 1 10.7122 15.866 -9.62828 -0.740116 -0.739229 0.151533
3437 1 11.1705 17.7306 -7.43938 -3.65693 1.25217 2.86412
3440 1 2.09077 21.1297 -7.57226 0.56847 2.91404 0.516377
3449 1 5.71654 26.7469 -17.714 -2.27012 1.12199 -1.79484
3456 1 8.96961 24.4349 -20.8316 2.69875 -0.490858 -2.35126
2670 1 21.0768 23.9715 -18.1248 1.50536 3.37478 -0.832795
3483 1 12.0071 21.6934 -3.3827 1.69327 -2.75483 3.0859
3488 1 15.2999 13.115 -8.72844 0.692799 -0.209163 3.24277
3500 1 18.2684 16.1855 -7.59962 0.696895 1.29636 3.90123
3521 1 0.863421 17.1122 -15.2039 -0.3128 -2.64938 5.13749
2237 1 -0.33045 45.8872 -20.0465 1.18733 -1.37134 0.678903
3526 1 8.51056 17.4918 -5.75714 1.8733 3.19636 1.25919
3539 1 10.7885 23.1111 -12.8791 1.73173 -2.64255 -0.925831
3546 1 19.5943 13.8916 -11.3868 0.47136 -1.09307 -4.26742
3554 1 15.9069 15.0679 -12.6111 3.52487 -1.10673 3.83085
3599 1 11.3306 15.6245 -5.21451 -2.70185 1.24456 -2.18817
4342 1 6.53278 44.681 -8.2894 -0.328092 -2.01721 -2.5773
3608 1 17.3571 20.0346 -15.8537 -1.50446 -0.817872 0.892061
3644 1 18.5977 22.1926 -1.85047 -5.36743 2.68448 0.255502
2421 1 22.3479 16.0491 -5.45015 -1.35634 3.40321 -2.16356
3657 1 21.7415 21.8442 -10.8179 4.16142 -5.5154 0.451894
3667 1 12.2287 14.2033 -17.9592 -1.48231 -0.00283241 2.83765
3676 1 14.425 15.6501 -10.2632 0.0597542 -2.99944 3.5103
4135 1 -0.0659454 27.3274 -2.30462 2.10733 -0.997132 -3.72963
2731 1 21.5736 22.3845 -7.89655 4.30907 1.06665 -2.21612
3693 1 5.96716 22.4029 -2.94566 1.07096 -6.2092 -2.69997
4351 1 11.1519 44.7613 -1.7192 -4.06 3.05421 1.84595
3712 1 13.3949 25.2544 -7.53018 2.22174 -4.86475 5.25396
3734 1 14.014 17.9886 -8.21077 -2.30892 -1.06285 6.89828
3750 1 9.93484 25.5817 -16.3463 2.68359 0.123729 5.07296
3778 1 1.3492 13.0606 -10.1608 -0.00264015 -3.17011 -1.38665
4223 1 1.22331 45.6027 -9.30877 0.556567 -4.83272 2.39868
3787 1 10.295 20.4185 -17.398 7.34486 -3.92472 3.65987
3789 1 17.8178 23.4095 -14.7044 4.02406 4.39575 -1.47302
3799 1 17.0254 23.0123 -11.7183 0.513193 -0.438418 2.05435
3801 1 3.37888 15.1432 -9.46284 -3.03707 5.39494 -0.511585
3836 1 20.0027 13.9702 0.0105945 -2.79349 -1.44053 2.42021
2892 1 20.9009 19.1892 -10.0315 -0.741164 -3.08105 -1.00197
3854 1 17.3573 16.1722 -1.69852 1.57371 0.542588 -2.785
3883 1 21.9181 14.9704 -10.1031 1.74402 2.84151 5.05966
3564 1 20.822 13.5063 -13.9579 -1.7754 4.88615 2.04893
3139 1 4.94015 11.3493 -13.7678 -1.88192 -0.610522 3.6816
3927 1 9.73392 18.5798 -3.21175 2.72687 -1.60614 2.07607
1444 1 12.1794 18.9635 -21.2668 5.03351 7.58066 0.887225
3948 1 10.1678 16.26 -17.6304 -0.963964 -1.07843 -1.60452
3986 1 14.7109 16.5109 -14.9707 2.85146 -2.34916 3.25709
723 1 23.4247 13.5091 -4.87321 4.23557 4.66367 1.47632
4124 1 0.663669 25.1869 -6.1363 -1.57429 -4.2441 -4.95613
2928 1 22.412 46.1354 -11.1043 -0.824677 -1.08202 -1.60138
4128 1 0.59331 25.4244 -8.95233 -2.01396 -0.263426 2.4689
1241 1 11.7453 11.9924 -19.3864 -7.93064 4.12432 1.4161
4136 1 0.49439 24.7017 -1.18755 0.294866 2.49376 -4.05237
3192 1 21.4965 11.4989 -0.547477 -3.41997 3.54453 0.607315
4148 1 1.24418 29.967 -5.80154 -1.68542 -2.23458 1.97289
2244 1 19.8091 21.1183 -14.5691 3.43109 0.607671 -2.7986
4152 1 1.11812 29.7747 -8.66376 0.555146 1.54696 -1.99895
4159 1 0.271891 32.0143 -2.28003 -1.05285 -3.56223 -1.0775
4160 1 1.27046 29.4502 -1.53607 1.21186 -3.48131 0.421432
4171 1 0.44798 36.5658 -5.02205 3.85301 0.282349 0.434155
4172 1 1.50073 34.3603 -6.37037 0.393413 0.303078 3.59462
878 1 9.5551 13.4248 -23.6536 -3.69351 3.99204 -0.20878
4176 1 1.2039 34.5013 -9.11809 6.10404 0.509537 5.47508
4183 1 0.460052 36.2613 -1.97778 4.48419 -5.77933 4.82183
4184 1 2.00394 33.9336 -1.08331 3.32224 -2.21349 -2.58049
4195 1 0.877895 41.0554 -4.43109 -2.70783 -5.26502 -5.21127
4196 1 1.61911 38.8109 -6.08059 -5.61312 3.23108 4.85392
2460 1 7.30161 12.1928 -14.9503 -1.37704 -2.28405 4.54902
4200 1 1.50108 38.6178 -8.87723 3.15628 -1.28709 -4.01499
4207 1 0.91686 41.1102 -1.59788 -1.52699 -2.71462 3.62327
4208 1 2.06684 38.5052 -0.761188 -1.58424 -0.285834 2.92619
4219 1 0.988144 45.3623 -4.7464 0.220669 0.64297 -0.984166
4220 1 2.40903 43.0564 -5.66166 2.65328 0.227787 1.04121
2300 1 5.55579 11.423 -1.02488 -2.29167 -0.723921 0.0837951
4224 1 2.24254 43.1041 -8.46483 -2.82456 2.09017 0.0480957
4231 1 0.823887 45.5434 -1.78468 -1.14559 -0.615284 -0.366707
4232 1 2.39607 43.4286 -0.812486 1.37955 -0.638594 1.85512
4241 1 3.42255 24.7341 -5.73876 -2.43202 0.320992 -2.88308
4242 1 4.6976 27.3923 -6.31411 0.568945 2.03844 3.61156
4243 1 7.41548 26.5858 -5.59746 5.36716 0.58136 2.05226
4244 1 10.9211 26.4669 -7.37375 0.518391 0.845556 -1.96984
4245 1 3.2636 24.8525 -10.2311 1.54139 3.85464 0.913251
4246 1 5.10537 26.7275 -9.15103 0.529421 0.231127 -0.127915
4247 1 7.50287 26.9176 -10.6326 -1.85332 -3.83141 0.0413078
4248 1 9.17496 25.2403 -9.19769 -2.69176 -2.0803 3.04162
4253 1 4.00793 24.3997 -2.92319 3.16759 5.38132 2.90615
4254 1 5.33365 26.707 -1.6577 0.14228 3.93508 0.0773397
4255 1 7.87553 26.5919 -2.68382 0.180371 0.849665 -0.340944
4256 1 9.54697 24.5566 -1.78889 -8.37706 -5.58105 0.902508
4265 1 3.87203 29.5283 -4.84761 0.175238 3.37254 0.772901
4266 1 5.28672 31.6755 -6.16399 3.23998 2.16864 -2.42862
4267 1 8.01767 31.1646 -5.66362 -3.90249 -3.38032 0.441419
4268 1 8.89009 28.6235 -6.88858 4.55113 -5.64148 -1.49172
4269 1 3.86742 29.4117 -9.58189 -1.62973 1.54754 -3.32864
4270 1 5.0426 31.8292 -9.05798 -1.40115 -7.66818 -0.138351
4271 1 7.80566 31.5653 -10.0343 3.29596 -1.68929 1.41532
4272 1 9.00126 29.1394 -9.79377 4.04028 1.78608 -1.59796
4277 1 3.94961 29.1738 -2.11232 0.140377 1.56019 -0.792315
4278 1 5.65892 31.1855 -1.50353 -2.42753 3.84182 5.89862
4279 1 8.28014 31.1808 -2.76866 -3.31678 -4.05804 -1.79974
4280 1 9.18684 28.8545 -1.56288 2.44486 0.796651 0.245714
4289 1 4.10095 34.0306 -5.09039 -1.96694 4.37629 0.955137
4290 1 5.7841 36.2092 -5.87782 -0.725209 0.00283751 0.591433
4291 1 8.86583 36.064 -5.17679 2.37932 -1.26337 1.40047
4292 1 9.74702 33.5703 -6.57169 1.40819 -2.06568 0.248994
4293 1 3.80904 34.1266 -9.59303 4.2808 5.22504 -2.92536
4294 1 5.64989 36.0588 -8.78077 2.02308 0.423956 -3.95725
4295 1 8.28681 35.9622 -9.07406 -0.571017 4.39429 -3.04047
4296 1 9.62765 33.4695 -9.36954 1.44979 -1.54254 0.165321
4301 1 4.54632 33.6714 -2.4503 0.511605 0.471392 0.636953
4302 1 6.12973 35.7793 -1.3409 2.46179 -0.598061 -0.305705
4303 1 8.85884 35.8824 -2.50812 4.65381 0.45288 -1.07259
4304 1 9.83064 33.2718 -1.82777 -0.246199 -0.50997 -4.36213
4313 1 4.31817 38.2984 -4.9788 -2.363 1.82745 1.80015
4314 1 5.89465 40.6343 -5.83421 -5.03397 1.18119 -3.1311
4315 1 8.84407 41.0184 -4.94818 -4.22629 -2.40448 -0.403636
4316 1 10.232 38.4199 -5.7964 -1.09912 -0.774151 2.92826
4317 1 4.23123 38.4455 -9.20653 -2.50145 4.32543 -1.48889
4318 1 5.72664 40.7065 -8.53486 -0.89328 0.314488 2.13357
4319 1 8.42219 40.6281 -9.38624 1.15864 -2.62988 -3.51467
4320 1 9.7197 38.3139 -8.38929 1.36234 -5.25534 0.101337
4325 1 4.71609 38.279 -2.03562 1.24272 -2.45989 -1.61419
4326 1 5.98701 40.3351 -0.901076 -2.94143 1.32631 -1.98778
4327 1 8.62895 40.5495 -2.10554 5.7225 -2.06059 0.681422
4328 1 9.85368 38.1029 -1.62116 -0.99071 4.32864 -1.5407
4337 1 4.97943 42.7303 -4.29912 3.36534 -1.19443 -5.18825
4338 1 5.55043 45.1311 -5.88774 0.185354 0.713271 -2.95583
2802 1 4.27798 12.9578 -11.351 1.96408 3.33092 -0.0700727
4340 1 9.97914 43.5587 -6.19209 -0.84418 0.400724 1.13083
4341 1 4.71985 42.9971 -9.83225 1.91591 0.992529 2.63069
2603 1 21.7962 17.7747 -3.00753 -3.21854 0.307888 5.08978
1670 1 2.77273 15.0195 -1.8261 -2.13988 -1.60627 0.229099
4344 1 9.19008 43.26 -8.85558 -0.936336 -2.43059 -2.84119
4349 1 5.09902 42.9787 -1.62348 -2.12054 -1.97558 -1.52089
1607 1 13.8309 46.142 -15.4169 1.29491 4.25781 -0.413711
3815 1 1.55642 19.8837 -22.6302 4.23334 -3.12674 6.18026
4339 1 8.2685 45.4637 -5.23285 -2.0392 6.64448 1.15418
1221 1 -0.0265708 20.6252 -20.3406 -1.37863 1.67096 -0.903577
4199 1 0.572741 41.1263 -9.12216 0.834703 -2.35207 -2.26542
1440 1 22.2104 13.8255 -2.24458 1.45704 -1.97942 -0.498183
732 1 14.3427 44.391 -8.26016 -0.438999 -0.775145 3.33625
1319 1 14.4648 24.3783 -0.911267 2.36193 -3.23409 6.64303
871 1 6.70761 11.4227 -17.5538 -1.74102 -0.242886 -2.67988
3661 1 22.056 16.3822 -18.4306 1.83283 -1.17498 0.0467113
1816 1 1.23554 18.6962 -11.7272 2.17028 -2.55125 -3.57525
2686 1 6.413 45.7766 -17.0354 -1.06319 -3.62798 2.28161
1741 1 9.85933 16.5598 -23.6152 3.56808 -2.71848 2.22362
68 1 0.259409 13.4413 -20.2053 -5.30972 3.53235 2.24513
3260 1 16.5564 46.2066 -8.51306 -3.61712 4.52719 1.0714
1489 1 22.7055 17.2231 -0.290429 0.779987 0.709081 0.85153
2230 1 3.29004 17.7772 -1.32187 6.9471 -1.81329 0.55531
1557 1 9.27307 46.0389 -17.7548 2.109 2.27467 4.49386
807 1 15.5274 22.979 -22.2752 4.59763 -3.08819 -4.15451
3511 1 16.3172 12.0394 -4.2639 1.48592 -1.83132 1.53782
759 1 -0.240927 16.7135 -10.7802 1.21801 0.66654 -0.0942798
3012 1 1.91853 46.4393 -17.9515 3.09966 -0.427801 -3.42438
3506 1 23.0366 20.5103 -3.37999 0.994324 -1.21021 -3.35659
2215 1 8.58914 17.8102 -0.541385 -1.70047 -0.335624 -4.47143
578 1 22.8359 23.605 -23.4674 1.92151 -3.8599 -3.94786
2004 1 0.461464 46.8802 -22.5638 4.93645 5.39122 -0.150944
861 1 22.5578 20.2408 -13.3673 -8.00318 2.26926 3.50288
1342 1 1.98885 45.5996 -15.3784 -0.866645 -0.0698032 3.32001
1985 1 3.19575 46.4096 -11.2096 2.62149 -4.38913 2.81952
3894 1 9.77516 11.4316 -14.051 -0.65176 -0.562539 7.19423
3820 1 21.7036 11.019 -7.89624 -1.58178 -6.61735 0.966527
925 1 4.59129 11.2156 -3.80385 -2.93729 -3.26533 5.78551
1376 1 5.49882 11.2915 -8.93374 -1.57386 -5.71921 -2.78286
2137 1 14.7003 18.1381 -23.7932 0.739058 -2.15978 -0.100878
1838 1 15.7276 20.9825 -0.072233 -0.942557 1.23115 1.20149
1913 1 0.742479 20.5288 -0.427208 -1.55856 -3.30075 -1.06935
6 1 0.00670683 18.9802 19.3789 1.16631 -4.09474 -1.89845
7 1 6.57887 22.4699 8.15485 1.94792 2.96709 -0.687218
3837 1 9.69448 11.351 3.81055 -1.72832 -1.06601 -1.10786
25 1 6.45404 23.9148 14.8041 -1.50927 -0.582882 -2.66904
3865 1 2.83331 46.6857 16.6041 0.728657 3.72372 4.57702
801 1 19.6658 19.6884 1.21643 -1.59756 -0.563674 -4.78987
740 1 19.6521 12.1061 15.5198 -2.44995 5.49234 -0.620833
103 1 19.941 25.9639 20.0743 1.12639 0.954836 5.91784
123 1 14.1362 15.7138 6.43111 2.42898 -2.77011 -2.10292
138 1 9.97028 15.9161 5.23073 0.0911255 1.13998 -2.52871
147 1 8.27925 19.6009 6.13904 5.60848 1.89302 4.50538
175 1 9.97888 14.718 7.80891 -2.15699 5.49055 1.31261
185 1 19.622 22.1602 15.0899 6.24865 1.13252 0.959726
202 1 12.2295 13.662 10.9717 -2.33451 -0.17975 -2.69149
215 1 8.87925 22.9377 16.3812 3.04875 -2.1932 -1.75697
217 1 4.55189 20.3854 8.4305 -2.18794 0.25818 1.21833
220 1 4.47438 20.57 17.5211 -1.51298 0.488541 5.08395
227 1 16.5186 17.8046 4.11709 0.313575 5.29439 0.073947
262 1 17.1448 17.2654 10.7803 5.37503 1.87006 -1.36213
281 1 15.1983 20.6024 12.1555 -1.96432 -4.61608 1.56559
4348 1 10.9542 42.0636 1.52399 2.64608 -3.45158 3.42426
288 1 17.5083 25.1307 3.17962 -1.04834 2.64814 -0.0119199
1069 1 23.2851 15.6704 23.4186 1.525 3.00249 3.69777
328 1 15.1553 21.7448 15.0298 -2.73936 -1.4176 0.589637
2756 1 21.0702 13.5472 20.4038 -1.87785 1.81423 0.786614
3930 1 12.7933 19.784 1.74162 -2.41289 2.91742 -2.79782
418 1 20.6978 20.3667 6.11752 -0.574176 -5.31023 -0.174255
435 1 0.643762 22.8621 5.9605 2.06043 -1.89133 2.06219
443 1 17.453 23.9575 15.9433 0.656684 -3.3113 -4.7126
447 1 6.85279 18.381 11.7736 1.67801 -0.495244 3.77576
3911 1 21.7025 21.6482 2.15103 1.17286 2.74851 5.57832
457 1 7.2275 20.7637 17.2428 0.553529 -1.00409 -0.362659
4324 1 10.0843 37.9565 1.35842 2.1766 -3.34539 -4.9618
463 1 3.94653 15.3198 11.9966 1.37433 -0.435549 2.34911
4300 1 10.0196 33.4646 1.03992 -2.83536 0.811737 0.906533
487 1 2.86892 23.1724 17.7477 1.36469 3.85839 -1.56451
566 1 19.7285 15.0057 13.914 -1.47565 2.65863 -2.68277
1353 1 6.48075 21.1358 0.572297 -1.44654 0.613227 4.6489
627 1 19.6027 12.2236 11.6144 2.21122 -7.45071 0.286064
646 1 14.1091 24.3652 14.6163 -2.84759 1.99622 1.73357
2751 1 10.4026 45.7272 7.99202 3.83766 4.51849 -1.82416
671 1 20.3135 14.8619 4.70177 0.669348 -0.750447 3.08444
715 1 1.23666 16.3678 12.3826 2.14685 -0.695744 -2.38619
2033 1 10.2427 16.223 2.17635 -3.60121 -1.8049 -3.94547
1108 1 15.2896 12.4978 22.3131 2.08704 1.60372 2.66211
4360 1 10.7684 41.9291 5.93617 -1.70396 -4.46845 -1.47287
762 1 5.71495 18.0976 20.5788 -0.684704 -2.79635 2.48551
769 1 13.2626 24.87 17.4848 -0.271205 1.2894 -2.1876
774 1 15.9787 16.9665 14.4592 -3.25211 -2.96062 -1.56325
805 1 9.77772 26.1278 22.7195 -2.35299 3.10479 0.838308
150 1 22.7574 11.5136 17.2127 1.97121 -1.01505 1.46759
820 1 1.09912 13.175 8.46337 -1.90393 -1.79475 -0.432285
829 1 18.1242 14.0291 19.6809 -3.92804 2.14518 -2.38734
870 1 16.2472 17.7868 19.3466 -0.532149 -0.0710818 1.76699
875 1 21.0369 15.0322 7.54458 -2.38919 -0.591757 -0.100934
880 1 2.88437 15.0588 20.9491 3.72667 0.65887 -2.88116
1430 1 1.07625 18.9557 7.12697 0.242242 0.967036 4.73711
927 1 9.51055 13.9446 18.6641 -2.98275 1.42177 2.80927
936 1 8.24501 12.8599 12.9085 2.29253 -0.267144 2.07625
3637 1 0.390586 12.2092 19.3684 -0.282893 -0.989545 2.48299
958 1 1.7991 13.4374 15.6559 -0.188772 1.42647 0.149501
980 1 4.07341 19.1322 10.8516 -1.2116 1.18504 -0.981462
1726 1 16.7341 23.8535 23.3366 0.133279 -2.5466 1.73102
1019 1 7.332 15.1557 4.63338 -0.391591 -3.37588 -2.8407
1050 1 18.4706 19.7067 18.4929 -1.8151 0.196982 -1.47437
937 1 -0.296901 14.192 17.5723 -0.484606 -3.7061 4.585
1097 1 16.6661 25.558 13.5465 0.827141 1.56309 0.589386
4357 1 5.40236 42.6835 5.32688 1.7083 -4.40187 -0.86951
3615 1 0.228845 23.018 3.18005 1.47636 0.544256 -3.3218
2940 1 15.8104 18.5224 1.4609 1.04559 1.68889 -1.41408
2416 1 7.11417 11.871 10.4091 -2.04581 -0.402647 -0.605666
1142 1 7.57188 13.1999 7.82189 -8.71678 -6.12902 0.638445
1145 1 3.37969 19.5406 20.1325 4.56749 -1.07578 0.0659647
1146 1 10.879 17.663 18.946 0.187472 -4.41107 -2.37607
1170 1 2.463 12.5716 10.9782 -6.54256 0.961126 1.55909
1184 1 4.7635 21.9767 20.9701 2.77184 5.52765 -5.13547
1189 1 11.4001 13.873 3.64506 1.06929 -3.10297 -0.454785
1222 1 20.2216 22.6013 12.5455 0.687878 -3.70258 0.104303
1234 1 15.6328 12.3647 6.20046 1.13048 1.29549 0.154675
1235 1 10.2169 20.7903 2.80964 -0.00850947 0.837204 -3.20139
1297 1 15.5942 13.8264 14.0382 -0.81736 5.98469 -2.33528
2920 1 23.5107 14.0129 6.76382 4.67702 -3.20186 2.22731
1004 1 23.4177 25.0758 10.082 1.5386 0.211506 -3.76953
1939 1 12.0741 11.635 1.79646 -2.37996 -3.83187 -1.06835
1352 1 6.49332 24.9793 19.273 0.987553 -5.08225 -1.28352
1362 1 18.9397 22.3057 9.08622 -0.363183 3.59969 0.505192
1381 1 17.6658 14.4842 12.1113 -2.36015 3.36141 -3.24643
1414 1 5.04093 22.9325 5.9214 0.191675 -0.15562 0.628747
3380 1 1.18127 16.2155 19.2817 -2.16234 -2.64026 -6.26003
1468 1 17.9767 24.7575 18.5645 -2.72441 -2.81579 1.8652
360 1 4.21592 14.6328 2.18121 1.38273 -1.0874 -2.76703
452 1 21.1011 15.9472 1.83127 0.721923 2.79904 -2.00407
1528 1 9.03907 14.6195 15.9408 -1.29289 0.73752 2.35976
1530 1 17.9829 13.6496 6.01266 0.435808 1.85879 -1.11846
1533 1 12.719 19.4141 12.5333 1.35899 2.18802 -5.24334
1538 1 5.82001 16.5913 18.3063 -3.69404 -2.39833 4.08739
1559 1 21.2837 17.6042 5.14505 3.59235 -2.23281 0.291721
1569 1 6.52617 12.5232 1.95505 -1.44639 -1.08111 -2.90621
2291 1 0.489105 23.7155 21.4609 1.45648 -4.44282 3.14245
1598 1 2.24013 12.5029 3.75396 5.0153 0.229354 0.0800525
1618 1 11.6941 15.9231 14.5516 1.94126 -5.01805 -0.533223
1619 1 16.2802 13.7423 17.1567 -1.79709 0.152549 0.468043
4359 1 9.6255 44.4687 5.40244 -3.42879 -1.63207 3.63726
1639 1 13.8563 14.4012 18.074 -1.93848 -1.96027 -5.4462
1684 1 5.98868 15.2557 15.7565 -4.63507 -0.713783 4.67413
1713 1 22.0949 13.8213 12.4395 -2.92664 -2.68433 2.76995
1715 1 13.2415 20.3029 16.5426 -0.756232 2.78373 -0.16646
2235 1 8.98754 46.2977 13.2632 -2.16748 5.00294 -1.86217
1740 1 1.13092 21.6424 19.439 2.44297 1.11133 7.80054
2583 1 5.74067 18.117 0.14889 4.38931 1.57568 3.40197
1750 1 16.1336 24.2604 11.3826 1.98099 -1.08062 3.53523
1762 1 1.99102 21.062 2.33487 -2.86286 2.7582 0.245713
1767 1 10.4585 24.8712 17.9556 1.49777 -0.493433 -1.05387
4276 1 9.36463 28.5449 1.27541 -1.04756 5.60963 -0.916937
1773 1 19.5061 17.5676 7.44389 0.913842 -5.25945 0.429381
1797 1 2.31517 16.1564 15.064 3.02322 0.687901 1.47646
1633 1 16.7221 15.0625 22.03 -1.22784 2.8459 -3.5829
1821 1 19.6455 25.467 13.13 0.41641 -2.14516 2.12342
1829 1 3.81653 16.379 5.91287 -0.33859 -0.241812 3.02194
1835 1 4.83994 25.1136 16.937 -4.72131 3.61933 -1.69483
282 1 13.2406 12.5831 13.3169 -0.329717 -0.786133 1.21239
1839 1 19.063 25.2968 5.46528 0.356588 2.24758 -3.68088
1866 1 8.01274 21.0303 11.7453 -0.960845 0.138896 -4.8167
1884 1 17.0915 16.2215 6.74615 2.27981 0.362299 -0.679645
1886 1 19.4615 25.3846 8.48808 -3.07302 -2.34624 -5.41233
1922 1 11.1967 15.6222 20.6977 1.10779 -1.08116 5.8639
1929 1 6.06545 17.0828 2.81549 0.848592 0.341102 -1.87559
1957 1 15.7626 19.2037 9.25752 -0.0429162 -4.9283 -1.23399
1878 1 22.0375 24.3614 1.27945 -2.04464 1.054 0.00023681
1988 1 5.86956 18.4406 6.90631 -1.94916 -0.164695 -2.98833
1992 1 11.6802 22.6158 4.794 1.25946 -2.99414 2.65094
1997 1 21.0602 26.2037 10.8227 -2.34056 -0.179847 0.731
1115 1 19.9479 22.5457 21.4569 -7.9017 2.2007 3.89214
2022 1 16.8195 25.9083 9.32814 3.55704 -0.163331 0.0171752
2026 1 8.98796 20.8082 9.02384 3.19816 0.13266 -4.04888
2055 1 3.3434 15.056 8.39487 -3.57894 1.88294 -2.62121
2084 1 13.179 19.8749 22.2805 -0.694191 0.742015 -5.36675
2088 1 7.44095 22.3499 19.6235 2.36401 -1.79996 -0.425339
2886 1 13.0465 25.1219 1.85582 1.30226 -2.32269 -1.89724
2134 1 11.7947 21.3436 7.64061 -0.739517 -2.49547 -1.16108
1591 1 13.4312 14.1602 1.61903 3.95706 -2.4429 1.37351
2177 1 19.002 16.5293 18.5361 -3.22393 2.78949 -3.27316
2197 1 14.8137 21.8597 20.4356 5.12577 -0.0716368 0.989649
2240 1 15.1516 18.4225 16.8342 -3.16825 2.13229 2.14734
2254 1 3.5887 19.5574 15.0168 -4.62182 -0.591765 -1.07627
307 1 11.6518 12.8564 22.0566 1.22994 -6.19208 -3.77395
2287 1 22.5454 17.945 14.94 -2.09677 1.19445 -0.116844
4356 1 11.6847 42.1896 8.71133 -2.49041 4.31763 1.62499
2631 1 18.2835 16.8023 1.13523 2.57106 -3.68124 -0.690518
2304 1 11.6014 12.5542 8.25665 2.65367 0.347597 -1.90528
2309 1 19.7127 17.4188 21.3482 -2.20735 -1.15376 0.770694
2343 1 8.44633 22.927 1.78963 -0.0279621 -2.52056 0.471041
2344 1 12.3867 25.4411 4.57372 0.876937 -0.0271842 0.368744
2360 1 13.5747 17.9651 4.53271 -0.352146 3.01542 -1.52188
2367 1 7.04435 16.9898 9.29492 3.98439 3.29887 -2.5261
4355 1 12.2542 44.7847 9.80636 0.608741 0.0822939 -0.658267
2375 1 9.85576 22.0759 13.6823 -3.26608 -1.36081 -0.543011
2388 1 8.84243 26.1738 20.0943 -4.02256 -0.807698 -4.39972
2395 1 3.25553 17.9089 17.5807 -3.01461 -3.6608 2.39576
743 1 22.9733 19.852 4.25815 -3.24946 3.5892 -3.85826
2412 1 9.65776 17.8393 15.6603 3.58876 -3.08886 0.947207
3251 1 0.774584 18.7936 14.0603 -7.14878 -0.99155 -0.875515
2423 1 10.6336 18.5348 4.9173 -0.317876 0.895034 -1.38752
2444 1 12.7246 22.1144 18.6022 -0.178117 -6.89256 -2.65468
2456 1 15.7883 19.3575 21.5925 4.58776 -5.79883 2.38549
4354 1 7.54505 45.337 8.77378 -1.00435 3.60646 -3.81102
2819 1 16.4561 11.8801 11.9105 -3.87358 5.08861 0.0722984
2500 1 9.01763 22.5832 6.4738 0.16616 -3.19281 0.214429
2501 1 7.23497 12.3571 4.94869 1.31799 1.88881 3.38587
2993 1 21.6506 17.5228 17.3658 -4.77284 3.1532 5.69609
2553 1 0.0623969 22.6187 16.745 -0.803605 -1.89365 -3.20684
2565 1 13.837 16.9031 12.6981 0.223805 -0.071559 -2.98421
2281 1 19.4311 12.0575 23.4367 4.37526 -2.17881 -1.844
284 1 0.57133 13.9308 1.85354 -3.99477 -0.746782 2.78603
2582 1 13.1284 23.9672 8.33554 -3.46096 4.30502 -5.98835
4358 1 7.01895 44.7657 6.06716 -2.59982 1.49491 -2.89105
1162 1 9.28597 12.3733 0.788378 1.54757 -1.00979 -0.594689
2606 1 14.2909 15.8656 20.3841 0.0545671 0.462934 -2.19234
2627 1 15.3735 24.8918 7.15811 3.424 4.6844 1.1078
572 1 11.3825 46.493 4.44283 2.67822 1.63844 -2.41192
2671 1 10.3356 22.9161 20.1765 0.960986 -2.11094 1.15191
2712 1 17.4148 15.1422 3.43889 1.39819 0.314301 2.35321
2716 1 16.0267 13.1729 2.39583 -2.96199 3.32278 3.34795
2717 1 11.3431 18.9696 9.68791 2.92115 -2.03881 -3.65296
2736 1 13.4797 14.9372 23.1519 -0.756452 0.243422 -2.85196
379 1 20.8155 22.8424 4.60559 1.1025 -0.649516 -0.963327
2773 1 7.12755 23.2739 4.23831 -2.43091 -0.249005 -0.772308
2779 1 21.5703 14.1782 16.0621 4.39489 2.57536 -0.460485
2781 1 13.7899 22.9773 10.9443 1.57982 5.27253 -2.38728
2801 1 1.71013 17.4802 9.54794 0.659374 5.0674 -5.58928
1854 1 4.19671 46.5142 11.8136 0.0592647 3.54014 -0.107436
2844 1 22.0588 15.6654 10.3766 -4.42102 -3.77735 2.5422
4353 1 6.13715 43.3299 10.1699 -0.834666 4.95567 -3.0531
2879 1 1.84043 18.3009 3.21613 -2.04825 -5.40932 1.32587
49 1 22.9508 13.6352 4.10108 0.0699073 1.48337 -6.40262
1474 1 1.83209 27.394 21.6159 0.857601 2.86631 0.0354069
2932 1 8.20042 18.0903 17.9261 -1.88401 2.65417 -0.622155
3641 1 5.03307 14.0915 19.3833 2.94473 3.42118 -0.567108
3001 1 12.9635 13.2333 6.12844 0.665617 -0.327763 0.854907
3003 1 16.8026 14.5044 9.27706 2.18385 2.49973 -3.81715
3035 1 18.7905 19.4223 4.13848 -1.89747 2.09345 -3.39866
3036 1 11.2495 20.1896 20.3314 4.30179 0.477831 1.70325
3047 1 4.44508 18.7686 4.35883 -0.838513 4.79289 -1.20384
3086 1 13.9699 21.655 3.37692 0.614201 0.50158 1.50805
3123 1 14.2085 15.518 10.3965 0.170518 -0.936718 -1.7921
3154 1 6.76857 20.2914 3.39334 0.175595 1.09772 0.925737
3170 1 5.01362 24.7903 21.56 -3.94402 -0.8372 -4.54119
3173 1 9.77723 16.6792 9.96044 3.67732 2.2971 -2.81935
3178 1 17.7067 19.1693 13.1377 0.556275 -5.67531 3.67309
3236 1 17.8181 21.8971 11.7683 -1.98453 0.0317049 2.94193
3243 1 8.18178 19.7373 20.5369 1.27043 -4.12413 -0.65772
458 1 21.3176 20.0813 18.9761 -4.60375 1.68472 0.417549
3253 1 8.62705 18.3368 2.54298 5.11213 -0.791895 5.94085
3259 1 15.9554 20.6581 5.31252 1.55373 -4.35791 -2.67816
3280 1 10.1365 14.9496 12.3749 2.52263 -0.998932 -1.83982
4252 1 10.4875 25.7616 0.657927 3.92118 -2.225 -0.629863
3310 1 17.2828 23.0183 6.81172 0.228101 -3.21065 1.73554
3338 1 11.1105 19.7717 14.7526 -0.599969 -1.44267 -2.98236
3352 1 4.63528 13.9193 5.1238 2.37411 4.89581 -4.10794
725 1 -0.324527 18.6599 22.2679 3.0793 -3.11989 -2.20477
3418 1 20.1111 17.6424 13.1978 -0.966561 -3.33233 1.84999
1313 1 17.5447 17.5761 23.5625 -0.29646 0.0948633 -1.15393
3467 1 11.271 12.8251 15.1315 -3.82229 5.05966 4.4736
1405 1 17.8921 21.0715 22.9874 1.77028 3.90653 2.51681
1979 1 1.19763 23.4399 11.8847 0.951884 2.95715 4.83998
1588 1 2.50559 18.9555 22.8058 1.45302 -1.4741 0.449064
3486 1 15.3852 25.5008 19.4484 -4.66938 -3.01061 6.10766
3493 1 4.5335 12.7271 17.0035 1.83497 -0.902437 2.60545
3537 1 22.2254 24.3944 19.1384 0.984066 4.73352 2.51771
3545 1 5.02168 17.3883 13.9051 7.49501 0.700324 -0.761117
3552 1 13.714 19.7788 7.03948 -1.90016 1.70057 1.07788
3570 1 11.5327 24.1115 22.3818 -3.19553 0.302136 0.0992612
3571 1 1.843 21.5095 8.18835 1.47525 5.50044 3.32487
1896 1 15.4776 23.3268 1.67503 -1.24164 -1.25564 4.5767
3605 1 17.6007 20.1216 15.8791 -1.49657 -5.02487 0.92833
3613 1 0.825453 21.5777 14.1507 0.055192 1.13341 5.10112
26 1 -0.451231 18.6837 11.2896 -4.07332 2.77442 3.4647
497 1 9.32632 19.1237 23.0603 1.6911 -1.48568 2.09971
2450 1 7.37613 13.053 20.2558 -0.516411 -1.26605 3.40986
3522 1 21.0097 19.8913 21.7817 0.0700669 0.124435 1.40291
3664 1 7.927 16.6337 13.8621 -5.02546 -3.63757 0.912333
3313 1 15.4845 11.8412 9.11333 -2.09613 -4.77815 -3.38143
3713 1 2.92824 21.1037 5.32709 0.363545 0.498444 0.243467
3715 1 17.4999 22.07 19.6857 -1.01525 -1.65939 0.289923
3720 1 18.0545 15.7621 16.1025 4.91925 -0.936448 0.358414
3732 1 18.0442 20.0892 7.50387 0.063144 1.27923 -1.43878
2770 1 19.9175 11.7295 4.71585 0.792326 -2.64079 1.86622
3760 1 15.2669 26.5217 4.9442 -0.723536 -0.915293 -1.15303
3783 1 18.1101 22.3234 4.08933 -3.46094 0.571784 -0.902295
3788 1 5.74884 14.5159 9.53736 1.73216 0.539308 -0.325955
3795 1 14.2328 24.1839 21.7875 -2.5532 1.76471 -2.60425
3804 1 13.4841 17.5042 8.53833 -2.69876 -2.06415 -1.22527
203 1 22.9538 20.9287 7.82558 6.85105 -1.13957 3.53039
3819 1 3.1748 21.2897 12.7168 -4.34023 5.33865 -0.69348
1133 1 11.7747 12.398 17.9548 1.01096 2.47794 -2.30192
3562 1 17.5593 12.4783 0.190916 1.99178 5.38813 -2.58502
3859 1 20.1742 17.933 10.1873 -2.58773 -7.38545 -1.04065
3885 1 12.1641 23.4976 12.9099 2.34982 2.87299 2.95946
2576 1 23.0639 20.7111 15.3456 -0.315295 1.13863 2.03107
3897 1 8.78809 15.0456 22.1432 3.42163 3.80697 -0.509839
399 1 13.0564 16.8861 1.86052 -2.74225 2.16531 2.64549
3974 1 5.81814 22.7624 12.5221 -2.75076 -3.60676 3.09716
3987 1 12.8662 16.7814 17.0221 0.820086 1.17749 -0.822466
4131 1 0.0525617 27.6293 2.37209 3.49354 -0.815842 -3.34786
4132 1 0.859832 25.0943 1.60028 2.14189 6.65857 0.0196179
4139 1 1.27299 26.558 9.14715 0.920971 3.42722 3.11899
4140 1 2.64507 23.9066 9.4584 1.40847 3.77155 1.818
4143 1 -0.106098 27.8133 5.25248 1.07963 0.862585 2.30964
4144 1 1.14791 25.718 6.51196 0.772105 4.76278 2.39515
4155 1 0.632632 31.9607 2.13476 0.367244 -3.29667 0.303825
4156 1 1.64253 29.4653 1.16246 0.845286 -1.40644 0.273397
4163 1 0.813631 31.4239 9.3595 0.396909 1.24107 2.64465
4164 1 2.34325 29.1204 8.8533 3.40493 -3.07461 0.746175
4167 1 0.627226 31.7141 5.07587 -2.58404 1.27723 4.59333
4168 1 2.03369 29.4249 6.02308 -0.552934 2.86002 1.18241
4179 1 0.849603 36.2875 2.61456 -2.59466 -0.514183 2.08549
4180 1 2.11877 34.1361 1.47276 3.78514 8.86293 0.124462
4187 1 1.01674 35.9121 10.2614 0.405719 0.623474 0.808631
4188 1 2.05866 33.7878 8.94138 -0.102209 -2.93945 0.738775
4191 1 0.775974 36.4836 5.54487 -1.89058 0.967514 0.23671
4192 1 1.89855 34.0063 5.99661 2.92126 -3.86232 -2.33084
4203 1 1.17102 40.9911 3.05792 -0.894514 -2.09988 -1.6028
4204 1 2.38766 38.5671 1.99014 -2.09095 1.35687 1.27606
4211 1 1.59113 40.7499 9.94314 -0.217644 -3.83878 -2.71903
4212 1 2.5103 38.2248 9.49626 -3.95133 1.1341 -0.994395
4215 1 1.24916 40.9179 5.76724 0.372091 7.25584 0.309727
4216 1 2.35756 38.4187 6.72956 3.16327 -1.71256 -0.975162
4227 1 1.19623 45.5163 2.78033 -0.372345 -2.77129 -2.24265
4228 1 2.6076 43.2743 2.08936 1.28528 -2.55505 -3.93455
4235 1 2.07606 44.888 11.0414 -7.98254 4.35913 1.88074
4236 1 3.42001 42.9332 9.56781 4.73905 -1.54599 -1.32003
4239 1 1.43607 45.3669 5.53617 -1.99433 3.20391 -4.11626
4240 1 2.92697 43.0246 6.75654 2.19706 5.03741 0.497864
4249 1 3.47887 24.6885 2.02728 2.75367 -3.32771 -4.29379
4250 1 5.22106 26.4675 1.17551 3.85191 -2.82205 -1.66791
4251 1 7.98475 26.0585 2.08902 -1.95081 -2.40179 -6.20253
3484 1 3.732 12.1558 7.49774 1.83618 -0.620851 2.01474
4257 1 5.46125 24.1775 10.0132 2.33372 0.529974 -1.8118
4258 1 6.4722 26.4801 9.01157 3.44436 -0.498648 1.19658
4259 1 9.23473 26.6134 9.16168 2.85325 -5.61208 0.0901439
4260 1 10.509 24.8559 7.60895 3.27444 -0.464993 2.00623
4261 1 3.68882 25.253 4.87433 -1.17493 -1.14128 -1.71449
4262 1 5.5865 27.273 6.224 1.64268 -0.833137 -4.49786
4263 1 7.61959 26.0389 4.83324 -2.79589 -2.29443 2.15852
4264 1 10.2352 26.7704 5.54566 0.447294 4.41697 -2.91759
4273 1 4.26347 29.1832 1.9662 5.47393 -3.17167 -1.76139
4274 1 6.0076 31.6136 1.33228 -1.31965 -3.07729 -0.699919
4275 1 8.96769 31.2518 1.90599 1.18763 2.09401 -1.41855
786 1 23.2453 19.5221 23.4454 -1.3487 0.806453 -1.98811
4281 1 4.97484 29.0946 9.07842 -4.35967 2.10839 -1.00647
4282 1 6.2923 31.5664 8.5063 1.31007 2.47558 5.2855
4283 1 8.78475 31.325 9.89049 0.917285 5.34538 3.44812
4284 1 10.1418 29.1442 9.10539 -4.33113 0.875219 -0.20223
4285 1 4.40503 29.5119 4.73615 -7.60759 -2.28022 3.49098
4286 1 6.11596 31.5141 5.59813 3.01693 -1.77298 -2.62595
4287 1 8.7202 31.4524 4.56347 -1.75894 -0.615672 0.434922
4288 1 9.70457 29.4912 6.50024 0.183558 -1.8946 -3.74607
4297 1 4.69117 33.7119 2.44565 4.59616 0.211078 -2.98219
4298 1 6.4077 35.9016 1.63877 4.51258 0.848215 3.78442
4299 1 9.11801 35.6191 2.26923 -2.72159 -0.227356 -3.71664
2209 1 22.8989 23.3952 21.7985 -0.543289 -0.483448 -0.594296
4305 1 5.02888 33.7397 9.47596 -1.00616 0.574152 -0.885534
4306 1 6.30265 36.0233 8.99005 -4.94918 -2.55046 6.52833
4307 1 8.89568 36.1357 9.80337 1.86281 -2.50988 -0.112479
4308 1 10.1815 33.6665 8.94016 -3.94241 -2.00625 0.807313
4309 1 4.60332 33.8478 5.07703 1.32239 0.791998 -0.549672
4310 1 6.01961 36.0097 6.24639 -3.0629 -3.09211 -0.482054
4311 1 8.51801 35.9171 5.03974 -0.804683 0.0759914 1.05722
4312 1 9.06237 33.605 6.43888 2.97714 1.39297 1.47975
4321 1 4.98511 38.135 2.6823 -0.768713 -1.25428 -0.952054
4322 1 6.13169 40.3991 1.78741 0.246937 -1.47971 -0.352527
4323 1 8.82673 40.2019 2.53882 -2.51844 4.58876 2.53898
3703 1 20.5491 14.7979 22.8481 2.64737 0.454179 1.40516
4329 1 5.12143 38.4097 10.2093 -1.03509 -1.25223 1.64233
4330 1 6.55439 40.7082 9.21964 -1.39526 -2.22401 2.2755
4331 1 9.35974 40.7849 9.55465 -0.232321 2.15406 -1.67328
4332 1 10.1601 38.2057 8.58144 -0.698434 -0.135366 -1.89379
4333 1 4.7865 38.0713 5.43519 -6.51768 3.75208 1.30711
4334 1 6.50454 40.1823 6.33377 -3.27532 -0.704239 3.04601
4335 1 8.98146 39.9131 5.09719 0.396611 -1.87992 -4.06142
4336 1 10.4986 37.7451 5.75506 -1.96488 3.64483 -3.92151
4345 1 5.31335 43.0769 2.71823 -0.606903 -5.21233 0.182965
4346 1 7.39241 44.971 1.94028 -2.49602 0.0555199 3.08626
4347 1 10.3527 44.4449 2.58413 -6.56047 0.23529 -1.55201
633 1 6.92634 12.1539 23.1188 -2.55052 -3.1126 0.833381
1823 1 6.84251 45.6157 11.5988 1.37538 -0.466512 -2.92458
3068 1 18.1699 22.1486 0.899855 0.593236 -4.72124 -1.82101
978 1 3.5983 16.4637 23.0624 -0.252351 0.0810498 0.0368623
383 1 11.3906 45.184 12.5769 1.13445 1.23076 0.685375
2600 1 3.92942 22.3192 0.636973 2.96627 0.419889 -2.80628
1518 1 0.675901 13.3935 21.8584 8.45963 2.11108 1.2106
2214 1 9.63353 11.1997 21.0502 4.10465 -4.68887 -2.10206
2409 1 4.17543 13.4722 13.9348 6.07855 1.5268 2.02584
749 1 0.892157 16.852 5.3592 0.17382 -3.46713 1.18331
3346 1 11.4935 46.2623 0.749808 1.55634 -0.268824 2.7336
2019 1 2.50824 24.9783 20.17 0.408813 -0.915598 1.66372
3358 1 0.269774 21.1761 10.4553 -2.37985 2.36574 -8.99408
84 1 19.2245 25.0847 22.9799 0.285101 -0.503543 1.10068
3457 1 18.9162 11.5204 20.6014 -3.18998 3.52798 3.81584
180 1 21.1761 20.6817 10.2687 0.0809463 5.06181 -3.05802
3334 1 21.5804 22.3488 17.2281 -1.70544 4.36651 -5.54224
1759 1 19.1834 13.1374 8.6992 3.83467 2.69365 5.08007
2487 1 2.26349 16.4333 1.09168 0.0909392 1.25682 -2.38374
413 1 23.4537 24.3223 5.02906 -0.606995 -5.10966 -2.03697
2824 1 6.79081 12.4092 15.1437 0.780996 1.11837 -1.49291
3199 1 14.8109 45.883 9.13889 0.247851 -3.42384 1.29474
794 1 6.40366 16.4729 23.1245 -4.24636 -2.47488 -2.75819
3476 1 0.443741 13.6112 12.9133 -0.712885 6.19814 5.98946
72 1 22.4174 15.0749 18.6495 -0.247635 3.40963 1.04724
3527 1 -0.359883 15.8394 8.1271 0.0424826 1.47673 -1.57516
3454 1 23.0159 21.6531 12.6245 1.8224 3.51407 -1.27513
475 1 22.1653 11.8848 23.8636 -1.60967 4.12295 6.48513
18 1 19.2659 24.6454 0.929782 -3.60036 3.71912 2.04948
819 1 13.6032 11.3479 20.0565 0.0630998 -6.38842 0.748336
2847 1 6.05316 15.0707 -0.150577 -5.42675 0.617943 -3.91586
1781 1 4.79205 20.7221 23.6016 -0.113568 1.70272 5.39678
1328 1 9.45236 11.2824 6.76729 -5.43697 -0.674794 -2.4012
1826 1 21.8373 11.3588 2.45377 -3.10145 0.869193 -0.408471
