ITEM: TIMESTEP
4000
ITEM: NUMBER OF ATOMS
4360
ITEM: BOX BOUNDS pp pp pp
-2.4496274730915111e+01 2.3687110630943579e+01
-2.4633487480257479e+01 4.7149923080257473e+01
-2.4095792540990395e+01 2.4087590941018320e+01
ITEM: ATOMS id type x y z vx vy vz
555 1 -12.1016 -13.9317 -1.19391 3.46318 1.49244 -2.31307
15 1 -2.79977 1.8298 -11.7059 3.9442 -2.70906 2.462
22 1 -11.7949 -0.201703 -15.6817 -4.70759 1.53477 2.92131
27 1 -19.0773 5.62327 -1.11216 2.88549 -3.78603 1.59521
29 1 -7.26723 -11.7981 -9.47578 1.31107 -0.844181 -1.19005
37 1 -11.1048 -7.73768 -3.00421 2.95574 0.303659 -1.95865
100 1 -24.0098 -14.5033 -23.1446 -0.452683 -1.03478 -3.38595
44 1 -2.49738 -17.2483 -7.36809 -1.62946 7.21542 0.787187
54 1 -17.2835 -11.3815 -12.0789 0.139683 4.19892 -2.08238
55 1 -4.01056 -3.62488 -14.19 -0.932651 -0.278183 2.58409
57 1 -14.6689 -9.86571 -4.03621 -3.72456 -0.968362 2.28083
66 1 -10.2387 -15.401 -14.1599 3.38348 1.8727 1.28613
75 1 -18.0178 2.6062 -10.9833 -2.55304 0.558323 2.00202
3064 1 -3.47733 10.6174 -18.5108 -0.907213 0.487333 8.36567
97 1 -6.7607 -13.3646 -21.4082 -0.696539 0.459409 -5.3384
3824 1 -8.87256 -24.3906 -5.85941 -4.17883 0.177786 -4.5256
1307 1 -16.9438 -23.6384 -4.61978 4.54465 4.24687 1.24188
112 1 -15.0653 1.06962 -20.3886 0.593062 9.26906 2.46621
126 1 -8.92806 -2.19078 -6.18673 -0.776102 -3.27659 -1.62163
128 1 -18.1377 -2.69957 -9.00659 -3.13016 2.95773 -5.49411
132 1 -7.94736 -4.9417 -23.3127 3.22212 1.02939 -0.126735
135 1 -14.1243 -5.44242 -21.1501 1.61257 -2.26865 -0.224959
2463 1 -12.8025 -20.0179 -21.8941 -5.39096 0.429055 0.188086
137 1 -10.9196 4.0848 -13.8966 2.90666 -0.0394131 3.10584
139 1 -19.4097 -18.4487 -15.0452 -2.47328 -3.31243 2.0713
143 1 -4.66742 -1.90551 -5.71749 -1.61821 -0.698485 -0.00262192
1228 1 -24.263 -19.636 -7.3916 -1.46107 -2.59248 -2.81493
149 1 -19.1495 -21.6578 -18.2348 3.26161 -4.68268 -3.14107
160 1 -5.5315 -16.4334 -5.1658 -3.21736 6.0251 -0.355115
167 1 -13.3573 1.09786 -1.84718 1.03211 -3.50618 -0.995237
170 1 -6.2138 -18.4308 -13.9616 -3.24224 -4.58148 -1.23449
174 1 -18.0456 6.51273 -21.6516 5.52846 -3.80557 -2.6987
179 1 -6.10649 -8.03549 -12.7555 -1.20381 -1.27588 1.0116
181 1 -5.99863 -2.43374 -20.5295 -0.715683 3.19324 1.41818
187 1 -11.1659 9.74403 -7.3568 -0.292297 1.66451 -1.05478
3378 1 -5.12883 -18.5052 -1.63136 -2.79213 -4.45249 2.29496
198 1 -9.66394 -21.1061 -18.4953 0.547144 3.68519 -4.80039
1432 1 -10.2892 8.8593 -24.1659 0.709504 4.5711 -3.02024
204 1 -7.26236 -14.3225 -8.44168 4.00032 -2.65441 -2.8445
206 1 -6.10505 -17.0337 -20.6745 -1.14851 -6.72756 -3.52103
3403 1 -13.4109 -22.1603 -1.58399 0.102286 -1.2542 5.54385
213 1 -20.8555 -20.0154 -2.40216 -1.60344 2.08214 3.52494
221 1 -14.5001 3.44724 -1.28246 -5.09426 -0.227836 -0.923941
3082 1 -2.68866 2.11283 -23.5016 -0.393798 -0.486372 2.51811
235 1 -23.3766 -1.06579 -8.83081 3.99482 2.6956 3.80936
242 1 -8.52778 -3.36976 -13.7089 0.164403 -0.344157 0.157819
248 1 -17.1206 6.21687 -12.6326 4.1212 -2.92346 2.22457
251 1 -21.4183 0.173775 -23.1941 -0.84231 5.12608 0.0237992
253 1 -1.99686 -3.23591 -21.3633 -1.86966 0.231697 -2.89021
256 1 -10.0905 -6.66858 -10.3678 -2.73171 0.0759045 -4.43775
257 1 -2.15277 4.34775 -21.4436 2.96234 -5.22425 2.38885
258 1 -5.39234 -0.0136056 -7.98885 5.66845 0.340063 1.23288
263 1 -20.3658 8.60062 -5.78852 3.047 1.13605 -1.80259
269 1 -19.6864 -7.14668 -15.6575 -0.382883 -1.01749 2.45413
753 1 -16.4688 -18.0317 -23.429 3.74998 -1.3678 3.92463
280 1 -3.70698 -19.329 -12.4541 -3.53116 0.286029 -2.94349
283 1 -2.58273 -22.1739 -19.8789 -0.00521481 2.12295 2.02756
290 1 -5.76888 -12.364 -15.884 -1.19212 3.84791 -1.79717
2596 1 -13.957 10.7868 -19.6475 -3.68042 1.44061 -2.98826
303 1 -21.6328 -18.4804 -7.05463 -1.55607 3.00213 -1.26205
312 1 -7.7885 0.718513 -6.62755 -2.70502 -1.92979 0.802619
313 1 -17.8817 -16.9793 -13.3471 1.63597 -0.425575 0.70933
314 1 -13.4293 4.7459 -8.19067 4.75921 2.14487 4.40792
317 1 -9.94509 -11.7853 -23.4674 -1.09731 -4.38147 -3.04975
321 1 -19.8696 -12.1876 -13.3833 0.120464 -4.43863 -3.50063
3306 1 -9.05793 9.8319 -21.5973 -2.28236 -2.1578 -2.75502
339 1 -4.36226 -14.8592 -22.2712 -6.45895 3.15367 -0.327714
340 1 -14.2156 1.43127 -16.8535 -2.53019 -0.555688 0.450579
341 1 -8.49714 4.44923 -11.8857 -2.59114 0.68126 0.991828
1634 1 -18.8031 -8.77751 -22.8067 -3.01032 2.89442 -3.45699
343 1 -1.61678 -13.4679 -5.23282 -5.82721 4.55775 -1.36759
356 1 -2.15886 -19.2044 -20.3266 1.48276 -4.46591 -3.04817
359 1 -14.5304 -21.8376 -10.3813 0.418861 0.837838 -1.19234
2835 1 -4.16949 4.96711 -0.198384 1.47146 -3.86894 -0.725965
364 1 -10.4235 1.77078 -6.92371 0.445993 4.85962 2.36281
366 1 -22.9437 1.60866 -9.37957 1.07071 0.881702 0.9486
376 1 -3.71199 -14.3153 -16.6856 -0.140194 8.7456 -0.814775
190 1 -15.9608 10.5752 -10.5954 -7.41574 -0.815472 2.65449
393 1 -11.8044 -19.3868 -12.8114 1.7116 -3.54725 -3.29842
294 1 -7.88473 0.923888 -0.391715 -4.30719 -1.50831 4.03023
1828 1 -13.7815 -24.2221 -22.4687 -1.94332 0.693486 -4.74735
1475 1 -23.5285 -24.1988 -3.22528 2.3021 -1.66585 0.368872
970 1 -3.33319 -23.7302 -8.04596 -1.99526 1.27643 -5.98648
415 1 -16.0402 5.96153 -7.24213 1.4562 -5.71537 0.516656
421 1 -16.0013 -23.4289 -14.3032 1.20903 5.64959 -2.00871
426 1 -15.4252 -4.25599 -9.52664 2.00155 -2.70671 3.3933
429 1 -7.20722 8.50465 -12.9138 -4.37126 -3.27885 -2.05283
433 1 -19.8302 0.176523 -16.4726 -0.250814 0.527074 0.166975
434 1 -12.6062 -3.18656 -11.7531 -3.06948 -0.312799 1.35173
436 1 -14.8454 -10.0033 -10.5034 1.61208 -3.76795 0.709755
438 1 -16.784 6.17691 -3.40948 3.33552 1.32457 -0.951008
444 1 -23.3924 7.73466 -17.5091 1.18347 0.52832 -0.464509
454 1 -6.46184 0.187222 -13.4511 -4.65937 0.956726 -2.47307
470 1 -20.3519 5.83475 -9.04459 0.631866 1.7909 -1.17632
476 1 -12.7711 -5.77994 -3.89783 -0.65932 -2.56089 -1.6271
477 1 -10.891 -10.3489 -16.0969 2.67926 -1.85984 -1.50757
481 1 -2.1719 7.00397 -20.4076 2.0642 -3.87161 2.45736
492 1 -13.1673 -17.5125 -11.0733 -3.95784 0.511648 -0.37679
2070 1 -24.2063 0.226715 -1.5078 -1.64157 -1.37655 0.185401
2483 1 -1.65363 10.0622 -11.6718 0.0487999 0.164648 -0.708332
501 1 -14.9 -12.364 -7.15227 5.18329 -0.654236 5.72727
1892 1 -1.97907 -12.3173 -18.1134 -1.2874 -1.38666 -3.09849
231 1 -23.937 -3.28642 -22.2585 -0.772255 -1.07149 3.02735
517 1 -15.9804 -1.58951 -21.4542 1.80217 -4.26639 4.00095
519 1 -20.2723 -13.9382 -7.61307 0.722378 0.112533 -0.749289
520 1 -5.37818 -22.6842 -12.7242 -0.0996713 0.961418 1.72162
523 1 -11.2559 -13.7904 -9.11345 4.05419 3.33959 0.413326
525 1 -5.24071 -0.874537 -3.29428 -0.724808 2.25103 -5.28623
532 1 -9.34092 -3.04745 -3.321 -2.77046 -0.252596 1.5355
544 1 -4.98286 -19.1748 -19.0737 0.850065 -0.0296782 0.573091
546 1 -6.23276 -14.3781 -13.5562 -0.567296 2.44768 1.64362
2784 1 -11.0225 0.791622 -0.293472 1.217 0.681691 -1.66947
575 1 -13.8286 5.44509 -3.24167 -2.27938 1.40914 -2.41745
580 1 -6.61348 4.08967 -20.6302 6.04545 0.713692 -0.355649
582 1 -2.93592 -14.7796 -19.6752 0.647081 3.71516 3.33454
1789 1 -23.3562 -0.899351 -5.00769 -4.21333 1.00161 -2.00123
1796 1 -22.3204 -10.3166 -23.7527 -1.42571 -1.55856 2.93949
3404 1 -16.8448 -9.23178 -0.0719409 -6.1795 0.304798 5.05788
603 1 -6.93593 7.67886 -3.73327 -5.23342 2.18518 1.44918
611 1 -2.31428 -9.95513 -7.46277 -1.53227 2.77376 3.61432
614 1 -17.105 -9.68611 -5.38322 -1.50024 -5.58122 6.52064
624 1 -7.8 1.86636 -21.6951 -2.85444 -1.73583 1.40301
626 1 -4.11443 2.85882 -19.8526 3.1549 -0.958486 0.184908
3200 1 -22.0863 -5.09998 -5.08665 -2.05092 -0.181831 -1.17844
629 1 -5.45847 9.35126 -8.68748 2.17749 -0.202388 -2.05515
636 1 -21.9998 1.83417 -17.2254 -1.71225 9.02433 1.33669
1024 1 -4.09918 7.22708 -22.7536 -1.73451 2.8086 2.16412
639 1 -10.7156 -17.7131 -21.1401 2.54146 -4.10947 -0.606421
645 1 -8.21403 -7.15013 -19.5396 -0.318312 -0.534416 -1.36047
651 1 -21.5345 3.91316 -10.7302 -3.00336 -2.64301 0.532053
652 1 -5.54537 -3.18283 -17.7819 1.30315 4.58868 2.85656
2859 1 -23.4551 -22.2887 -20.5653 1.84587 0.65488 1.49387
654 1 -11.1543 -1.65382 -18.1007 1.01554 -3.13175 -0.0472207
655 1 -3.78899 -11.2706 -13.5912 4.24976 1.16025 -0.633328
661 1 -18.8093 -6.16391 -18.8496 -0.408137 -5.04261 -1.83497
663 1 -14.0061 -20.1605 -8.15389 1.23354 -0.0558442 -0.998731
666 1 -7.11567 -5.43199 -12.1471 -2.62019 2.62856 4.64347
1580 1 -17.5215 -23.3064 -7.4775 0.510123 -0.612011 2.96798
821 1 -22.95 -23.7492 -22.8066 2.89416 0.487785 -3.85015
674 1 -9.78162 -0.272401 -21.7578 0.73486 -0.493665 -0.4131
675 1 -20.7012 -11.216 -8.95703 -1.90446 -0.00489958 -4.51066
959 1 -13.5767 -18.284 -23.8511 -1.69139 2.67234 -2.84116
679 1 -17.6353 2.13566 -7.20937 -4.65221 0.384369 0.108096
3965 1 -5.57435 -0.753654 -0.435842 1.47658 -1.26843 -2.3561
688 1 -12.2708 -12.3597 -13.311 3.93531 -0.287008 0.461591
1383 1 -7.15777 -24.5643 -14.3385 2.16224 0.0507992 -1.62169
709 1 -7.9623 -3.83915 -8.34229 -0.376379 2.87714 0.149025
711 1 -15.9174 -5.32455 -14.1871 -4.53936 -0.0560099 7.04756
717 1 -11.0092 -4.51335 -13.821 -1.62676 2.81084 4.22641
721 1 -8.25094 -9.04693 -15.579 0.875468 4.01585 -0.954781
741 1 -17.0654 -20.4358 -11.0176 2.32237 -4.42081 -1.43387
3267 1 -18.5117 8.82255 -0.566387 -1.07979 -3.42264 -0.896426
756 1 -5.18196 -3.5308 -2.47075 0.233223 3.0372 -2.33826
761 1 -9.62048 -11.7912 -7.64642 -4.72715 -3.83159 -2.40453
780 1 -6.05569 -8.80121 -21.9738 1.51494 0.950241 -1.41057
796 1 -9.66715 -12.7092 -14.8823 -1.05612 2.03965 -1.63096
798 1 -14.7841 1.20746 -7.13908 -2.85589 7.20192 -0.334383
808 1 -2.00036 -18.2121 -10.2736 2.70197 -0.157433 1.7799
810 1 -20.8974 -13.4312 -4.76228 -0.339809 2.31635 2.95065
811 1 -12.1917 -7.06729 -8.70233 0.182402 2.72525 1.60146
2646 1 -3.58998 10.1346 -2.08434 3.75588 3.73638 0.978428
1354 1 -2.67551 -5.36706 -16.8485 -0.582374 5.14593 5.42674
2848 1 -17.7349 -24.6008 -10.2514 -1.55178 0.444721 -1.67397
826 1 -11.3943 6.60296 -2.08323 0.786607 3.2378 -2.23457
833 1 -9.91402 -5.38631 -6.0375 2.82084 -1.49575 -0.312556
837 1 -21.2718 -15.916 -3.63646 3.32962 -3.75004 1.59165
842 1 -6.31529 -23.0108 -1.76193 5.43498 -0.322014 2.28786
2930 1 -21.9178 4.80936 -0.549595 -2.47287 -0.0192452 2.54801
856 1 -21.0753 -2.61243 -9.19269 1.25099 2.73375 4.47153
3989 1 -16.3488 -9.75362 -14.1185 -1.74272 3.17562 1.9632
872 1 -3.70438 -8.32823 -20.3789 -2.12444 -4.8428 -3.55345
2945 1 -7.27024 11.0039 -10.2292 5.28094 1.16606 -1.5412
882 1 -12.1619 -3.29893 -2.71438 -1.49401 0.162037 -0.29123
885 1 -4.83912 -19.1664 -4.54116 -0.979766 5.26582 2.30601
3614 1 -0.853644 -5.83569 -4.84526 0.752015 0.79072 0.0206568
900 1 -13.4751 -14.5118 -11.7897 -4.05269 0.680514 -0.462258
904 1 -9.05039 -7.83396 -6.54091 -4.25056 1.78295 1.45762
907 1 -16.2755 0.934975 -9.37354 -1.57972 2.748 0.72576
910 1 -9.58183 4.28725 -3.20269 -4.81666 -1.74877 2.34169
922 1 -10.7712 0.82759 -19.3741 -0.510927 -7.19672 0.314587
929 1 -7.56131 -13.7606 -3.38267 1.6565 -1.35067 3.94299
930 1 -21.6489 -18.7281 -11.8543 -0.360023 -2.62403 -6.79101
939 1 -8.08333 -13.8713 -17.0378 -0.9287 0.993367 -0.924012
942 1 -5.60937 -14.711 -18.7813 -7.09808 -1.85901 -4.2613
948 1 -20.9838 4.15571 -6.44829 0.393707 -5.36256 -4.34103
1387 1 -18.0292 0.544688 -1.70941 -0.558723 -2.62551 -3.48266
956 1 -14.0456 -5.43083 -11.9566 -3.14388 0.171774 -1.41472
962 1 -3.96286 6.93658 -4.05358 3.08354 0.37041 -2.57417
3231 1 -17.9683 -16.9164 -0.398406 -2.19539 6.12283 0.838351
847 1 -13.7666 -24.5613 -13.0602 0.457853 2.55086 0.604745
2396 1 -15.4696 -20.3292 -1.73113 -3.33911 -6.86218 -1.59666
1001 1 -19.6825 -4.74131 -7.5174 -5.19094 0.00563202 2.47941
1010 1 -14.0846 2.78628 -10.2886 -0.514623 5.41475 4.68296
3768 1 -1.55756 6.41815 -14.8555 -2.82785 -1.4292 -1.30715
1022 1 -9.67297 -22.3545 -11.291 2.4798 0.669432 3.56868
342 1 -0.658611 -15.4769 -10.2736 -0.00282551 -1.03474 -2.87661
1028 1 -6.5651 -10.5227 -13.8476 -3.27549 -2.14293 -1.90434
1030 1 -16.9747 -16.2341 -21.3909 1.98161 -0.442346 1.80266
1031 1 -2.15607 -11.9809 -2.72248 -1.66253 1.64161 -1.29627
4103 1 -8.063 -23.3644 -8.67294 6.59076 0.644304 -2.10328
1041 1 -3.28467 8.12183 -13.3973 -1.95173 0.468081 -0.507038
2494 1 -13.0822 -15.6521 -23.2049 -0.964799 -6.25546 -3.91027
1052 1 -21.8586 -3.10102 -20.2491 1.15932 0.100459 2.50754
1057 1 -7.54372 -16.1673 -15.1495 -1.72278 -0.639747 3.83259
1080 1 -19.3196 -8.00711 -9.5487 -1.29537 -2.79019 -5.33146
1082 1 -17.1269 -17.0671 -5.34137 0.209578 -0.703091 0.761543
1084 1 -2.54411 -16.0598 -4.68125 0.685269 -2.81272 1.90371
1085 1 -10.9405 -13.4947 -5.29756 1.82502 -1.64607 2.93246
1086 1 -10.4213 9.25298 -2.25608 -4.12779 -0.831785 1.75978
1090 1 -22.0964 -21.026 -10.3075 2.23822 -0.450207 4.87643
1092 1 -19.9366 -18.3216 -4.68035 -4.45049 0.731784 -3.42813
1120 1 -5.49448 -15.7894 -2.42081 -2.74244 0.17456 -3.69575
814 1 -19.3089 -1.9375 -1.48143 4.152 0.660683 0.69316
3977 1 -10.1765 -17.8117 -17.1668 -3.66123 0.863453 0.752307
1136 1 -20.7482 -20.8209 -20.6108 1.1999 1.73054 1.21269
1160 1 -8.76086 4.93287 -7.70315 -4.17873 -7.52502 -1.52471
1512 1 -10.1905 -11.8576 -1.46393 2.45417 1.7026 1.94869
1172 1 -21.9887 -14.8541 -16.092 1.99086 -6.26524 -1.7004
1174 1 -23.0976 -20.4135 -16.617 -2.23521 0.894864 4.50834
1571 1 -0.690049 -10.9631 -0.499417 2.8248 -3.53753 -3.25805
1191 1 -1.79582 -1.24783 -18.8494 2.47928 -2.71258 -6.60469
1192 1 -14.7635 -1.35195 -10.2761 1.51336 1.43493 1.85465
1199 1 -12.6965 4.91247 -11.7756 -2.88668 1.79932 -1.02286
1202 1 -15.2399 -0.958663 -5.35023 1.5185 0.224777 -5.32972
1203 1 -16.6769 -10.6072 -16.7888 -1.56114 2.11173 1.88995
1502 1 -24.0469 -6.59649 -6.50974 -2.95961 -5.11147 4.19446
1230 1 -14.4262 -17.249 -8.49431 2.0373 2.98842 -0.800304
1231 1 -17.7662 -10.4474 -9.46257 -4.62129 -2.0245 4.91266
1233 1 -2.79089 -0.115495 -21.4745 -2.54725 -0.350371 -1.4125
1245 1 -19.4081 8.98661 -21.0763 2.43051 4.07506 2.72059
1247 1 -1.9825 1.63851 -9.08262 3.54701 0.356587 4.40314
1257 1 -5.37743 -22.6002 -9.8391 -4.39941 2.40127 -1.19689
1263 1 -14.8989 -7.32093 -2.85868 6.11869 1.37323 0.757585
1264 1 -21.5593 -11.2035 -2.81475 0.51022 1.53468 0.945929
1268 1 -22.6351 -10.9346 -18.0384 -5.58688 4.38144 -0.0862466
1276 1 -2.55845 -9.99376 -22.4336 -0.678845 -0.237528 3.1149
1286 1 -6.45627 5.16496 -15.5638 2.21611 6.98763 -2.40715
1299 1 -11.3259 -9.51675 -7.6966 3.11412 2.36192 -4.37368
1302 1 -4.5739 -3.68879 -22.5637 2.24336 2.68236 -3.52909
1303 1 -6.75028 -7.2308 -17.2313 3.25593 3.84023 -5.21164
3662 1 -0.721714 -0.343415 -23.6472 1.89209 -2.43403 1.56452
1011 1 -17.2272 3.2508 -1.15651 2.56597 0.615329 -3.72995
2995 1 -3.88143 8.82808 -6.24051 -0.281641 3.88091 0.656633
2236 1 -23.6555 4.00321 -16.13 2.64781 -0.926054 -2.84288
1315 1 -20.4085 -11.3288 -21.9681 -0.403626 1.73799 -2.12627
1317 1 -11.4321 9.28422 -11.3847 -2.09555 -1.17163 -5.98583
1324 1 -10.1089 -21.5963 -21.488 4.6303 -0.455927 0.496269
1326 1 -19.8437 -17.8723 -19.6618 0.646098 -5.23171 0.793318
1331 1 -20.0939 1.96522 -3.30401 1.24576 -2.33462 5.02978
1343 1 -8.7274 -9.05825 -9.41127 -5.99517 0.403823 1.78031
1345 1 -22.0054 2.10503 -20.0719 -2.66259 -0.347074 -0.302884
1347 1 -18.0306 -11.8927 -20.0471 1.65939 3.04443 1.19833
1350 1 -15.6245 -0.593501 -2.70279 -0.0798056 2.9081 0.714548
1356 1 -18.7946 -11.8294 -2.10156 4.11676 -0.6932 1.82701
1357 1 -22.5499 -6.66222 -10.3848 2.149 -3.19934 0.740166
1363 1 -15.7428 -10.4977 -21.208 -2.67791 3.39265 -6.27784
1371 1 -21.2127 7.6895 -1.14429 0.395707 0.0441035 0.815689
2248 1 -0.797359 -8.51725 -13.6336 2.75583 -2.48192 3.35909
3972 1 -4.77071 -8.0193 -10.3179 -3.50598 0.0188008 -1.93267
1399 1 -1.75929 -24.0255 -2.64033 -1.13817 -2.73942 1.52841
1402 1 -19.5915 -4.25754 -16.6944 0.91414 -2.27859 0.789933
1406 1 -5.62047 2.17691 -11.4272 1.67695 -1.29015 4.39178
1407 1 -24.1028 8.1484 -1.67035 2.93554 -2.96893 2.18441
1408 1 -0.966439 -5.72462 -14.5697 0.213061 -0.867685 7.06836
1413 1 -12.8494 2.70636 -19.229 3.9239 0.323095 -1.11334
1422 1 -13.8413 -19.5371 -14.638 -2.45292 -5.79035 0.581218
1431 1 -9.90205 2.77236 -9.75505 -5.20914 -0.886082 3.04909
1433 1 -19.7141 -9.10582 -17.9693 0.228353 -1.8429 5.69757
1436 1 -17.0961 -3.39182 -15.8321 -1.53487 8.87391 1.75266
2194 1 -19.8165 2.62319 -21.7528 1.08007 3.91377 1.59604
1439 1 -18.5588 7.64974 -10.6345 -2.73632 -1.59001 3.91549
1442 1 -21.3102 -7.96872 -4.79756 -4.78867 -2.49295 3.26587
1450 1 -3.35245 -5.56299 -9.20503 -0.803656 3.82379 3.70263
1452 1 -7.18864 -22.8518 -16.4891 1.2197 0.828326 -0.126273
3756 1 -12.26 -23.493 -20.0159 4.08633 -0.142517 3.55322
1455 1 -13.7666 -18.1183 -2.74991 0.210991 -0.41615 -2.21017
1457 1 -18.2276 2.80052 -19.0464 -0.697106 2.10869 1.57876
1459 1 -9.46344 -11.3795 -4.09249 3.10919 0.764276 1.23209
1460 1 -14.0564 8.69618 -10.438 -2.9602 -2.38817 -1.93945
1466 1 -17.3745 -6.41782 -3.82152 -0.0770619 -4.38417 1.21361
1471 1 -2.21178 -4.76354 -11.9722 4.31182 -0.0276371 -3.57889
2893 1 -10.0251 -15.6916 -23.4478 2.08532 0.582237 2.90204
1487 1 -4.30862 4.15039 -17.4672 2.85684 -0.184844 -3.53626
1490 1 -21.6949 6.52425 -4.01387 3.39502 3.13948 0.628253
1493 1 -5.16409 -6.49636 -15.1186 4.66413 3.87637 3.56215
1494 1 -9.51694 4.96654 -18.542 1.0547 2.80619 2.9274
1496 1 -2.99387 10.7694 -9.23936 -0.878233 -1.12711 2.84977
2257 1 -1.02625 4.02807 -7.34362 -3.96763 -0.313799 -0.469628
1504 1 -3.30488 -24.0846 -5.30325 4.97338 -0.573375 -3.4665
1927 1 -7.4414 -24.4788 -20.6639 4.75208 -0.9121 -4.22625
1514 1 -12.7477 -5.51503 -6.64004 -4.60225 2.17301 2.64739
1522 1 -13.4866 -1.34636 -13.7888 -0.833353 -0.00141765 -2.50286
3343 1 -23.474 -5.20904 -17.0036 -4.14857 2.53038 2.423
1540 1 -20.5131 5.25442 -22.3067 -0.433281 0.592302 -1.69772
1550 1 -1.89765 -7.64903 -10.8241 1.82164 -0.553671 4.60314
1554 1 -6.30555 -5.81149 -21.1028 -0.690264 -0.106265 2.05772
1555 1 -19.7912 -3.49198 -4.97589 -1.40602 3.52804 2.03131
1570 1 -23.0961 1.55138 -12.5276 -1.3889 -0.974042 3.76664
2009 1 -4.23865 2.08864 -0.714978 -0.874027 0.519212 0.0111296
2015 1 -0.83323 -7.59171 -2.68197 -2.62495 -5.90663 -3.67419
3736 1 -24.0486 11.1324 -9.83778 4.17778 -1.43697 -1.46988
1589 1 -11.1834 -20.6272 -2.84527 -0.607894 -6.97448 0.198005
1596 1 -3.19828 -2.09013 -16.5638 7.51752 -4.65369 4.52165
1602 1 -21.0917 -12.6437 -19.6231 -0.696511 -4.8076 -0.846851
40 1 -2.78552 2.781 -15.5456 -2.41434 -3.12817 -3.2524
1615 1 -5.02018 -16.0854 -8.02259 2.669 -1.91118 3.53831
1617 1 -16.2124 -14.0007 -12.3114 0.674632 2.49979 1.01833
1632 1 -6.19589 9.05318 -21.8304 0.360125 -1.93319 -2.21476
2922 1 -16.2769 -20.8718 -22.4401 -3.69659 -2.36554 1.7818
1640 1 -18.0668 -22.8133 -12.3018 5.34974 -1.57861 0.0387544
1645 1 -2.37936 -7.155 -6.91205 0.545166 2.32428 -2.59205
1646 1 -22.8534 -6.75933 -19.274 -0.169652 1.24907 -0.249204
637 1 -9.31145 -23.959 -22.6787 -0.667017 -3.2386 6.91964
1649 1 -18.816 -6.06521 -11.5156 -0.78893 -2.09905 3.66669
1662 1 -9.56538 -20.8456 -8.86687 -1.8086 -5.20161 1.16891
1663 1 -14.4611 -2.61558 -1.12507 -3.26776 2.44171 1.0991
1676 1 -19.8129 0.534716 -6.05102 -1.67362 6.16429 0.658507
2347 1 -14.1779 8.70248 -15.1421 -3.34904 -1.48464 3.90696
1681 1 -15.9195 -8.31024 -23.1695 -3.04016 -4.07152 2.59436
1688 1 -19.6759 -1.94858 -12.818 -1.71569 -5.31955 -2.18985
1694 1 -15.4429 2.42998 -12.6652 1.57616 2.66554 -4.01167
1710 1 -12.0045 -21.9385 -15.0901 0.164036 -2.60142 -0.474116
1289 1 -23.8648 -11.8106 -11.1821 0.205031 3.04144 1.18654
1725 1 -15.1539 5.71901 -15.5513 -0.189465 -0.640478 3.03602
3959 1 -20.6984 -5.50126 -20.5904 5.5073 -1.50867 -3.57223
2936 1 -23.16 10.8244 -5.66478 -1.0146 -0.288667 -1.22626
1737 1 -17.986 -1.64769 -6.21608 -1.80873 -0.94158 -3.03923
1753 1 -22.4313 -14.8993 -20.9509 0.196569 2.50092 0.824915
1755 1 -7.84532 0.779429 -9.7527 0.914652 0.808846 1.77881
1760 1 -15.4359 -14.1382 -22.7454 -6.00179 0.6666 -0.755371
1778 1 -17.7109 -7.50473 -13.9749 -4.94788 2.86652 6.34542
1782 1 -22.2845 -13.6297 -9.5205 -3.03328 -5.3213 1.76972
1785 1 -7.66408 7.5991 -7.23331 -2.83507 -2.8676 -3.00454
1786 1 -2.65845 2.34615 -5.53884 0.311515 -3.35996 0.429694
1680 1 -23.6094 -17.4009 -20.4158 2.38275 -2.51238 1.58307
1562 1 -0.814228 -5.54601 -0.280974 -6.28586 -2.22429 6.35123
1801 1 -11.9643 -18.6343 -5.10406 -1.72381 -1.65424 -1.79057
1802 1 -17.5078 -20.2415 -8.22568 0.644065 5.40697 4.23257
1804 1 -3.3079 -21.573 -14.0967 -0.527771 1.83698 0.832333
1812 1 -10.8928 -3.80529 -20.2676 -1.05246 0.719269 1.20383
653 1 -24.2297 -17.9957 -12.8836 -2.71377 2.93878 -3.79179
1830 1 -17.1351 1.50815 -16.3961 -6.03749 -3.49116 3.77597
2619 1 -1.60107 9.01253 -22.4717 -1.4462 -4.06866 -0.947256
1851 1 -6.93607 3.73454 -0.58284 -2.6768 3.25166 3.55232
1861 1 -15.3454 -21.3757 -16.2791 -2.12356 -2.03978 2.92213
1862 1 -10.6984 -4.00857 -9.83194 -5.41386 2.03955 2.65712
1863 1 -3.62942 -12.5151 -6.97662 3.65448 1.74616 -3.49988
1872 1 -2.45729 -11.6131 -11.0506 0.259066 0.654578 -4.82928
1874 1 -8.61323 -15.4249 -20.6612 3.02667 -1.86232 -2.43953
3973 1 -11.5914 -21.0348 -6.7461 -2.37071 1.74117 1.03711
1876 1 -22.3092 8.87745 -19.9544 1.89759 -3.02848 1.20576
1879 1 -20.0446 -16.503 -17.1124 -1.15175 -0.32321 2.92034
1883 1 -7.30024 -10.9886 -6.00302 4.39511 -1.57942 -3.28275
1888 1 -9.74972 -18.3253 -14.3883 -2.96911 -3.99129 1.67398
3618 1 -0.277063 -9.92904 -9.44432 2.22043 1.61441 0.108779
1959 1 -23.8242 -3.63011 -1.76268 4.48923 1.90315 -3.5599
1901 1 -10.3865 -13.8544 -18.7378 -1.72233 0.0430485 -3.15596
1905 1 -15.2103 9.57171 -6.11759 3.03633 -4.12558 -2.83368
1918 1 -19.8066 -1.41902 -21.3192 -3.40884 -3.5872 0.245464
993 1 -23.9655 0.484324 -21.6277 -2.0542 -0.236781 -0.285013
2306 1 -0.902122 -3.25486 -24.2154 -0.24085 0.435729 -2.70858
1930 1 -6.26798 -17.2922 -17.3475 2.82311 2.0179 -1.70603
400 1 -23.5502 -16.5593 -2.1485 -2.4972 4.76307 -2.00255
3968 1 -1.44321 4.82014 -1.81726 -1.72717 1.66286 -6.39263
3945 1 -21.6181 -12.1791 -15.6521 -1.21323 0.523175 -1.37987
1944 1 -21.3288 -22.7393 -2.31413 2.92581 -2.99829 -0.218693
1949 1 -7.07284 -6.48071 -9.35555 -5.3167 3.16492 1.94058
1960 1 -15.8807 -5.32136 -18.8581 2.71826 2.14731 0.570196
1966 1 -18.988 -18.1092 -10.8142 -4.14624 -3.02515 1.55824
1980 1 -21.5465 5.96503 -19.4653 -2.55309 -1.70682 -1.0175
1996 1 -10.2202 6.52482 -22.664 6.75462 2.37801 -7.89931
2001 1 -6.59822 -8.71049 -1.5757 -0.07176 -1.0526 -5.11278
3688 1 -10.5592 -23.1737 -0.403072 -2.72814 -0.17841 5.38666
1724 1 -19.5938 -23.6757 -4.24907 1.32575 -0.20046 0.300407
2016 1 -6.16874 -13.4548 -5.99694 0.731229 -0.864588 2.46668
2031 1 -7.80583 -20.9199 -12.7054 2.9326 -2.62805 -2.47537
2034 1 -8.16516 -1.81222 -16.9933 -2.54909 2.73833 -0.638183
2036 1 -12.873 6.11314 -22.4638 -1.16558 2.71481 -0.21117
2040 1 -5.79813 -23.3349 -4.5432 1.66807 -0.915296 2.06509
2050 1 -11.0693 5.6254 -9.39712 -0.457819 3.71769 -9.06116
2051 1 -21.8722 9.67294 -3.28548 0.558 3.79899 -2.04022
2052 1 -10.2128 3.20529 -20.9967 -1.01971 -2.3561 0.294764
2060 1 -8.14641 -0.498815 -4.01654 2.33301 -4.73507 0.463351
1941 1 -0.76189 -23.1993 -11.1982 -3.88678 1.82249 -1.94161
2063 1 -11.017 -11.1074 -18.6857 -5.98019 4.00873 -1.27
2068 1 -13.8324 8.37399 -4.00831 2.77353 -1.0039 -5.01744
3994 1 -15.0886 -19.9351 -19.9077 -2.36466 2.57991 6.29026
2073 1 -18.4668 7.73247 -14.7017 0.449802 -0.113287 -0.685587
2078 1 -13.7448 1.21883 -23.0471 -1.40375 -2.20895 3.22529
2468 1 -22.9881 -24.1735 -6.04187 -3.26761 0.933846 3.20069
2085 1 -20.3397 -20.748 -8.16374 3.84844 1.8795 -2.28279
2087 1 -10.5207 6.09454 -15.9948 -0.596982 -0.950464 -2.05291
2098 1 -14.4301 -17.2613 -5.46848 -2.07611 -1.76293 4.84615
2106 1 -19.8404 -15.9908 -21.7358 -5.65919 -0.200553 0.796035
2107 1 -7.52445 6.23319 -9.79539 1.55172 -0.72186 3.33033
2118 1 -12.6099 -1.43884 -4.93067 0.367008 2.45193 3.44519
2128 1 -18.0564 -19.3998 -1.38385 1.90241 1.4884 0.23886
2130 1 -22.3406 7.62864 -7.53014 3.41362 3.82337 1.47149
2139 1 -8.63964 2.33758 -18.0242 0.498802 0.142175 -0.344375
1897 1 -12.8055 -23.8819 -6.25147 0.988448 -1.55644 -3.93658
2167 1 -14.7482 -12.3206 -17.8577 -2.94131 -2.22376 3.82075
330 1 -14.029 -21.743 -23.9267 1.01813 4.65065 -0.550453
2195 1 -10.614 -18.5126 -10.1733 3.64811 -2.55498 2.79249
2196 1 -2.45909 6.15846 -11.1504 -2.01633 3.47911 4.86101
1329 1 -24.4728 -12.7478 -1.66522 1.03873 1.88452 1.14272
2206 1 -3.02112 -8.87209 -15.3132 0.620905 0.618429 3.13214
2207 1 -22.0969 -8.33143 -2.04321 -6.75276 0.343246 4.19552
2211 1 -16.8562 5.11717 -19.4973 -4.2813 -1.27146 2.60348
2212 1 -17.1671 -5.54768 -6.48472 -1.8044 2.54468 -0.572532
2228 1 -8.97821 -9.26248 -22.8612 -2.85812 -3.25749 5.44717
2233 1 -9.55523 2.11616 -15.292 0.221543 -6.00561 -2.73141
2234 1 -3.93638 3.89616 -3.10072 1.57981 -2.35575 2.21919
2241 1 -23.3777 -2.35508 -17.9325 -1.46831 -1.15926 -2.51568
3540 1 -4.42368 11.244 -4.89082 -2.01099 3.33615 0.495085
2251 1 -11.9428 -7.08475 -12.7394 1.34729 2.71337 -4.44213
2295 1 -12.5975 10.8082 -24.0735 -5.20632 3.67958 -3.26869
2267 1 -10.0575 -15.1558 -2.9369 -0.84021 -0.622281 0.0726154
2278 1 -13.6292 -14.5194 -5.54079 -5.00586 -0.705824 -0.538244
2292 1 -12.0272 -9.68822 -4.89672 -1.93319 2.90099 1.6474
2294 1 -20.5846 8.42604 -16.9844 2.63157 0.147862 -2.5468
2296 1 -22.2642 -8.27242 -16.7071 0.825718 -3.43124 0.886354
2298 1 -1.89618 -21.6666 -4.989 -0.857199 -2.97791 1.93442
2317 1 -4.58964 -10.6372 -9.08642 1.16433 2.34765 2.35563
2328 1 -8.36457 -8.65455 -3.73808 -1.48781 -0.505782 0.126315
1161 1 -8.88611 -23.9492 -18.3211 2.57279 1.62781 -2.6984
2361 1 -21.4636 7.47144 -11.436 -6.41365 -1.72154 0.356226
2368 1 -7.4436 -19.2513 -7.73249 3.23991 5.06504 -3.77399
2370 1 -21.9978 -9.95741 -6.83298 -5.17796 -2.10116 -0.394144
1293 1 -7.67176 -2.80945 -1.06097 -0.249422 1.50402 -0.933614
2374 1 -5.0604 7.80519 -1.3938 -1.24086 5.01603 3.51933
2377 1 -4.49831 -8.64388 -5.50003 -1.88691 -2.33182 0.530479
2390 1 -21.2789 -7.16088 -7.88534 0.636905 -1.60796 -0.170525
1510 1 -14.2253 -12.1657 0.0743026 1.26175 -1.79331 5.9638
3886 1 -9.61089 -15.2308 -7.104 1.35742 -1.03902 -6.00469
2404 1 -20.3172 -6.00369 -23.2404 2.76301 -2.14873 -0.473513
79 1 -24.2451 0.109403 -16.8658 0.982388 0.134018 -0.925912
2408 1 -23.9775 -3.30883 -12.9607 -1.13641 -5.08371 -3.78199
933 1 -18.9058 -21.5664 -22.4039 3.20817 -2.31941 3.85437
279 1 -22.1107 -1.56202 -0.830849 0.331201 1.48984 2.99604
2425 1 -14.0129 9.01399 -22.34 2.71027 2.42322 -2.57668
2429 1 -9.02141 -7.75972 -13.0726 0.0339894 -6.50709 -1.62091
3812 1 -1.97355 -14.2078 -0.581866 2.23239 -1.51454 0.466213
2438 1 -5.43858 -22.0377 -23.4197 -3.87226 -0.122843 2.88914
2442 1 -2.96376 -9.66732 -18.0557 -1.93444 2.11951 -0.800426
2454 1 -5.72702 9.86585 -16.8329 2.91875 -3.50472 1.79855
2465 1 -7.89136 -15.361 -11.0421 1.41143 2.80411 1.09597
3944 1 -14.2806 -5.79013 -16.4707 0.222209 3.91206 -4.34555
2474 1 -5.85726 -10.0866 -17.4774 2.26278 1.90797 2.6384
2476 1 -5.32325 -22.7112 -20.581 -1.22082 -5.38019 1.40402
2478 1 -3.5866 -22.2898 -0.790417 1.34654 0.727626 -4.1337
2481 1 -14.7272 -7.15845 -9.79375 0.579503 2.62919 -3.23653
3993 1 -4.69049 -10.1046 -3.21862 -2.10685 1.60913 -0.833207
689 1 -1.74505 -1.90794 -5.50443 0.080823 -2.11127 4.35393
1467 1 -24.0623 -16.0495 -17.0279 0.99223 -3.18268 -2.40026
2510 1 -22.6584 2.74686 -2.27606 -0.472117 -4.41695 -0.838599
3099 1 -20.8785 8.3214 -23.5254 1.56929 -1.26014 1.4058
2520 1 -22.5855 1.62821 -6.35753 -0.249715 5.07288 3.74056
2523 1 -17.8729 -23.2179 -20.2915 -0.114457 1.14808 -2.1706
2525 1 -14.2594 -14.4362 -8.99246 -7.32658 -0.406325 6.62001
2526 1 -9.94765 -6.66169 -15.8531 -0.331293 -3.3694 0.717929
2529 1 -18.816 -8.8693 -3.40211 -1.66383 1.2592 0.400461
2531 1 -17.8277 -8.73209 -20.0853 -2.85476 -1.73301 3.81577
2534 1 -16.0636 -11.2508 -2.09661 0.9528 -0.7958 -0.618262
2538 1 -7.57105 5.6417 -22.9734 0.660539 0.613225 1.02077
2542 1 -12.5404 -7.62872 -20.2261 2.93179 0.930759 4.63997
2543 1 -16.7152 -7.97112 -7.868 2.21186 8.1797 -2.48413
2550 1 -22.2581 -18.142 -18.0364 -0.730373 3.38417 4.50018
2558 1 -18.1718 8.70144 -18.5623 -0.711128 2.3285 1.80715
2562 1 -21.1987 -4.31484 -11.6805 5.62962 -0.2152 0.0107798
2564 1 -10.807 -15.6997 -11.2681 -2.72387 -1.25059 2.25817
2567 1 -14.2623 -1.01665 -18.3556 1.79895 -2.48566 -0.311551
550 1 -0.444637 -21.8277 -13.9772 3.07935 4.03957 -1.34687
2574 1 -20.4854 -23.3158 -6.97753 -0.290813 -1.23583 -0.216
2578 1 -17.1521 -14.9069 -3.4745 5.31312 -2.13995 -2.59173
2584 1 -12.3536 -22.1297 -12.1374 -0.18633 6.38641 -4.18524
2949 1 -9.37815 -19.5637 -23.2296 -7.72608 0.14349 -1.13571
2595 1 -1.70263 -17.0601 -18.614 2.04041 -0.410357 -0.440733
2814 1 -24.5848 -3.5845 -4.57449 -2.09645 1.28577 1.56891
2597 1 -22.0126 -3.09329 -15.4503 -6.76594 -0.354328 0.989804
2602 1 -5.01477 -12.8966 -2.2198 2.83558 1.03112 0.175101
2605 1 -16.0116 8.3084 -1.66636 -2.54933 -4.37174 -5.50331
2609 1 -11.7644 -3.99156 -16.6156 1.9245 3.93702 -1.90111
2618 1 -8.26639 -18.1797 -11.817 4.95877 -1.24545 3.91186
63 1 -1.13666 10.3473 -16.967 -0.817466 -2.65091 2.06011
2633 1 -4.95367 -15.6751 -11.0247 -4.53376 -3.10545 -3.18121
2403 1 -12.3438 -1.04566 -22.3835 4.26539 2.13685 -3.11642
8 1 -24.2402 -12.0713 -14.902 2.25929 3.68157 3.46968
2652 1 -22.0099 -5.79126 -14.3707 -4.51152 4.50193 1.68216
2653 1 -8.0791 8.1849 -1.01392 -0.0450327 4.22809 1.70368
2656 1 -4.71729 8.03183 -19.324 -4.80107 -1.83274 -5.57665
2667 1 -8.16264 -5.70863 -3.76928 3.88024 -3.19655 -1.61966
2668 1 -8.51329 -18.2304 -19.1471 2.61464 1.39516 5.38374
2673 1 -14.4464 -22.6414 -4.26437 -2.23221 1.73547 4.50813
2674 1 -8.68995 -21.7749 -2.23938 -1.15481 -7.06778 4.36937
2681 1 -15.7285 -8.12595 -17.999 -0.149652 -0.627218 2.6583
2683 1 -17.4346 6.64439 -17.1764 -2.13516 -2.98763 -2.34969
121 1 -6.51628 -19.4096 -22.6392 -0.872153 2.39997 3.74249
2689 1 -5.25959 -4.12263 -7.76707 0.452387 -3.6689 -0.783121
2690 1 -16.4047 -14.2043 -19.2061 -0.9857 1.45416 2.8448
3146 1 -1.37101 8.47835 -8.17368 -5.075 -0.0444612 0.266475
2714 1 -17.3328 5.29602 -9.63668 0.828413 1.69445 -5.87843
2720 1 -13.6515 -9.84724 -19.2697 -4.98938 -2.71814 0.839783
2725 1 -2.54935 6.55682 -17.5092 2.51906 1.71541 2.3539
2726 1 -11.335 -7.90466 -22.808 -4.61072 1.58802 1.18064
2727 1 -12.0354 -18.9306 -0.782658 -0.736045 3.11266 0.290833
2729 1 -4.62733 -22.1668 -17.8751 -0.643574 -1.6239 -2.95064
2733 1 -7.57812 8.69662 -19.2937 3.2207 -2.8683 0.640844
2735 1 -5.63125 7.68415 -14.969 0.919975 3.34914 -1.02152
2740 1 -12.1874 -15.3923 -20.5616 -1.19542 2.97644 -1.16096
2744 1 -16.8625 -18.0387 -19.0957 2.54653 -0.814776 1.52514
2748 1 -4.49777 -2.18958 -9.83046 1.49695 -0.693884 0.662663
2758 1 -20.3954 -16.6321 -8.6576 2.22936 0.131607 2.13519
2767 1 -12.4436 -18.6563 -18.9375 2.57771 2.57773 3.81051
2771 1 -19.3092 -11.8322 -17.2836 2.63521 3.45681 1.58538
2780 1 -11.4711 -2.69572 -7.46341 2.49248 2.98436 6.08519
2153 1 -7.69844 -12.3155 -0.49577 -0.67114 4.93565 -2.07697
2790 1 -7.94002 -4.58958 -16.1375 -3.30725 -0.736294 -4.84647
2798 1 -20.8151 -1.07483 -3.68728 -2.30862 -3.26494 0.474085
2506 1 -21.524 9.77599 -9.58003 -3.56296 -2.8478 -2.60842
2800 1 -11.794 -15.483 -16.5535 -0.259496 -3.09019 -0.92376
2805 1 -13.5041 7.86173 -7.80293 -1.88043 5.53792 -1.30538
3923 1 -23.7208 5.85001 -10.5676 2.45153 5.63255 -3.20479
2419 1 -24.3922 5.15341 -18.7746 -0.60343 -1.23759 -0.821987
499 1 -24.1892 5.47151 -7.72755 7.63238 1.70869 -1.74264
2839 1 -17.9772 -3.45885 -22.39 -0.99542 3.36138 -2.55782
2842 1 -2.96111 -14.1402 -9.34612 1.15529 -2.17702 -3.10671
2237 1 -0.621919 -24.1435 -20.0908 0.761276 -1.97167 0.679696
2855 1 -16.8968 -6.06202 -21.4911 -0.0607756 1.86177 -9.85163
2417 1 -2.46428 -3.60433 -1.36132 -2.87744 0.0325954 -0.838258
2885 1 -6.61788 3.56862 -6.16419 -0.813974 -1.17534 -6.18083
2888 1 -12.1478 3.40597 -23.2409 -3.42115 -3.66064 0.288336
2890 1 -2.04103 -6.03572 -21.2848 -0.906291 3.03635 0.558133
2898 1 -8.80654 -9.82253 -19.9986 -1.87436 -0.644945 3.87636
2901 1 -14.3331 -17.0266 -16.1774 2.22377 3.50111 -0.591117
2902 1 -17.806 0.7528 -21.0177 -0.0584866 -2.6775 -0.261427
2909 1 -10.9136 -5.0963 -23.1022 2.71996 -2.20856 -1.49267
3958 1 -0.821185 8.50944 -5.41962 0.174433 -4.84776 -4.5738
3855 1 -3.56541 -6.35584 -23.8719 -1.06487 2.82678 1.09305
2926 1 -9.72256 6.96112 -11.9023 2.32034 4.08587 4.46198
223 1 -21.7404 -5.49637 -2.03065 0.947123 -1.4177 5.77848
3031 1 -24.1164 -9.20324 -19.601 0.237106 2.82613 -1.01333
2937 1 -17.4152 4.0511 -14.5597 -0.272855 1.09685 -5.64986
2938 1 -5.38926 -6.13183 -4.24979 -0.397991 1.85388 -1.86814
2941 1 -4.37522 2.35572 -7.66602 -1.43097 0.241082 6.30649
1648 1 -19.7523 -13.55 -23.3728 0.320335 -4.99799 1.09652
1931 1 -9.01131 5.70217 -0.612512 0.871992 -0.423872 3.35587
2960 1 -13.6595 -2.75903 -20.4887 -4.24621 -0.906693 -2.41873
2961 1 -11.4905 -12.4713 -21.332 0.372258 0.926786 0.410082
2962 1 -9.14181 -0.592438 -14.705 -5.74337 -7.22723 0.148645
2972 1 -9.1588 9.0087 -9.49817 -3.45728 1.11557 1.1911
3922 1 -18.1521 -14.4141 -16.9053 -0.914931 4.78482 -4.09689
3007 1 -7.1946 -20.5949 -20.2104 3.85016 0.888222 3.44571
3010 1 -15.5288 -18.6527 -12.5668 2.16773 0.384414 1.34978
3011 1 -8.50836 -2.14411 -10.8476 4.14499 -2.5042 2.06491
3018 1 -23.5682 -0.789508 -14.2403 -0.128848 0.413204 1.2922
1073 1 -1.73961 -21.5992 -9.11861 0.0472544 0.0680609 3.68918
3034 1 -12.7508 -8.02987 -15.2678 1.10898 -2.9796 1.99694
3038 1 -20.6797 -23.3888 -16.5673 6.4237 -2.07593 -1.2591
3049 1 -12.4883 -21.3606 -17.865 5.14239 3.4807 2.31005
3051 1 -18.3157 -0.502382 -10.7634 -2.12037 -0.596658 5.6006
3059 1 -9.5312 -21.5855 -5.09715 -1.33128 1.32394 -3.5834
3071 1 -3.28513 -4.54464 -5.47712 -0.985722 -1.86751 0.335949
3077 1 -14.704 -23.9878 -8.54466 -4.51924 -6.52503 -2.10836
3078 1 -21.3702 7.48258 -14.2236 -2.41957 -3.55963 1.21294
3085 1 -14.8522 -3.72302 -6.63825 -2.71117 -5.52791 2.92086
3093 1 -14.1154 5.30352 -19.7456 -1.958 1.88056 -2.40254
3095 1 -14.557 -13.8104 -2.76528 -1.86109 1.15754 -0.899708
3097 1 -6.26852 -10.9732 -20.1448 -1.25415 0.295276 -2.62212
3991 1 -16.7004 9.16105 -22.5772 1.92678 0.576873 3.66846
1891 1 -7.92845 -13.8209 -23.9187 0.167505 3.34229 -0.743668
3120 1 -10.7962 -6.26344 -18.7224 -2.85024 0.252091 5.33491
3125 1 -1.15728 -16.5691 -1.94093 1.66616 -2.04035 -3.90562
3135 1 -17.9822 -12.5127 -4.96879 0.962993 1.82501 -3.69562
1033 1 -3.50161 -16.5303 -0.235542 3.51873 1.97617 3.42061
751 1 -18.0894 9.66916 -12.1701 -1.92027 -1.46561 2.43913
3963 1 -15.3173 -16.2431 -1.67848 0.250313 1.09726 0.134143
3161 1 -9.67449 -17.8112 -3.67328 2.70431 1.20331 0.884306
3162 1 -13.7754 -13.611 -15.4434 2.6097 9.48712 0.162653
1412 1 -18.8196 8.98507 -8.18272 7.03982 5.59349 -0.767206
3202 1 -17.1784 -14.9461 -9.8143 -0.872296 3.80307 -2.12007
3205 1 -11.9153 1.31249 -4.44485 -3.03852 -0.652035 1.14264
3210 1 -13.034 10.4774 -2.0576 -5.00848 -1.63031 0.380203
3212 1 -12.9923 6.61765 -17.241 -1.12589 2.8605 5.31593
3213 1 -2.05155 4.29932 -13.0526 1.97275 6.51369 6.45813
3219 1 -9.43063 -20.9766 -15.4027 0.629929 0.704591 -0.949194
3221 1 -3.12979 -8.37135 -1.45899 1.722 3.32513 -0.679141
888 1 -8.4102 10.5074 -15.5619 5.45588 0.114415 -3.92991
1799 1 -11.826 9.62691 -14.1667 -1.76089 -5.03198 1.81829
3229 1 -9.72469 1.49038 -2.71067 -0.696869 2.59167 3.59765
3896 1 -5.01758 -6.10863 -1.27245 -1.33365 -1.64464 -0.687272
3240 1 -15.1066 -22.7347 -18.867 2.52536 1.69733 -0.130007
3247 1 -5.06948 7.46919 -10.8356 -0.755404 -3.8746 1.07411
3261 1 -14.3514 -2.77898 -16.1099 0.649133 4.10478 0.933574
3273 1 -16.7957 10.225 -14.8196 -3.05953 1.89832 4.01564
3294 1 -19.6967 2.98417 -12.9363 0.04589 3.12524 1.85432
3300 1 -2.73036 6.03744 -8.40104 2.76413 -1.08313 -0.194169
2170 1 -7.79004 -15.3857 -0.624706 -0.477312 4.04921 -0.345996
3326 1 -23.077 4.30589 -21.3906 0.180308 1.35391 1.9663
3331 1 -19.1014 -4.51293 -2.56278 2.21783 4.12717 -5.47324
1890 1 -23.6582 8.49276 -22.4099 9.34291 1.15965 -0.162386
2924 1 -1.58165 -16.1383 -23.1981 -0.782503 -4.2304 -0.648768
3355 1 -17.3092 -19.7616 -4.23789 8.66972 4.15143 -1.79427
3362 1 -6.97224 3.05825 -13.8992 -0.946116 -0.931809 3.62941
3364 1 -19.4813 -8.38855 -0.757444 3.53709 -2.60503 1.45382
3366 1 -23.3416 -22.8602 -17.8053 0.905865 6.36425 4.30966
3888 1 -6.75501 5.72617 -18.4533 0.4434 -0.562321 1.46193
3370 1 -19.0581 -14.7112 -12.0434 -1.63369 1.77768 1.25758
3381 1 -3.72624 -18.0487 -22.7485 0.3501 0.918762 -0.86216
3385 1 -3.03581 -19.941 -7.08183 3.56938 3.24786 -2.5311
3389 1 -13.6649 -9.71642 -13.1609 5.79252 -2.31635 0.360083
3392 1 -6.45038 0.693247 -17.7539 0.720596 5.76835 -1.39901
3396 1 -19.3869 4.58026 -4.04949 0.585473 -2.01495 5.04458
3398 1 -6.88312 -20.6989 -5.35787 7.73264 -1.03384 0.535148
3401 1 -21.9345 -23.7954 -11.6836 -0.102971 -4.48991 -3.77214
1438 1 -2.20958 -0.39863 -13.4157 0.582365 -1.40247 6.4668
3413 1 -3.50526 -17.162 -16.3326 -5.1745 0.167161 3.64612
3414 1 -16.4387 4.03522 -5.20982 1.026 1.25701 -0.669041
3415 1 -17.6363 -0.903643 -14.8653 -1.15599 4.15827 1.85545
3431 1 -9.50551 -6.0234 -1.17242 0.739553 -0.189224 1.00799
3433 1 -8.58091 -2.75655 -21.4334 -2.4107 -3.64367 -3.684
3445 1 -12.0866 1.10842 -10.661 1.58967 -1.27485 -3.75808
3446 1 -3.40415 -19.995 -16.4179 0.947153 -1.86722 1.09389
3447 1 -5.10861 5.97746 -6.77381 0.825073 -3.15686 0.859137
3450 1 -1.73209 -12.5985 -15.0799 -1.3185 2.0364 -2.66103
3452 1 -10.9964 -0.819155 -12.3411 -1.54375 3.57259 -2.84302
3466 1 -10.9026 4.42324 -5.78244 -2.53611 -4.42968 0.465
3470 1 -15.9354 -21.0858 -6.16604 1.93924 -4.15729 -1.17261
3471 1 -17.4152 -19.7398 -16.9046 2.49856 -1.5691 0.35208
3472 1 -14.4663 6.90519 -12.7839 0.271294 1.51999 5.75914
3477 1 -20.8812 0.3653 -13.8883 -0.684324 1.7352 3.77565
3491 1 -9.96259 7.34668 -20.1782 -0.608505 1.51164 -0.0559158
3496 1 -9.56447 8.183 -14.4939 -1.60855 -0.627183 -0.779996
3508 1 -2.37574 -12.7865 -21.6108 4.47796 0.0432113 -4.59743
3509 1 -22.9982 -19.6458 -21.9219 2.27924 -1.18237 3.27233
3513 1 -21.403 -20.0624 -14.2286 -0.0837412 3.10254 0.29734
3516 1 -19.7486 4.90732 -17.5333 2.91059 -2.95757 3.94684
3952 1 -4.67978 -6.0506 -18.5743 -5.75419 3.37995 0.156034
1903 1 -1.401 -15.67 -14.6523 0.521753 0.237263 2.34669
3980 1 -23.4615 -15.5359 -13.403 -4.87551 -1.14316 -0.453623
3558 1 -19.5124 -14.9408 -1.71617 -0.653307 0.309513 1.44849
3569 1 -5.05201 4.64254 -9.55386 3.02725 -4.93068 -0.0629828
3572 1 -14.4196 -16.2794 -19.017 -3.30498 -7.23189 -0.123908
3574 1 -17.3228 -3.69063 -12.0308 1.83427 -1.96182 7.97251
3575 1 -10.1417 -10.1632 -11.7818 -2.0397 -0.716289 1.2685
3577 1 -9.43369 9.04598 -4.92445 -1.06808 -0.0734668 3.66079
3579 1 -17.6391 -12.8429 -7.80838 -1.7494 5.73459 3.02139
3588 1 -22.2719 -8.43159 -12.7763 -1.70874 -5.93294 7.01344
3589 1 -12.4387 0.0266799 -8.24511 0.927043 10.5155 -1.14189
3592 1 -8.0745 -17.2214 -5.76277 -2.74464 5.05648 -1.51338
3596 1 -6.43775 -8.72762 -7.55777 3.04822 -1.97041 -2.87628
3598 1 -14.4035 -9.6418 -7.26742 6.11425 -2.02374 -6.2673
3601 1 -23.2495 -12.1715 -5.33255 0.755564 3.98241 1.86695
2572 1 -23.3006 -16.4706 -5.897 0.819038 0.24925 -3.72828
3626 1 -13.6559 3.53012 -5.6524 -2.73684 -0.619485 -2.38609
3645 1 -17.2502 -17.3479 -8.25452 -0.984432 -2.27133 5.65214
3649 1 -19.7193 -1.95582 -18.5611 -1.22423 5.78144 0.792582
3663 1 -21.567 -15.7371 -11.4625 1.87837 -3.02766 -3.53486
361 1 -23.7152 -19.3284 -2.83628 -6.47004 2.47786 1.69986
2688 1 -16.3287 -4.91262 -1.27013 -0.0683038 -1.0043 -3.02637
3961 1 -2.74945 -20.0771 -2.73728 2.51603 -3.29995 -1.10038
3690 1 -11.5051 7.28105 -5.1883 -5.00654 -3.5662 -0.406086
3694 1 -20.1155 2.08506 -8.75906 0.10071 4.80456 -3.38715
3700 1 -6.42138 -20.1484 -16.0677 3.72735 2.79226 1.33126
3702 1 -6.03429 -2.58436 -12.1646 3.38576 1.22414 0.914783
3706 1 -13.7859 3.24655 -14.7447 1.12568 1.14694 -3.93628
3724 1 -2.937 1.0207 -3.12644 3.08581 1.32732 -3.36753
3726 1 -8.1659 -12.423 -12.3138 6.35787 -2.28601 1.70527
3729 1 -20.5187 -10.0672 -11.528 -5.18996 -3.00086 2.89558
3741 1 -18.8003 9.80163 -3.43587 -3.51838 -0.921257 -2.79595
3742 1 -3.95731 -16.4118 -13.5306 3.38841 2.50534 3.05407
3748 1 -16.7098 -2.48786 -18.7607 1.81954 1.75381 -3.51563
3881 1 -15.9503 -0.26044 -12.7576 -1.55347 -1.85942 -2.77421
3759 1 -12.8071 8.11432 -19.8047 0.475373 -0.566223 -1.00659
3950 1 -5.543 0.393251 -20.3447 3.28367 -6.32886 5.96857
3906 1 -17.5132 7.84636 -5.66919 -0.324727 2.14561 2.47061
2915 1 -13.8777 -11.8002 -22.8047 -0.530531 -5.21 1.24931
3794 1 -4.09299 -19.9953 -9.64968 0.17715 -1.25042 5.41024
3796 1 -12.1596 -11.0874 -10.0535 -1.68333 2.52688 0.938447
972 1 -7.91543 -19.05 -1.47779 -1.01122 -4.54741 0.857748
3823 1 -6.15116 -18.1152 -9.96214 4.08499 -4.49923 1.80166
266 1 -21.0053 4.68983 -14.7804 -4.60075 2.2289 2.22013
3829 1 -11.7932 -17.2279 -7.83184 0.163809 -2.98593 2.85174
3838 1 -6.88188 4.87202 -3.32584 -1.5183 0.662493 4.43585
3845 1 -4.67159 4.67263 -22.7069 2.84438 -2.41014 -0.852591
3847 1 -16.1934 -15.1172 -14.8451 -0.336625 -2.88038 -2.48777
3851 1 -1.68276 7.78463 -2.37846 -1.24227 -1.8807 1.55817
3196 1 -0.462843 0.212939 -2.04642 3.51327 -4.4261 -1.31634
3862 1 -4.38159 0.378047 -15.3237 4.30615 -1.90584 4.44092
3864 1 -2.0431 -2.03178 -11.2197 1.03939 -0.0769057 -6.00885
3874 1 -20.6582 -22.7764 -13.8076 2.30611 -1.04099 3.78948
3877 1 -23.3863 4.136 -5.00918 0.434996 -0.987868 -2.42642
1517 1 -24.1509 -15.2166 -8.26618 1.33728 0.194392 -2.8008
2813 1 -0.284839 -8.7444 -18.3445 4.12979 -3.59843 -3.78895
2205 1 -24.2198 7.99948 -14.8635 -0.177882 3.54242 -3.84475
506 1 -0.675316 -19.9467 -16.0611 9.18961 -1.01309 2.00985
411 1 -0.646492 -4.62551 -9.27899 3.98173 1.69656 -1.41258
1314 1 -15.1062 10.705 -17.2487 2.84153 -4.34994 4.34948
3671 1 -2.4437 10.7389 -14.361 2.2741 -1.46323 -0.917292
495 1 -0.81939 -10.011 -4.66456 3.11459 -4.31523 2.70359
3998 1 -10.9941 -4.02364 -0.149407 0.280643 1.96928 2.1115
3941 1 -18.2161 1.65709 -24.1065 -3.93157 1.83642 2.33792
222 1 -10.7359 -9.41534 -0.227406 -2.70717 3.12312 -2.44097
2643 1 -1.18879 -13.3226 -24.0501 3.17403 1.03213 -5.27085
873 1 -4.09064 -1.17146 -23.8733 0.660135 -1.74832 0.272716
5 1 -19.234 -20.3878 23.0471 -3.01646 2.72172 0.341005
9 1 -15.0172 6.85759 4.39749 -2.11311 -1.35826 -5.68417
13 1 -20.1344 -13.7433 13.0407 1.4342 -2.29883 1.01291
16 1 -18.486 -0.215273 6.36795 -1.85022 -2.06892 2.74254
1840 1 -19.2574 -13.0261 0.547096 2.98559 0.60454 -3.12125
2376 1 -15.9637 0.540614 23.0522 2.31225 -0.274858 0.732747
28 1 -19.8736 6.41452 2.5052 -7.18179 -1.16176 -0.64761
34 1 -19.4376 -23.039 15.9734 2.71447 3.42596 -1.82663
42 1 -14.6851 -16.3926 0.816712 -1.93527 1.69447 0.115264
43 1 -12.6288 -5.80453 1.16613 1.73179 0.284257 -0.93506
46 1 -22.9155 -21.6317 19.6954 -0.0103157 -6.34889 0.595279
47 1 -6.76759 3.8711 20.6299 -2.00269 -0.289756 4.19528
51 1 -8.36676 -3.35801 18.253 1.1896 -0.418417 2.95282
56 1 -15.9654 4.76531 2.85753 -1.40163 3.37564 -1.38918
3008 1 -2.62483 -19.3848 22.7649 0.953953 -3.59572 0.965417
76 1 -23.0787 -3.96505 3.15318 -0.30112 2.83633 3.99654
249 1 -0.754876 -21.4609 9.91603 1.11551 0.881673 -1.03002
64 1 -8.55593 -3.25136 1.61682 -0.191857 -2.38158 -3.33797
71 1 -8.59359 1.66345 2.40389 -1.03704 -4.76677 -1.28916
73 1 -11.998 -18.5871 14.4963 -1.67382 -2.31308 1.04862
2601 1 -0.755509 9.43098 6.13471 -1.50155 5.1995 0.514611
89 1 -9.9008 -3.77842 22.7792 2.71834 5.20643 -1.72023
93 1 -17.4285 -23.3942 17.6739 1.71513 -0.0824545 -4.93429
1401 1 -24.5093 -20.174 21.7274 0.636308 0.475709 -3.55742
108 1 -10.5765 2.99604 22.74 3.47562 4.302 0.110587
113 1 -5.07091 -6.54192 18.5764 -0.46503 4.30191 -2.99671
114 1 -21.3101 -18.7213 19.3568 -0.460379 0.980317 -0.186986
320 1 -1.15332 -1.0911 9.30616 -1.76962 0.89028 1.73674
122 1 -6.59738 6.65984 20.9232 -3.16191 -3.10888 3.71874
133 1 -16.8737 3.71382 17.6722 0.962795 2.35367 -2.24129
146 1 -10.8333 -10.5451 13.0487 0.404933 0.996 -0.587551
152 1 -6.36465 -4.80901 16.8635 -4.03526 -0.114707 5.50534
159 1 -21.5576 -10.9028 12.6452 3.64521 5.28348 1.47184
162 1 -15.1548 -11.695 20.0903 -3.73914 0.713219 -0.0601757
3494 1 -18.2566 4.3872 23.2726 3.69841 2.99498 1.25586
171 1 -14.7377 0.304614 13.9863 0.538223 -2.41422 -8.43752
173 1 -20.5827 1.24869 22.3345 -0.0579457 -1.57673 -2.17711
177 1 -5.9271 -19.9332 13.7521 -3.25489 1.59529 3.16744
1920 1 -23.6269 -14.4019 0.669768 -2.48684 -0.779178 2.42491
182 1 -20.2061 -3.45895 14.0163 1.43498 0.0136643 -1.73499
189 1 -4.15711 -2.80454 2.46115 3.62 2.31121 -0.726764
1153 1 -3.08974 -19.3574 0.371285 0.995091 1.31183 -6.68874
264 1 -24.1938 0.838728 16.3955 -0.919148 1.92053 -1.27602
935 1 -24.358 -10.2082 0.0378008 -3.01549 -0.419658 -4.27706
464 1 -13.0707 -23.1033 3.59644 -1.12375 0.611023 -4.00818
232 1 -2.43218 -16.3518 11.0502 3.54708 2.08588 -4.42247
241 1 -21.4249 -15.543 10.3295 -0.586118 -3.21749 -0.220322
243 1 -6.84965 -9.26087 8.72337 -0.542155 -1.16526 -1.50497
986 1 -1.29694 4.91788 11.4766 2.24592 -3.6255 2.91103
247 1 -23.1666 -6.9168 13.6537 1.35152 0.791288 2.46306
2372 1 -24.382 6.16167 0.416876 0.0379622 2.11313 2.42127
1006 1 -23.8696 10.6585 17.0136 1.49364 -3.20495 -0.89707
1994 1 -22.7776 -17.5311 4.0971 -2.85932 0.130987 10.5048
270 1 -21.8556 -16.9769 17.0447 -1.29409 2.0305 -2.70702
273 1 -17.2203 -10.0147 12.744 0.194195 10.2465 -0.554114
289 1 -6.21874 -21.6629 9.99271 -2.12003 4.3898 -2.73761
291 1 -11.1267 -21.0636 13.7057 -1.49472 0.0601849 1.42071
304 1 -19.7396 -19.2204 13.4225 -2.11825 -0.153098 1.85477
308 1 -16.8686 -22.4971 2.41226 4.79732 -1.08526 2.06449
315 1 -14.3669 -22.7988 1.05811 -3.90979 -0.253083 -1.88425
319 1 -11.8941 1.36765 13.2458 2.63859 3.17086 4.06114
589 1 -0.413208 4.31365 1.24903 -0.62299 -2.58612 2.31011
323 1 -13.9177 0.983788 2.98233 -4.36336 -1.21492 -1.9318
325 1 -2.06204 -22.8464 18.9388 0.940493 -4.80195 0.964996
326 1 -18.074 2.98312 1.71837 -6.63969 3.77233 1.74798
327 1 -5.73016 -11.5266 19.8234 -0.732604 1.08509 0.714943
61 1 -11.6545 -1.60643 1.13919 -2.08033 -1.05826 -4.67895
345 1 -12.0029 -5.59295 13.491 4.57879 2.30557 1.6844
348 1 -10.1813 -4.70719 9.12704 2.72863 -1.93241 -0.493251
349 1 -5.8654 10.9371 23.0861 0.355781 -0.95118 0.675708
351 1 -17.0889 2.40942 11.7651 -2.04942 -0.732715 -4.83944
355 1 -3.29666 -1.59183 6.99647 -4.93567 -6.07623 -2.60595
357 1 -5.93089 -15.4464 1.26307 -0.111459 1.33064 -1.35587
1225 1 -1.06473 -17.5443 19.4498 6.57767 -1.3089 1.35342
363 1 -18.7364 -19.9432 9.12521 -1.01495 5.34071 1.15056
3893 1 -7.06896 8.9456 9.37896 -2.03657 2.51603 -3.10041
806 1 -2.07571 -14.3851 15.2475 1.65817 -2.52867 -0.826356
585 1 -8.76572 10.0462 15.8961 -0.503421 -1.17506 -0.297459
224 1 -12.4333 -2.23245 22.9235 -3.9127 1.18906 -3.22473
381 1 -22.3825 -18.0723 14.3781 0.398805 -1.37092 0.0581216
385 1 -9.09437 2.84706 19.0118 2.12702 2.29179 1.69394
3087 1 -9.26175 -24.037 12.2342 -5.01657 -3.7267 1.36996
389 1 -12.0115 8.43674 6.35966 1.6063 -1.65403 1.54527
3931 1 -3.57035 10.8174 3.62562 -4.53509 -4.61625 -1.15177
2485 1 -1.54421 -19.3791 5.41126 3.13475 2.45737 7.91643
404 1 -14.5597 -1.29708 1.52745 -0.360206 -2.5464 -4.23098
406 1 -7.19224 -17.9596 23.0599 -4.79552 3.57537 0.469079
412 1 -16.7265 -4.8836 5.97796 0.597927 -3.50605 1.02548
417 1 -12.5967 -0.594742 9.57326 0.223099 -4.02762 -0.718751
420 1 -2.29935 -2.75998 11.5255 4.28685 -0.770104 -2.77803
423 1 -7.8078 3.3556 4.76248 2.09706 3.76274 -4.15366
427 1 -15.0346 -22.3908 21.7365 -3.98078 -1.84243 2.39839
3749 1 -21.5456 -3.45919 11.4225 -0.538388 5.89183 -0.743895
448 1 -16.0052 -1.59786 12.2853 -5.19197 0.559161 -0.998191
462 1 -6.63865 -18.8985 20.581 -0.0827314 -1.54805 3.77708
2075 1 -5.8789 -15.2963 23.2035 -4.10007 -2.71721 4.44175
3876 1 -23.8176 -10.6565 21.9704 -2.1291 -2.40879 1.08869
467 1 -3.21983 -11.7425 10.6477 -3.42134 -1.16954 -1.41421
472 1 -16.0775 -4.67163 17.2553 -3.00582 -0.944124 -2.21579
2793 1 -1.23191 1.58878 6.06029 -1.86565 -1.57461 0.939582
491 1 -17.5978 -12.1311 10.4113 0.289439 -5.51994 2.45728
500 1 -5.00388 -14.2969 8.25482 3.55659 -3.13459 -2.01482
504 1 -2.49891 4.4266 6.12803 -1.83055 2.10995 -1.79905
513 1 -19.0921 -14.9882 15.4737 -2.68262 0.339398 -0.383751
3913 1 -7.3937 4.44741 2.07868 -2.98278 -1.0527 1.35434
524 1 -2.6066 -2.42935 17.6862 -4.56425 -0.124144 0.00467129
529 1 -8.66387 -12.7137 7.71451 -0.769337 -3.13615 -2.05936
530 1 -9.80875 2.97368 10.0487 4.48183 2.44603 1.58977
533 1 -13.57 -22.7262 13.3268 -0.931195 1.03386 1.5046
538 1 -18.66 -8.29219 10.7071 -3.61265 -0.194359 2.2225
540 1 -12.1233 -11.5948 3.77857 6.54174 0.507301 -0.887473
541 1 -13.697 -1.26611 16.0457 -3.23583 1.0624 -3.07467
549 1 -19.7041 -5.27208 6.21051 2.5329 -3.89364 -1.92762
1971 1 -22.7746 -3.00815 7.67022 0.75388 3.27749 0.912592
558 1 -4.87558 -14.8011 14.1239 -0.903838 8.89003 0.386075
559 1 -8.01469 -18.9166 6.30235 -2.45754 -2.89872 -1.41893
564 1 -10.7822 -20.9728 10.9179 2.96765 -2.46258 2.53397
581 1 -15.6722 -8.54075 14.7469 0.0186684 -3.69196 1.27559
592 1 -15.0261 -15.7254 11.8419 1.00814 -0.346262 0.342605
593 1 -12.8305 -22.9328 18.2722 0.887248 2.15685 0.911654
594 1 -19.5867 -0.881264 3.74546 0.666831 -0.944616 3.90831
596 1 -11.1951 -20.4112 6.38799 1.0885 -2.02806 -0.915442
602 1 -10.636 5.02561 20.662 1.24404 6.17652 -0.817055
605 1 -21.6116 -2.12625 19.4905 4.26112 -0.183146 0.437479
607 1 -1.29518 -2.60691 15.3612 2.50692 -0.978869 1.36074
622 1 -20.826 -9.68696 1.73349 -0.624016 -2.71708 3.38745
631 1 -6.66309 -17.0131 14.288 1.8235 -2.12094 -3.95239
632 1 -12.597 -20.3642 3.2848 -3.4195 0.131877 5.15189
634 1 -10.588 -2.76536 16.5709 0.1203 0.0224789 2.50771
642 1 -9.76916 -1.12529 6.05725 -0.732419 -3.19978 -1.4313
650 1 -9.43139 0.214662 19.8584 -1.43027 -0.597137 -3.09604
664 1 -15.2661 -20.5274 13.4936 -0.677118 -3.07443 -3.63732
665 1 -2.40537 -5.39881 17.8976 5.66122 -3.8943 0.763636
2247 1 -22.845 -12.2012 10.4901 -2.02245 2.18665 2.94008
686 1 -16.3277 -1.771 17.2749 -1.78627 -1.11598 8.29854
687 1 -13.9852 10.7458 10.9216 4.42051 -1.51487 -2.56783
692 1 -8.89869 -7.55503 3.41605 -0.805845 -1.41349 -3.0859
696 1 -7.81366 -21.4498 7.6902 -3.28374 -1.41381 -4.91338
699 1 -14.6517 -11.5623 14.9356 0.867537 0.36403 -2.63815
702 1 -16.9589 -5.81916 10.6707 -7.70448 -2.18325 5.34515
704 1 -8.437 -12.2926 13.6001 1.57992 -0.519004 -0.224739
707 1 -16.7522 1.03471 20.459 -4.77243 4.02632 -1.28306
710 1 -3.42488 -9.174 11.8129 -0.0321251 1.67991 1.11355
2589 1 -1.33737 -8.08521 10.553 2.68772 0.37758 -3.30759
718 1 -11.6554 -7.40411 3.17624 0.851495 0.929962 3.12198
726 1 -4.25934 -9.05312 20.0987 4.62457 2.89375 -1.15364
733 1 -13.4127 -18.487 5.36927 4.80042 -3.66025 6.39438
738 1 -11.2515 6.9912 16.306 -2.83009 1.01779 6.19218
739 1 -16.6253 -18.1992 1.81775 3.66951 2.84825 -0.231212
2966 1 -4.44875 -24.1155 17.3703 1.65017 -3.98674 -1.44304
745 1 -20.368 3.64737 20.6167 1.80569 4.02259 -0.00551663
3842 1 -23.3781 0.326072 21.7919 4.00456 -6.58256 4.10379
748 1 -11.2728 -21.3421 23.3316 3.61574 -5.00617 5.80128
2984 1 -2.22791 -0.297322 22.0525 -2.9959 1.84639 -1.30292
758 1 -14.0475 -18.1571 20.3874 -0.769459 5.41226 -1.88526
1176 1 -1.1457 -11.5534 14.9655 0.22095 -4.47158 -0.353321
768 1 -5.37872 10.2481 7.47048 -1.71302 1.30626 3.50886
781 1 -16.6068 1.84819 7.55936 -6.44333 -6.3438 1.47987
788 1 -19.7619 4.5616 4.84035 0.965512 2.78778 6.75687
797 1 -16.9701 -13.503 12.7634 -0.558321 -4.46735 2.86114
800 1 -17.298 -12.4635 18.3052 1.66985 -5.11336 0.221727
802 1 -18.808 -19.5944 16.235 0.378451 -2.58958 0.131057
3224 1 -3.33857 -5.44299 1.37283 -6.19652 -0.800656 0.288299
818 1 -9.49049 7.89113 20.1653 -4.22066 0.609243 -6.67347
825 1 -22.7854 5.43051 5.07064 4.19096 1.86049 1.11417
2635 1 -0.588462 10.4205 21.4725 -0.956748 -3.30212 1.42944
828 1 -8.33666 -21.5609 13.3502 -1.69399 4.03133 -3.99689
830 1 -10.979 -9.27689 19.862 0.271464 -2.64619 -2.19961
832 1 -4.31857 -3.46349 9.62085 0.280789 -2.21134 -1.98567
854 1 -19.837 -13.4927 3.24784 -2.9614 -0.834487 0.974529
1208 1 -23.8629 -8.28378 8.29711 0.409824 2.35613 -1.16308
864 1 -14.0003 0.986069 19.2364 -2.86679 -0.901334 -0.748411
3695 1 -7.30184 -5.42817 0.457848 1.07513 1.82173 1.95413
881 1 -2.91618 -2.77 20.495 -0.621064 -1.7598 -3.66938
889 1 -14.8155 -3.76875 14.8434 -0.331994 3.2759 -0.466678
891 1 -23.3831 -1.17557 1.99585 -3.91203 2.67545 -0.731972
897 1 -11.0229 -23.8675 9.96725 -4.37712 -1.77398 1.63293
906 1 -8.45059 -23.5429 19.802 3.17947 -2.48187 -0.146299
908 1 -8.20285 -19.6244 11.1644 1.37219 -0.26916 0.693653
916 1 -16.335 -17.5767 22.082 -0.283969 -2.54037 -6.29037
918 1 -2.76755 6.62463 4.27208 2.01537 0.779658 -4.8564
3912 1 -5.56366 -10.4525 0.601107 4.72289 -2.82462 -1.67657
1906 1 -19.8722 -24.5876 12.5033 1.43621 -3.26943 -2.28021
946 1 -14.0269 -8.62431 6.1068 0.478735 -5.05852 0.268375
950 1 -19.7061 6.53168 12.9138 -0.908044 -0.0207374 -1.37498
957 1 -5.68582 -3.27016 14.287 -3.75433 -1.58451 -0.121953
3182 1 -17.8413 -22.4669 21.935 -0.882678 -6.28047 4.47333
960 1 -2.05133 -21.9816 3.94344 6.09587 1.53034 -3.07764
966 1 -16.5751 -5.78307 13.3062 -4.61358 4.0962 -3.28157
973 1 -12.6356 -5.04427 16.3682 3.35545 -0.0892584 1.08406
975 1 -10.1579 -10.8944 5.76039 1.00929 3.0557 1.92479
976 1 -15.9944 -8.23919 9.44485 -5.17021 -3.56659 -2.42203
982 1 -5.65728 -8.72673 5.28497 -2.44044 3.23451 -0.647673
983 1 -21.2249 6.84177 17.7514 0.0379966 -1.04766 0.688471
362 1 -19.833 8.49931 4.58725 -3.13019 -1.27437 -3.12386
987 1 -21.5546 -19.5995 11.198 0.923489 0.51738 0.273964
988 1 -9.67187 -23.503 7.65896 1.88978 -3.17734 0.280765
991 1 -5.34541 -6.89567 7.58254 -2.32637 -1.9889 0.735651
3591 1 -6.8682 -11.755 22.4943 -1.79388 -0.702321 -2.53012
3498 1 -18.7108 11.2222 7.07881 0.194009 3.25855 -1.61163
3475 1 -23.5238 -13.2627 18.9963 -0.473286 -2.10937 -1.10851
1002 1 -11.6521 -16.5561 3.81596 -4.50183 -3.11637 0.958112
2405 1 -4.62243 -10.0774 23.8249 -3.31879 1.15312 -1.45782
2383 1 -24.0179 -18.0212 6.71163 3.45528 -1.75372 -4.34386
1016 1 -21.4645 3.81782 6.95326 -5.45574 1.29313 -1.43738
1017 1 -9.06545 2.67743 15.7358 -1.8818 0.117514 0.226064
1018 1 -21.1873 -21.1358 6.18948 -2.38135 -1.10504 2.01346
388 1 -18.3826 -24.5084 23.8761 2.91298 -0.93463 1.46001
1027 1 -20.5696 -8.22081 12.4792 -4.21091 -0.733965 -0.909841
416 1 -24.0232 1.23251 12.1586 1.06226 -7.26657 -2.56503
1037 1 -11.2505 -17.9753 17.3236 1.78699 2.71179 1.53428
1038 1 -3.75234 6.9102 12.047 1.25978 4.57116 4.18988
1014 1 -20.8792 -23.8481 3.14485 0.735285 5.87273 -1.90446
1047 1 -17.3273 3.6557 20.5012 3.20423 -5.40878 1.21714
1060 1 -17.0647 -11.6491 7.267 -1.79668 0.111547 2.62051
1062 1 -7.97918 -0.112762 9.54463 4.99448 -0.109069 1.03978
1067 1 -19.3562 5.57356 9.34885 -0.199197 -5.63469 2.50768
1070 1 -8.04002 6.34905 9.63325 1.05158 3.10426 -0.16461
1079 1 -15.0061 -1.95518 9.52524 -2.22113 -0.330481 -4.95718
1089 1 -16.8257 6.67677 17.7603 1.4092 2.90278 0.81482
944 1 -15.2047 -2.16722 23.9429 4.56401 5.36278 -0.894541
1098 1 -11.9725 -4.85278 19.3584 2.39202 -0.0668869 0.822456
1104 1 -21.2085 -0.513432 6.93426 -1.01187 1.5489 -4.75268
1106 1 -16.1603 -18.6114 5.69535 -4.44692 -3.40178 -0.210954
1109 1 -17.2935 -12.5264 4.32002 1.737 3.39578 5.3105
1112 1 -2.79955 -13.5225 18.1193 -0.169516 -2.43557 3.52839
1114 1 -18.3082 -3.66076 9.5384 1.75824 -1.03938 1.16688
1116 1 -13.5396 3.23677 7.81045 3.63668 7.39688 0.20178
1125 1 -22.858 8.39078 4.71106 1.20888 2.00841 4.4809
1138 1 -22.8968 -22.9215 4.89452 2.55346 2.78677 2.63149
3070 1 -22.9905 -7.71474 0.837285 -1.50152 -3.08782 -4.01757
1141 1 -19.0712 10.7673 12.8576 1.74 0.534929 -0.423934
3518 1 -2.73978 2.657 1.58245 -1.19549 -0.627624 -0.308772
2737 1 -21.6952 -19.195 0.386367 0.259618 -2.51006 -5.96942
2749 1 -13.0741 -9.45183 23.9853 3.38051 2.17323 -1.99814
545 1 -24.061 -19.5971 12.5421 2.06738 -0.445993 2.3325
1158 1 -17.4498 0.86919 17.7002 2.65781 -3.62381 -2.88184
1163 1 -17.1887 -24.3391 12.6907 -0.0120944 -2.62486 -5.96553
1164 1 -18.6997 -15.2012 11.0251 -2.04069 2.81191 1.0748
1139 1 -7.3042 10.606 4.05978 -3.42372 3.24472 4.29602
1178 1 -2.59249 6.73007 7.96002 0.950631 0.773518 -1.84874
1205 1 -4.47651 -19.3639 11.0737 1.16481 0.6847 -2.8286
1211 1 -14.5009 -11.6897 11.949 -3.95812 3.48199 1.03293
96 1 -23.9231 -16.3351 22.7354 -2.80944 -0.783614 -7.16233
1236 1 -5.46922 -21.5502 16.1654 1.07322 -3.5415 1.75993
2943 1 -24.1788 7.62609 9.27258 2.10244 6.05054 -0.868777
1240 1 -4.59514 -23.2908 2.66942 -5.4718 -0.92354 -0.787884
1244 1 -16.9454 0.350073 9.84387 3.96599 -0.353626 -1.39266
1246 1 -5.13242 -15.5014 4.81707 4.47353 1.42267 -0.180948
1254 1 -20.2835 -18.7647 4.4494 -4.73016 -3.36266 1.40317
1255 1 -2.30212 -10.0295 6.65121 -1.0032 3.40375 -2.51492
1258 1 -15.5011 8.15585 21.5507 -6.92162 -2.30067 -0.487188
1272 1 -21.5357 9.14925 16.0108 0.826098 4.48064 -3.28439
994 1 -24.1259 -15.8517 18.1887 2.48304 -1.19153 0.210187
1296 1 -4.06266 -11.2287 4.93014 3.2481 -1.56877 6.77926
1305 1 -5.30105 3.68529 10.5257 3.93383 -3.45206 5.1703
1308 1 -16.9065 -2.45213 7.06778 0.766913 -1.05373 -1.20307
1312 1 -16.8243 -9.67053 3.70447 3.6519 -1.16107 2.43601
1608 1 -24.0364 5.04756 7.88902 -3.11238 1.26061 4.19914
1361 1 -5.95907 -22.4516 5.27865 0.541448 -1.80263 0.629932
1367 1 -8.89186 -14.1124 15.5159 1.78933 3.15675 1.3449
1373 1 -12.9774 -8.49314 13.7288 1.74055 0.543844 0.202144
1379 1 -17.9535 -16.9865 3.95765 2.48328 -0.500332 -0.519658
1386 1 -16.0092 8.95942 2.54047 -0.303135 2.48887 5.52669
667 1 -22.0464 -20.1251 23.3217 0.00920215 6.80912 -4.26377
1396 1 -16.8799 -9.07797 6.46305 -0.697856 -8.96927 5.12393
3686 1 -23.6249 10.0469 0.661561 -5.82496 4.40542 -1.75934
1415 1 -6.27153 -21.8743 0.931594 3.63391 6.01252 0.113893
1416 1 -20.9329 -9.00584 8.81986 -0.6187 -0.405506 -4.64267
1428 1 -3.81575 -19.6764 20.2289 -4.23761 -0.319737 1.68882
1429 1 -19.7193 -16.5724 6.49906 1.34894 -2.4043 5.33414
3163 1 -22.0179 -0.751668 15.3933 1.82798 3.91727 1.90756
1434 1 -23.229 6.9487 23.4671 -0.0154534 3.2284 5.78702
1441 1 -18.7845 -14.7895 19.3271 3.55483 0.502518 3.75365
1448 1 -17.0659 0.956598 4.02237 5.38762 0.161257 1.55053
1462 1 -9.91847 -19.2154 8.68179 3.94733 -4.39981 3.51979
1470 1 -2.92013 -12.0057 2.54126 1.44227 -2.76293 0.494076
2691 1 -19.4241 -22.8199 19.4844 0.59984 4.46815 3.11148
1486 1 -18.5931 -5.99117 17.4529 4.51945 -0.909916 -1.50675
1488 1 -17.5478 -17.0625 12.8348 -0.946327 -2.51378 -1.74238
1495 1 -21.4312 -9.92407 20.3596 -1.43441 0.0426473 -1.07761
1498 1 -14.241 5.90998 12.1392 -0.162274 3.72597 -0.843064
430 1 -22.9525 -1.93276 23.4574 2.51752 -6.76954 -0.0197293
1513 1 -20.2297 1.38015 18.6145 2.03604 0.505406 -0.868224
1515 1 -6.79879 -21.5426 21.3584 -3.44972 2.23544 0.360908
1239 1 -1.46088 -23.9525 5.9638 0.973197 0.888306 -2.34884
1521 1 -7.84825 -9.60054 16.3366 -1.64713 -1.85385 -0.916182
1523 1 -7.58876 5.0164 12.2057 -0.138502 5.45732 -5.01969
1075 1 -1.3422 11.0753 14.1761 5.31957 0.286972 2.74373
1529 1 -7.45834 1.9446 11.635 0.144353 0.14602 1.65391
1534 1 -13.3341 -8.95903 10.7549 2.32502 -5.30159 3.56634
1542 1 -21.0327 -5.30645 19.1685 -2.60209 -1.63709 2.15448
1545 1 -10.1768 -16.2952 13.8291 0.391522 -0.960323 4.48848
1546 1 -14.1767 -14.1034 20.7659 1.26554 -0.844609 -5.49842
1560 1 -18.4704 -18.9923 20.6162 -0.906529 0.363839 -0.704615
1563 1 -1.63227 -4.73529 13.58 1.26465 2.04515 0.70227
1572 1 -1.92863 -18.6103 12.4986 -0.651027 1.44381 4.21221
1573 1 -9.03586 -11.1639 18.3971 0.178197 0.466906 -5.80332
1581 1 -6.07881 -5.07836 10.9616 0.142825 -0.834056 -1.16413
1584 1 -4.29074 -5.34058 13.0816 -1.03313 0.879801 0.493378
1585 1 -9.18121 -12.5744 20.8228 0.747805 -1.63186 -5.91147
1586 1 -18.2886 -20.285 1.23357 -4.73864 0.819087 1.50188
1599 1 -20.9067 -4.73052 8.97748 -1.25307 -1.82727 0.633295
1612 1 -23.0499 -20.4926 15.8516 1.86141 0.613664 -3.13005
1614 1 -15.0525 -13.937 2.47696 -4.62819 -1.28445 0.734429
1621 1 -19.5428 3.63284 12.3518 -1.05695 -0.188461 -1.74137
1623 1 -8.65498 -16.9759 16.1845 -4.97451 -2.63785 0.675749
402 1 -2.05429 9.36807 18.2795 1.21216 -2.63582 -2.42108
2812 1 -8.54209 -1.52744 23.8018 -5.12941 -1.14033 -0.586886
1644 1 -19.011 -1.46306 11.2552 0.140534 -4.37515 -1.97374
1659 1 -4.01088 -23.5282 7.22535 -3.93216 -0.419136 -1.96414
1665 1 -6.09066 8.22676 18.2774 0.975457 0.929963 -2.16554
1667 1 -11.6212 -2.71888 7.87101 0.345153 -0.993434 -0.138941
1671 1 -13.2068 10.1 21.5324 -1.28996 1.05806 1.97641
1690 1 -6.31559 -23.4438 12.2937 1.75194 -2.52153 0.439792
1691 1 -15.6292 -14.1037 7.78263 -0.340368 0.706364 1.58227
1697 1 -10.6889 -22.9665 5.15578 2.90685 0.5776 -2.17914
1704 1 -8.05589 -11.9565 4.17634 -1.59822 4.09567 -2.09609
1707 1 -10.2718 -8.50524 15.2789 4.0883 -3.14105 -0.81083
1711 1 -4.60158 4.98779 2.74987 -1.09367 -0.861702 -0.778428
1720 1 -4.41883 -24.1073 10.11 -4.26463 -0.782491 -2.21354
1729 1 -15.4724 7.09147 15.3371 -0.824274 -2.41352 -2.89159
1733 1 -11.5629 -16.9416 9.14916 -4.58053 -4.44408 -0.417275
1739 1 -8.14895 -21.4306 16.2292 4.23757 2.29193 2.31949
1756 1 -15.4379 5.31717 8.60593 -1.17679 -0.38784 1.20954
1763 1 -3.37287 3.20691 12.957 -3.69101 1.81723 -3.44218
1766 1 -17.2068 1.51866 14.5887 -3.10449 1.91842 -1.808
1770 1 -9.36181 -4.99327 20.4806 -0.852617 2.32814 -1.2106
3241 1 -0.743875 -20.7898 16.2628 2.0132 -1.14005 6.27306
1788 1 -14.5943 -15.9854 16.1532 -7.0687 0.0429716 -0.704298
1792 1 -14.4295 9.05858 8.42008 -2.41622 2.80803 -0.836804
1807 1 -18.2827 -10.5054 23.0712 -2.40373 -0.302164 -1.15979
1813 1 -17.5313 9.04337 19.5898 -1.25452 3.65879 -1.85651
1818 1 -21.0861 -9.74774 4.91976 -1.93504 -2.50757 -3.20091
1819 1 -13.4646 -11.8843 17.4602 -5.52253 4.03695 6.25434
1824 1 -16.6162 -18.2466 8.56843 -0.558389 4.6061 -3.95388
1832 1 -22.1189 -12.943 23.2566 -2.30171 0.360565 2.23672
1833 1 -11.2317 4.25029 17.0766 0.85983 -1.45291 -3.52613
1857 1 -0.758969 -20.6511 1.55126 -5.40009 -1.44852 1.84771
1844 1 -5.85644 -3.82594 4.73846 -3.00427 2.87256 1.78343
1865 1 -8.4598 -4.89401 4.4432 0.917478 2.44504 -2.51398
1868 1 -6.43806 2.39923 17.2891 -3.97315 3.90894 -0.85379
1870 1 -17.6212 9.18773 14.8506 -5.78913 1.8171 1.41542
1877 1 -14.8049 -6.19631 7.48323 3.85749 1.97134 1.81107
1882 1 -8.78501 7.5607 17.4356 1.67776 0.618177 1.77177
1889 1 -12.6919 2.09512 10.2204 -1.41981 0.281184 2.81368
3045 1 -2.13217 -1.40219 4.26059 1.49054 0.856255 3.36077
1895 1 -18.3866 -8.57524 18.7464 4.26559 -1.96332 0.986885
1900 1 -10.9745 0.169707 3.6233 4.24144 -2.22539 2.29
1904 1 -10.2035 -23.2727 17.3737 -0.0078778 2.07088 -6.414
2566 1 -23.2894 -12.321 14.6061 -3.50786 -0.939788 -5.0854
1907 1 -21.3632 -11.509 16.2801 -2.6507 -4.70128 4.96302
21 1 -23.3973 -1.33544 10.7256 2.0998 3.05754 -3.80668
1910 1 -5.65218 -11.9924 13.8396 -4.99793 -0.954897 3.82596
2747 1 -2.33552 1.69945 15.4203 0.752436 -2.79551 0.694772
2522 1 -4.62418 8.4973 1.17387 1.94676 -2.31213 0.497791
1945 1 -21.4844 -17.4855 21.9336 -0.337289 8.66195 -1.71435
1951 1 -7.95185 -16.8433 11.7739 -1.77006 7.99437 -2.26882
1955 1 -12.0559 -18.9012 21.9595 0.882723 -1.43227 -5.62012
1956 1 -2.9504 1.17051 8.30663 -1.59681 0.639272 -8.2535
3181 1 -19.3127 -17.5061 23.9049 -0.678472 1.36352 1.88737
1969 1 -5.93675 -7.94617 11.0815 1.00261 -0.97777 2.18585
1972 1 -2.55309 -7.39444 8.03124 0.872858 1.55147 -2.23442
1982 1 -21.2081 -3.88667 22.0747 -0.304893 6.15473 -0.552852
1987 1 -20.9673 3.1315 9.89547 4.72331 2.85023 2.90703
1989 1 -10.1314 -15.3111 10.9529 1.91845 0.853845 -2.75545
1991 1 -21.7739 -23.9273 21.1464 3.98858 0.22216 -1.50957
1912 1 -13.876 3.52119 1.56721 -0.449762 -0.764094 -7.04583
3803 1 -18.5935 -4.6307 23.0382 1.98372 -1.54216 2.04262
3147 1 -0.865295 -17.6931 1.07906 -0.264453 1.77801 -0.64782
518 1 -23.6266 -21.5365 2.4321 -3.6996 3.20923 1.84878
2014 1 -7.36018 -9.41706 13.3416 -4.90867 1.3456 -3.95445
2018 1 -14.5983 0.534359 5.75399 3.70263 0.259311 -1.89618
2023 1 -19.8431 -12.1617 6.47357 -6.74035 0.991332 -2.61601
2032 1 -8.83667 5.3883 6.78552 -2.51567 -1.18412 -3.24796
2037 1 -18.0702 8.26262 11.4107 -4.39991 5.21378 3.58287
2041 1 -12.7973 -13.4397 22.9276 3.13874 -0.758167 1.92316
2047 1 -6.183 -12.9866 6.04876 0.957885 -1.16452 -12.477
2064 1 -12.371 -18.6254 11.4382 -3.22851 1.97063 2.85449
3711 1 -13.3114 10.6521 13.8583 2.14398 1.14355 2.87354
2071 1 -20.9494 -12.9957 20.3959 -0.970383 1.22002 -1.7046
2072 1 -20.3594 7.86363 21.6489 -0.059682 1.92681 1.20274
3121 1 -0.544604 -23.6912 16.5169 -0.420577 -2.2563 2.02395
2077 1 -17.3486 -4.3449 3.1101 1.62614 -5.10103 -3.32367
2086 1 -10.3474 -14.9734 7.44087 0.0445376 3.13288 -4.384
2091 1 -10.191 7.76892 12.4661 0.146942 3.90366 4.46607
2095 1 -19.4116 -7.86994 3.3405 0.716689 1.16772 1.93283
2097 1 -5.0486 6.5225 9.58243 -3.65408 1.99358 -2.50801
2100 1 -2.20357 -5.05164 22.1754 1.47946 -2.75753 2.53247
2101 1 -21.0089 -9.09797 17.7572 -2.16201 -2.53187 1.5905
2104 1 -22.3969 -6.47097 22.9219 3.62248 1.25644 -0.13016
2108 1 -11.8831 9.7896 2.18932 -3.01625 1.16409 -4.50541
2109 1 -4.40538 9.593 20.2822 -2.91209 -1.7496 1.98415
2112 1 -11.7179 5.86478 13.7175 -1.23274 1.1329 -0.268007
2113 1 -17.3758 -2.15744 22.0233 -1.95601 -0.490195 -2.28512
3103 1 -4.16365 -12.8502 23.5067 1.52777 -2.29762 0.763462
1730 1 -2.66213 -8.23953 22.4688 1.52659 -0.182962 -0.590946
2133 1 -12.8096 -13.816 6.87791 -2.0288 4.50985 -0.3323
2136 1 -5.61172 -19.6611 5.05205 -0.490303 -7.22618 2.29798
3925 1 -23.5763 4.29323 2.5638 2.36426 -2.59209 -0.336848
2142 1 -17.526 -10.0793 16.6074 -2.35945 -6.25827 3.17228
2160 1 -19.228 -0.599424 20.4924 -1.74848 -5.60619 -4.43131
1409 1 -1.99251 5.07258 22.2772 2.32431 0.401649 -1.20451
2171 1 -5.06153 3.45197 5.0705 -0.488587 5.02556 -2.38434
2181 1 -15.9179 -20.4558 19.8334 0.0595446 2.92447 4.15245
2182 1 -1.817 1.26116 11.2419 -0.667909 -1.20414 1.8959
2188 1 -13.2119 6.62545 9.8173 -2.03336 -0.0127323 -1.29557
2665 1 -24.4093 1.5009 1.17924 -3.58679 2.26537 -2.48928
2200 1 -1.96368 -23.547 1.45507 0.636474 -5.72529 5.82615
2218 1 -16.5532 -5.80855 21.2623 0.301592 3.92599 7.71606
2219 1 -10.7601 -23.9738 14.7001 1.38232 2.71743 1.50218
2239 1 -15.6467 -9.58369 21.9285 -3.23901 0.968243 2.07037
2242 1 -10.7428 -15.2466 18.5089 2.73403 -3.94735 1.24283
165 1 -17.4805 10.8467 17.1076 1.94349 3.48461 -1.44185
2259 1 -20.5535 -8.57352 22.6331 -1.04327 -4.20692 -5.19833
2265 1 -2.62452 1.6397 19.7345 -0.311122 -1.22282 5.60522
2266 1 -21.4559 9.02144 12.8984 5.11457 -1.32127 0.665237
2273 1 -20.8957 -21.1579 17.7277 -0.677357 0.232424 4.21597
2274 1 -6.98823 -1.44298 19.2149 1.00446 3.14251 0.972604
244 1 -21.8564 10.7923 23.5048 0.511542 2.94088 3.08212
2277 1 -14.6599 4.09049 21.2776 2.43422 1.95989 -1.95572
2279 1 -11.955 1.81096 5.77106 1.73175 0.119783 -6.69931
3621 1 -9.06734 10.9456 10.9641 -2.41637 -1.54305 -0.35351
2312 1 -18.6551 -21.8033 7.01919 0.0269611 3.07371 -1.15326
2314 1 -16.8548 5.39593 11.0049 1.50203 -2.39976 1.73377
2316 1 -17.0032 -11.8164 1.53908 -2.91523 3.44702 -3.15069
2331 1 -15.5134 -18.565 11.3076 2.69154 1.02741 0.920803
2346 1 -3.50441 -21.1617 8.81323 -8.52091 -0.628354 1.26256
2355 1 -7.04791 -0.898396 1.96485 1.49829 -1.10391 -2.52854
2357 1 -0.764323 0.741448 0.83101 3.74417 4.8142 3.65382
3390 1 -23.9241 -23.1546 15.2106 -0.23177 1.208 -1.00909
1267 1 -23.3119 -14.6612 3.53314 -3.90928 -0.202203 3.00816
1511 1 -21.9336 -6.60321 16.2702 -4.75946 -2.22633 0.428448
2387 1 -11.7953 -6.40059 10.8105 -0.144937 -0.958501 -0.505168
2391 1 -7.34228 -2.58594 6.83901 1.15603 -1.88229 0.532964
2397 1 -15.5401 -8.15823 19.5412 3.32659 3.9764 -2.5537
2398 1 -9.40127 -1.80946 14.292 7.22043 0.419305 0.00962162
2399 1 -11.1812 -11.0006 10.0563 0.291075 -2.48637 1.40865
2407 1 -12.1747 -12.8366 14.2741 2.29689 -2.31592 -1.47453
2422 1 -14.003 3.00883 17.4318 2.66694 -5.60215 1.11855
2430 1 -14.5133 -7.23803 16.9524 1.82894 2.57717 -4.07915
2436 1 -6.42615 11.0696 17.4746 -0.935341 0.699242 -0.437038
2437 1 -14.2364 -4.85428 10.043 -9.16266 1.29621 0.0436268
2446 1 -1.4311 -6.61882 15.7312 1.3364 -2.74943 3.16393
1156 1 -17.3103 -13.0003 23.7056 0.459978 2.23509 -5.30798
2453 1 -1.63813 8.96527 11.8557 5.51359 4.14257 1.48268
2457 1 -4.72448 0.715079 10.6243 1.11424 1.65942 -0.791765
3634 1 -2.59042 4.11531 9.02538 -1.56227 -6.90785 -2.96281
2472 1 -19.4209 -0.449987 14.0852 -2.55092 -1.29932 2.6204
3924 1 -9.61874 -8.11431 11.4524 0.539403 -0.469844 7.36449
2479 1 -21.1125 -4.06469 0.591854 -1.47153 -3.47071 -1.14726
2199 1 -18.1618 11.0377 1.36731 0.930919 -2.08576 -2.78372
2486 1 -3.8752 -18.7817 6.97815 5.85061 0.0725607 -2.26177
2498 1 -6.3361 8.25075 5.42323 2.99834 0.694813 -0.150088
2499 1 -22.7422 -13.9066 8.17295 0.450666 0.92906 0.556435
2502 1 -4.92476 -11.1839 8.30941 3.35456 2.96468 -1.28386
2509 1 -3.71182 -7.95237 3.06735 2.49755 2.2666 1.74744
2512 1 -10.6521 10.2102 13.3104 1.35614 -1.35079 -2.30497
2517 1 -10.9295 -12.8859 16.8775 1.95879 0.955682 -0.338289
2708 1 -13.2278 1.6568 22.0946 2.37743 0.539547 2.31131
2532 1 -11.7712 -15.6625 1.06544 -1.35535 -0.914185 -0.625632
2974 1 -23.0411 0.448607 18.8667 0.981549 -2.29786 -3.72097
2546 1 -14.3835 2.8005 12.6579 -4.64234 -3.39417 -0.532939
2547 1 -13.0932 -3.70984 4.53352 -1.83913 8.17316 -1.38219
2552 1 -1.02144 -11.8557 8.70143 2.26469 0.124302 -0.617305
2556 1 -8.11994 -13.2571 10.6558 -1.84923 -2.25563 -5.75953
2559 1 -16.277 7.50473 7.05267 -3.0016 2.5378 2.60911
2561 1 -9.33823 -2.50325 10.7296 1.09762 -8.42659 0.720042
2579 1 -9.27115 8.37676 2.8443 1.61782 0.549356 -1.68506
3920 1 -11.2344 10.6287 17.1596 1.04329 2.16949 -0.704017
2591 1 -4.62704 -23.8357 14.5953 1.59875 -0.580094 -0.607915
2933 1 -23.9622 -4.80835 11.9625 1.32542 3.26153 -3.35817
2599 1 -5.67233 1.52775 7.16813 6.21724 2.80166 -1.86982
255 1 -23.0264 -22.0831 10.252 3.03429 0.745975 6.55094
2612 1 -13.4905 -20.0567 17.9229 -2.1381 4.22111 0.639798
2613 1 -22.3779 4.9915 16.1258 -0.186565 -2.60512 2.73453
2615 1 -3.60056 3.06917 17.4316 2.61473 -4.23618 -2.23374
465 1 -0.638423 -12.6509 3.87847 -4.64138 -1.83864 -0.214095
2625 1 -6.27942 -6.64223 23.4061 -1.66947 -1.73808 2.46074
2626 1 -4.81157 5.09021 22.6616 3.78666 -2.19647 -2.78113
2629 1 -21.0712 -2.92001 5.19527 3.05564 1.77068 -4.22533
2630 1 -12.2402 -9.12765 17.3511 3.39111 0.558047 4.78469
2636 1 -14.7733 -18.7637 15.4194 3.14625 -0.310635 3.77695
2642 1 -4.1865 -16.9684 2.70501 -5.14061 -0.50373 -1.85691
2647 1 -10.5536 4.3738 4.65626 0.948024 0.759046 0.465188
2650 1 -5.4735 8.82291 13.2331 2.92681 0.20448 2.99874
2651 1 -17.3088 -17.3397 15.7145 -2.75496 1.03695 -1.46765
2655 1 -2.75192 -9.44166 1.00809 -3.06579 -4.89177 3.4846
2657 1 -9.80117 -6.26644 6.6867 -0.0465049 3.71397 -3.13684
2658 1 -5.10662 0.534686 15.1516 -1.16873 -0.471417 3.17759
2662 1 -20.7971 -23.8019 9.92993 5.2891 -0.504523 -2.36889
2663 1 -8.61251 10.1649 21.9174 -2.2417 -1.22416 2.09232
1223 1 -24.0707 10.1489 12.707 1.01957 3.6399 1.26305
1631 1 -22.5922 -19.8967 8.27213 4.39765 -0.359702 -2.71924
2682 1 -21.4099 1.67852 13.5022 0.377614 -0.592007 -2.22959
2685 1 -1.26052 -8.09075 4.86472 -1.07975 -0.366852 0.680453
3150 1 -21.6745 11.0373 4.22129 3.72195 2.80484 4.29269
2694 1 -4.06041 -13.6264 20.7029 -1.88196 0.929295 3.95384
2700 1 -5.14185 -19.6608 2.36487 2.98599 2.42745 2.124
2705 1 -1.59808 -5.62567 6.00314 0.991974 -3.87275 1.16867
2707 1 -9.48522 -13.9227 1.36436 5.89028 1.50425 -0.508133
553 1 -10.0159 5.71048 1.95306 -2.02911 3.26954 -3.03277
2715 1 -10.7984 10.2892 19.7472 0.617688 -0.0945087 3.44589
2724 1 -5.94993 5.69108 6.8291 3.86628 -3.95321 0.80358
2730 1 -5.33679 -16.7367 10.2643 -1.0028 -7.78465 -1.45546
2684 1 -22.5204 -11.9691 3.21248 2.61605 3.43025 -1.73447
2738 1 -7.90779 7.67624 14.0598 1.16571 -1.49887 -2.92434
2739 1 -12.8022 -7.24716 20.3635 -4.34657 1.60476 -1.66433
2741 1 -6.45144 7.18557 2.77219 -1.33895 7.12393 3.05346
1661 1 -21.1832 -3.38427 16.8249 -7.63297 4.78187 -2.17068
3495 1 -23.977 -4.33186 16.7345 -0.430912 0.716606 2.0396
999 1 -20.2073 8.86359 8.44063 -0.769933 0.359496 3.65214
2759 1 -17.7124 -15.8166 8.52537 4.17986 -5.40607 0.393364
2761 1 -6.92124 -15.161 17.7178 1.75435 2.42304 1.5179
2762 1 -9.8619 10.0028 8.01882 -0.223174 2.23782 -7.19912
2763 1 -6.77785 -12.2772 17.2342 -2.93597 5.00351 0.168681
2775 1 -4.56551 -18.443 15.9589 0.243239 -2.34113 3.87015
2792 1 -6.11558 -6.08936 2.78044 0.805384 -0.452144 5.78125
1525 1 -8.54229 -8.04139 0.65272 -0.636832 -1.7388 -3.95475
207 1 -7.25551 8.12462 23.6006 -1.64962 0.129015 -4.28225
2822 1 -14.4802 -4.16126 2.28721 -0.027213 -0.185167 0.0990766
2830 1 -22.3144 7.59926 1.66943 1.44605 0.945165 -4.88748
2833 1 -22.4484 1.74346 5.52924 2.03603 2.99482 0.7237
2834 1 -9.67102 -16.8736 22.3259 1.79667 0.3379 -1.30823
2846 1 -21.833 1.00541 3.00044 -1.46034 -6.41975 1.03088
1045 1 -6.20874 -2.85664 23.379 2.3446 0.506645 1.33997
2860 1 -23.6138 6.68339 19.4431 -3.82879 5.25436 -3.45476
2869 1 -18.9307 -17.3673 18.2557 1.07748 -1.41853 4.55739
2873 1 -10.7825 -2.8772 3.62637 -4.24674 0.0932104 -1.02882
2880 1 -1.78631 -0.678664 13.492 0.378798 -3.984 1.5324
2882 1 -19.9198 -15.1174 22.3486 2.10233 -0.485776 1.00916
3017 1 -14.2048 5.91072 23.2444 5.92061 -3.8165 -1.13668
2894 1 -7.34247 5.16465 16.0738 -4.24853 -2.81821 -2.29081
2896 1 -12.9839 5.06382 19.2377 0.63381 1.45569 -1.47888
2899 1 -3.35073 -20.5735 17.6926 1.90554 1.42414 0.567564
2903 1 -13.0679 -14.2083 4.28136 0.379878 1.6831 3.29749
2910 1 -14.4019 7.49229 18.9128 -5.50542 -7.34209 -0.149879
2917 1 -9.19144 7.86441 5.74614 -5.57828 2.78313 3.00391
2923 1 -11.793 -0.854361 18.2771 1.51896 3.19371 -2.46649
2954 1 -14.0707 -2.13289 6.64798 -1.14911 -1.49543 -3.24285
2592 1 -1.50956 -17.4301 8.40196 1.55972 -4.7956 -4.32469
3873 1 -5.19504 5.31661 14.0998 -1.34578 1.1421 4.43615
2969 1 -5.22072 -1.98259 16.8412 -4.75017 -2.56256 2.02328
2981 1 -13.3603 8.88724 16.3522 1.24361 3.1547 0.208871
2982 1 -12.3946 -6.39216 5.71076 -2.75549 1.38291 -0.537513
3785 1 -3.04123 -22.2684 23.4264 -2.10394 -0.0177842 -0.385708
2985 1 -12.1751 -13.3953 11.3998 -0.239297 2.31155 -0.119987
2997 1 -5.82466 -16.8432 7.28011 3.11149 -2.39287 -1.73616
746 1 -14.3504 -7.03043 22.8754 -0.587279 -4.24353 -0.68733
3009 1 -13.7877 -22.8546 10.2649 -1.10696 -1.29805 -5.09894
1048 1 -1.28911 0.0633597 17.8542 2.24636 1.23599 -2.46552
59 1 -20.2017 10.1039 18.4207 1.61001 -0.0531386 -0.349872
3019 1 -19.309 -21.7467 11.4015 -0.0264289 -2.54344 -1.94711
3020 1 -12.5394 -11.1926 7.55814 0.853696 1.71438 3.81416
3033 1 -12.7364 5.60002 5.97322 -0.429216 0.648277 3.04628
2980 1 -5.77444 11.0849 1.75831 0.637141 -1.4566 -0.932497
4000 1 -17.9444 9.31573 22.7631 -3.7371 2.68017 -0.66725
3074 1 -8.49129 -8.79056 6.3549 5.73152 -0.615957 -0.461159
3081 1 -18.7842 6.65121 6.59144 -0.838497 -2.26252 6.44395
3971 1 -5.80503 -3.21689 20.6898 2.10189 0.326343 6.4579
3084 1 -14.7549 -22.8024 5.99188 -0.166834 -4.43755 -3.30583
1536 1 -6.34421 0.527965 24.0759 -1.92307 0.0417067 -0.107523
3091 1 -4.29805 2.08426 22.3406 -3.22366 -0.578013 -1.81681
3092 1 -8.77607 -7.77714 20.8032 -2.09766 0.150329 0.537084
3098 1 -9.85114 -19.1039 4.07283 -1.72561 -1.01823 5.41532
3869 1 -7.42258 3.58519 8.58215 -1.42845 1.37462 1.4621
3104 1 -19.4723 -8.15445 6.50579 5.4106 4.27386 -0.720409
3933 1 -2.4921 -10.5184 18.3493 3.26202 -0.529993 -2.92045
3119 1 -7.22028 -9.79134 2.79387 3.41102 -2.31073 -2.79491
3907 1 -21.0119 0.0674875 9.92238 0.929589 4.11099 4.5512
3129 1 -1.83698 -13.8611 12.2287 4.17005 5.23865 -1.62555
3136 1 -16.9847 -21.268 4.97077 -1.22758 -0.826232 0.0518658
3903 1 -15.8708 -15.0802 5.09616 -0.308244 -0.914324 1.02879
3155 1 -4.41716 -13.147 0.65025 0.211447 -0.363011 -0.345827
3164 1 -20.9479 5.24691 22.9462 -1.12519 1.11372 9.1452
3168 1 -16.2217 -20.9265 16.8776 -1.55207 0.800276 3.43888
3172 1 -7.68294 0.451134 5.11738 2.18623 0.220556 -7.2772
3943 1 -20.6005 -20.8726 2.68299 -1.43925 -5.6681 0.0108195
469 1 -23.0078 -14.24 12.4381 -2.48779 -2.23902 -3.55014
3187 1 -19.2655 -15.7486 1.89835 2.12831 -2.73817 -0.0895495
3194 1 -16.9491 -7.15361 1.996 3.31933 1.30837 7.09381
3195 1 -17.2315 0.310284 1.08978 1.74512 -3.23699 5.71489
3197 1 -3.52767 8.88605 5.73586 3.75314 1.88621 -2.37964
3201 1 -15.9085 -3.2734 19.7677 0.477606 0.111889 1.88355
3204 1 -14.9959 -10.9865 9.14126 2.79193 -3.5588 -7.08926
3220 1 -4.00394 -11.479 16.0708 -3.24458 5.24187 4.01128
3222 1 -14.2095 -19.498 0.834115 -1.94793 -5.42867 -3.02654
1393 1 -1.61691 -4.1948 3.52034 -0.902935 0.851664 0.591716
3225 1 -9.06411 -6.40602 13.7434 0.656018 -4.80875 -1.20629
3237 1 -1.31155 -14.3972 21.5045 -2.66755 0.898092 2.15013
3239 1 -13.5904 -18.6413 8.15688 -4.72754 -3.63752 0.537188
3257 1 -11.9682 7.38023 22.0785 0.477011 6.72123 1.34682
3258 1 -19.1968 -6.69192 20.8226 -0.874268 -1.93976 0.209161
3841 1 -23.787 3.4769 10.3692 0.255545 -3.96863 -2.14495
3277 1 -1.322 -17.1958 3.70149 -3.97411 4.43608 4.91539
3281 1 -5.22876 -13.7788 11.3324 2.57071 0.0761163 0.0235064
3283 1 -4.49034 -1.0331 12.9573 10.0659 0.502805 -3.23649
3287 1 -4.25661 -15.8282 16.7939 1.60564 3.53231 3.3306
373 1 -16.9526 6.53585 23.8516 1.3549 2.2007 5.41495
3296 1 -16.4424 -13.6744 15.6967 1.43161 1.32214 0.165462
3302 1 -18.7174 -10.9679 20.2501 5.2359 3.49865 -1.44996
859 1 -13.3208 -9.54189 0.459537 -1.75537 0.791737 -4.68503
3312 1 -22.8278 6.55945 13.8461 -2.80292 0.807733 1.05997
3318 1 -12.0432 1.26981 16.198 0.143246 -1.4609 1.94063
3321 1 -10.7628 -19.8298 19.5041 4.54816 3.04312 -9.28406
3332 1 -4.32277 7.93929 22.5479 2.91305 3.93888 1.28967
2010 1 -7.86752 3.25805 23.5297 0.528725 0.881141 -1.09945
3348 1 -8.06406 -19.5428 1.57607 4.53111 1.58971 2.12974
3350 1 -2.88241 -9.05736 14.5742 2.95354 2.05079 6.0332
3351 1 -20.9193 -14.1274 17.4936 -0.957052 -0.859919 2.01165
3353 1 -23.1467 4.46853 20.8835 1.98382 -1.25206 1.29163
3360 1 -8.22945 -19.3294 18.2539 2.29666 -2.27957 -3.93106
3371 1 -9.92757 3.39746 13.0287 -3.95241 -4.44193 3.22591
3376 1 -15.3702 8.55339 12.7814 -0.375627 -1.99545 0.225569
3983 1 -21.4338 7.22373 10.4612 4.70731 3.45042 0.959797
3387 1 -18.6157 -2.35958 1.25916 -5.51005 -2.20623 7.4058
3388 1 -19.3492 -6.16097 14.6814 -3.79587 -0.545653 1.75247
3391 1 -7.56066 -14.6281 3.29297 2.28445 1.17557 -7.97994
3394 1 -11.5022 -1.21047 12.2105 1.68453 0.733221 -1.33177
3397 1 -5.61486 1.02815 19.8917 1.02219 2.66599 -4.17557
3160 1 -11.6087 -24.5125 23.8242 4.80862 0.0101104 2.75093
3409 1 -3.63539 -17.0802 19.0754 0.810611 -0.912797 -7.21371
3410 1 -19.187 -11.0703 14.4028 2.08905 -1.19714 -1.42509
3411 1 -6.78033 -5.96363 20.7198 -1.12155 -2.82344 0.824012
3417 1 -20.2823 -11.7845 9.27023 -2.51682 3.36293 0.015286
3419 1 -9.98978 -11.2505 2.11929 -2.33254 -1.7236 -4.9584
3420 1 -17.2225 9.53121 9.06133 -3.43467 -0.776994 4.46536
3423 1 -11.1756 2.82456 1.90869 -1.18551 4.4636 -2.90903
1942 1 -1.92298 8.99568 1.95743 1.27951 0.983229 -1.21943
3426 1 -20.2103 -4.99254 3.15667 -2.91102 2.00855 -1.84608
3430 1 -13.5402 -15.9998 18.9113 0.341239 0.942873 2.01362
3432 1 -2.02263 9.37491 8.95758 -1.64007 0.666915 4.37558
3436 1 -4.10634 9.42083 16.1142 0.733971 1.05229 -2.40544
691 1 -0.990106 6.93736 13.8152 0.159986 4.15817 -2.00798
3442 1 -5.36145 -0.948396 4.41042 -1.0438 0.98703 -2.32162
3448 1 -18.6258 3.94077 15.1989 2.4136 -0.564277 2.44964
3461 1 -14.4433 -24.5263 19.9306 2.87963 -3.86851 3.37283
3464 1 -17.8557 -21.608 13.8464 1.46037 -3.00906 3.44539
3468 1 -7.55849 -9.06258 22.9581 2.75097 0.673964 0.890661
742 1 -8.32237 -22.0655 23.5581 5.76316 -1.26351 -4.69012
3105 1 -23.436 -6.6533 20.2934 -1.12957 0.283914 3.07609
3490 1 -17.2148 3.50097 5.26216 -0.56301 3.00206 -1.48599
1020 1 -18.4381 -24.4001 8.33288 0.857603 2.0463 -0.851188
3497 1 -14.9726 10.3509 18.3694 -0.511977 0.965517 1.33261
3510 1 -14.2339 4.61577 14.9124 2.89144 -5.555 3.07886
3512 1 -20.9501 3.77795 2.01851 1.95723 1.29954 -1.29265
3519 1 -4.59717 5.79192 16.8755 1.05553 1.59263 -6.79117
3520 1 -5.81977 -15.8616 20.3899 0.0307847 0.95593 -1.93819
3523 1 -13.3929 -21.3769 7.89057 -0.0544006 -2.64299 -1.48622
3529 1 -22.3688 9.59355 20.4696 -3.21465 3.88006 0.786998
3549 1 -13.7425 9.41219 4.34792 1.70565 3.32665 -2.2426
3556 1 -8.78025 -15.3633 20.2139 1.17666 -0.263202 0.616934
3566 1 -9.27962 -16.4075 5.34662 0.387351 -1.75522 3.12489
2537 1 -1.95343 -23.6318 13.8158 -0.587971 2.58823 -1.04154
857 1 -22.4413 -6.69235 10.3835 -1.11818 0.422584 -3.57755
515 1 -2.05929 7.2396 16.3416 3.10484 1.53005 -0.37104
3595 1 -2.12205 -14.6991 7.668 1.40035 1.75716 1.12837
3603 1 -5.64553 -1.20047 8.50421 -0.811262 5.48272 0.284401
3607 1 -19.1824 6.49463 19.6449 1.43184 -2.99779 0.506997
3616 1 -11.3807 -11.1712 22.1381 -1.8879 0.827373 -1.95235
3629 1 -3.5313 1.38628 3.93931 2.14314 7.87502 -4.22946
3632 1 -12.7823 -15.5665 14.0888 -2.21445 -3.00657 -0.153007
3863 1 -13.3875 -3.30528 12.4097 1.84468 0.567341 -0.941675
3642 1 -2.11428 -14.6464 4.83423 -0.763 0.267396 0.554926
3651 1 -10.5414 7.79541 9.65365 3.1796 2.64787 0.147372
3656 1 -11.0665 -22.4134 20.7489 -0.523347 2.89931 -5.60763
3668 1 -13.2074 -2.50762 20.1989 -1.60809 -0.0410814 -2.7686
3979 1 -8.20381 -22.8532 3.19909 -0.534522 6.09609 -2.73154
3673 1 -4.37224 -22.5921 21.0692 0.719429 1.83003 -0.694307
3678 1 -18.9747 6.7901 15.7409 0.179709 3.16182 -2.18281
3681 1 -7.73378 0.648741 14.1358 4.78231 0.634137 1.61693
2815 1 -22.9276 9.32528 7.41048 -0.30585 -0.104768 1.02287
3289 1 -16.269 -24.3479 9.93742 -1.28565 4.61389 5.20024
3698 1 -20.8148 2.64667 16.2914 3.96146 1.58469 -3.1374
3699 1 -8.03964 -3.96543 12.6495 -9.55927 5.02229 1.98003
3710 1 -5.09881 -8.70042 16.6187 0.291328 2.3469 -2.6002
3714 1 -10.5176 0.112483 22.4439 -1.4361 5.97811 3.49665
3718 1 -17.3169 6.63339 1.32546 1.64144 -5.93844 5.31692
3738 1 -6.12854 -6.79843 14.6014 -1.48698 1.74338 0.34641
1421 1 -23.4967 -9.78744 5.99363 -0.332489 -2.06699 -0.774419
3751 1 -2.84337 -1.4099 0.256759 3.06742 1.1183 -0.0208227
3754 1 -11.1765 5.0724 8.53178 4.43262 -6.26882 -0.984966
3767 1 -10.3877 -21.4986 1.80873 -3.37954 3.57999 -1.59888
3769 1 -20.6819 -17.9121 8.91678 -2.18095 2.66856 2.70558
3770 1 -7.49516 -5.01368 8.44478 1.48475 -2.47203 4.20473
3779 1 -10.4175 0.727419 8.16452 5.41496 -1.67196 -0.863602
3781 1 -3.89286 -4.4993 6.87828 -1.51367 -5.55434 -1.14652
3792 1 -8.41793 -10.4304 10.5774 0.910382 -3.33901 -0.358913
3797 1 -13.7136 -15.0228 9.57318 1.37765 0.933551 -0.315307
3810 1 -17.365 -2.49776 14.6898 4.39027 2.30092 0.305288
1629 1 -5.9222 -24.7166 19.5226 3.56703 -3.01447 2.22705
3816 1 -13.6904 -9.35752 3.30752 -4.24365 -5.93558 2.22098
505 1 -1.36271 7.8707 23.0364 1.57454 -5.60523 6.17287
3843 1 -1.78639 -18.28 15.3905 0.263643 -1.77381 5.54822
3844 1 -21.4569 -14.5021 5.74374 1.91589 3.07833 8.99622
3438 1 -17.8447 10.5492 4.23389 -4.46613 -0.215084 -0.981316
3861 1 -16.9106 -14.9218 21.6077 -0.0180453 -5.88478 -2.83297
1811 1 -0.858729 4.03483 20.0887 -2.84136 3.94812 -1.86849
1742 1 -0.749676 -6.00835 19.9647 2.06647 1.84988 -3.03778
1777 1 -24.3871 -10.9898 17.2045 -3.57273 -2.91695 -3.76593
865 1 -1.05226 -21.396 12.625 2.65453 -0.468357 -2.97339
3939 1 -24.1009 -2.12528 13.5877 -3.21256 0.242879 3.0295
1147 1 -9.27714 10.1608 0.52424 -0.0252632 3.00355 -3.91707
2622 1 -0.819008 -17.1281 22.2512 3.09153 -4.36026 -2.02292
3555 1 -24.1305 -18.7065 1.7929 -0.564655 -0.947858 0.863195
1908 1 -14.8205 -7.18376 -0.05602 1.13026 -1.23873 -2.91201
1999 1 -0.941919 -8.91577 20.2723 -2.2626 3.89729 0.111688
3015 1 -4.05028 11.4388 9.78641 -5.71091 3.10036 3.80275
531 1 -24.1136 -9.67301 13.3141 -1.70681 2.8252 2.29359
1519 1 -9.80614 -17.4318 0.134502 1.7789 -1.63673 -0.986913
3354 1 -13.8431 8.63567 0.340681 -0.0119536 -4.30307 2.18788
1582 1 -12.5233 5.91395 0.612399 2.68397 4.17646 2.54368
2021 1 -6.26507 11.0072 11.4606 4.12146 -4.80301 -0.939488
3425 1 -24.3876 -9.16662 19.3907 3.43856 -0.433012 4.52022
419 1 -22.4664 3.09543 24.19 1.79552 3.60072 5.17601
2711 1 -13.5833 -4.72054 24.1848 -1.3572 0.962836 6.96376
678 1 -18.706 -5.83405 0.136396 1.88103 1.67371 3.39989
1128 1 -1.83902 11.3026 -0.0968867 2.14561 0.596397 -4.44677
2141 1 -21.6699 -24.0377 0.191806 4.19594 -2.48611 9.34417
1359 1 -20.8491 -22.95 23.7786 -2.08736 3.32027 0.429746
2252 1 -21.8315 -12.0437 0.0284863 -2.36614 3.30016 -1.6945
628 1 -21.5472 -16.3673 0.0741671 1.39796 -0.566765 -3.32272
32 1 -9.36098 12.3522 -20.573 -3.54139 2.11912 -1.97078
36 1 -13.2299 19.5534 -18.1617 -0.952756 -1.40552 -4.93032
45 1 -10.5532 13.4064 -4.28146 0.0582911 -5.77716 -1.27722
1034 1 -13.1282 13.2229 -9.1134 -3.56929 -0.999371 -1.4219
67 1 -14.31 21.1422 -10.5362 0.456254 3.36052 0.606208
1180 1 -9.9915 45.0625 -10.8264 -0.533908 -0.910417 2.90051
70 1 -16.4838 14.7776 -15.141 -3.52048 -2.41586 -0.448052
3524 1 -0.755732 23.6296 -1.861 2.77521 2.54892 0.600425
78 1 -19.1167 13.4235 -8.81826 7.46659 2.43835 -3.91833
80 1 -13.2567 13.7699 -14.0078 -0.596045 0.495539 0.460651
83 1 -22.0728 11.6821 -1.15716 1.16295 3.57342 -0.414801
88 1 -10.6526 23.6995 -18.3426 2.74894 1.44096 0.957135
109 1 -13.8594 16.3815 -14.3975 0.268032 1.97161 0.566534
130 1 -7.95043 17.7884 -18.1339 2.25731 -3.40405 0.0748776
154 1 -9.17449 21.5693 -6.96119 -2.00885 -2.90881 -1.55621
172 1 -21.2508 20.6845 -20.8504 -0.609273 2.0813 1.25839
176 1 -6.49675 22.8797 -2.25516 -1.91126 -1.18779 -3.53138
209 1 -6.0676 18.4061 -14.1258 -1.71725 6.64794 -3.65094
2754 1 -13.7399 25.1257 -0.714408 -0.146188 1.63637 0.309591
212 1 -17.1903 25.6767 -3.66498 0.0760913 7.07364 0.782881
4182 1 -1.47079 36.7333 -1.19325 3.58419 3.21988 0.357203
245 1 -8.78769 25.4632 -10.1182 3.5414 -0.3909 -0.824112
267 1 -11.2503 19.2429 -10.3131 0.686087 -3.13868 0.823002
268 1 -20.884 20.3926 -11.2604 -6.13825 -0.907257 -0.880385
210 1 -19.0436 11.9115 -1.23473 1.38083 -0.16337 -3.30887
301 1 -7.73293 21.8665 -19.9799 3.28146 2.45366 -3.73961
2983 1 -7.13159 13.6199 -22.3183 -1.81185 2.75336 2.59268
374 1 -6.50013 18.5359 -11.0641 5.00059 -3.22211 6.64104
2172 1 -1.75298 21.7399 -3.86931 3.5969 2.99554 -0.45908
4205 1 -2.70774 39.0943 -2.28338 -0.593492 0.931394 0.783356
3116 1 -12.3076 17.1693 -1.14516 -3.76077 -0.652624 3.61148
439 1 -3.06067 24.0067 -6.36581 -4.02286 -1.30447 -0.490793
440 1 -8.9995 13.465 -13.5389 -4.75915 -1.13771 -2.29114
489 1 -12.6188 23.5383 -10.9054 3.92589 -2.51176 0.192872
2760 1 -1.21296 13.38 -17.6877 -1.18467 0.0333858 3.23029
521 1 -11.0941 23.474 -5.92653 -2.78838 1.88645 -0.947689
526 1 -19.4997 14.5707 -4.63205 -3.37041 -1.6059 -0.244704
527 1 -4.59189 13.2833 -7.02345 -0.65642 4.9915 2.40831
528 1 -16.5879 14.6605 -10.0339 -2.67354 -3.20329 -0.10656
556 1 -11.6299 18.0858 -3.65071 1.04443 0.930855 5.28991
567 1 -22.1565 22.2737 -4.32631 -1.81454 -3.69808 4.28719
569 1 -7.76824 24.4086 -15.1145 -2.99852 -0.56142 2.94911
612 1 -4.844 12.6958 -13.4071 -5.66513 1.52277 0.0648503
617 1 -13.2831 22.4667 -18.9464 -7.27265 -3.05561 -1.78722
621 1 -6.07165 15.6681 -12.9895 -2.20504 3.57209 -3.10361
4198 1 -1.98238 41.3344 -8.91424 -0.099823 1.24564 0.694583
1054 1 -16.4238 24.1023 -1.30395 -2.74764 0.00311389 0.498507
682 1 -3.6059 17.7082 -5.31773 1.81295 0.233634 -1.60067
697 1 -22.1506 15.5184 -22.6618 3.60733 -3.07643 -1.79293
723 1 -22.0185 13.335 -5.17239 0.896544 -3.79583 1.01062
724 1 -10.1524 22.0111 -9.52616 -3.33445 -1.90202 -1.68161
728 1 -11.1754 17.2501 -8.21733 6.85543 -1.80044 -0.928277
731 1 -11.1471 13.0222 -23.0049 -1.15256 -0.0567285 -2.82274
757 1 -18.3279 12.0678 -5.32628 1.84557 1.86532 1.18814
4221 1 -3.48857 43.7913 -9.57587 -1.01434 -2.6375 -4.75691
766 1 -9.86675 17.3156 -15.9952 -0.918997 -0.712379 -1.66338
3151 1 -11.4447 47.1469 -14.7082 -0.376155 -0.178982 -1.17848
4170 1 -1.93498 36.5933 -5.67177 -1.81925 -1.688 -4.31917
792 1 -22.8381 15.5547 -6.81359 3.43513 1.7823 -1.69871
799 1 -10.6583 20.8468 -2.81858 -1.04009 3.27288 0.107737
809 1 -6.18861 25.0674 -17.2955 1.16074 -0.292456 1.70433
813 1 -15.3787 22.9963 -16.9393 -0.289958 1.94484 -0.578703
839 1 -23.6601 19.1707 -10.4806 -1.60777 -0.424373 -1.06473
848 1 -3.84348 17.1553 -11.7088 3.32536 -7.32335 -1.03805
851 1 -22.1409 15.3421 -14.3972 1.97508 -1.29676 -5.25236
855 1 -17.5122 22.6807 -20.8197 6.63828 -0.00706646 0.641175
4230 1 -0.981273 45.3188 -1.13309 -1.7652 -1.49935 -0.950759
3880 1 -8.75615 19.1016 -22.6672 -1.07007 -5.82308 3.04759
903 1 -8.20396 24.5603 -19.38 2.88812 -3.73635 5.37061
912 1 -16.3135 23.1483 -9.62944 1.08268 1.90726 1.05916
934 1 -3.8946 20.5727 -21.9394 -2.57941 1.20406 0.715521
955 1 -10.8839 20.8324 -18.6279 -2.4464 -1.88127 -0.0194245
963 1 -16.948 23.3009 -12.6052 0.639837 4.19479 1.97366
968 1 -2.2756 22.6569 -15.0527 -2.26385 1.7902 -1.21956
984 1 -17.2596 17.4348 -4.60023 5.77997 3.20293 -1.80995
920 1 -0.373561 13.6208 -23.2161 1.29204 1.98934 0.573295
1044 1 -6.17068 21.4935 -10.8056 2.09046 -2.37373 1.24168
508 1 -1.19172 19.1999 -9.42099 -1.05279 2.5064 0.593682
1071 1 -19.0283 22.3021 -14.4176 2.97478 -5.28521 -0.179883
1074 1 -10.9015 12.1794 -15.1142 1.48951 1.84123 -0.505333
4218 1 -1.94834 45.3173 -5.44174 -3.97019 -5.21745 1.95827
2056 1 -6.75952 24.3787 -24.1172 -0.655631 -2.46693 -4.59823
1095 1 -8.79828 21.3727 -12.3122 0.460449 -5.09739 2.34535
1122 1 -9.33283 23.4347 -3.21132 -1.52339 -4.55949 2.99599
1124 1 -3.4827 15.12 -16.8234 6.47217 -2.83474 0.0886778
1130 1 -3.1299 15.3047 -13.8854 -3.27331 -4.30227 -4.01365
1187 1 -14.0475 16.1847 -7.22617 -3.55785 -5.79062 0.148025
1210 1 -2.73177 17.0981 -2.59282 -0.0204553 -0.163664 1.16576
1232 1 -17.7745 15.7939 -20.5524 -1.6091 -4.28338 3.41046
1265 1 -8.78551 13.2936 -9.19834 3.64327 -2.11243 -2.24917
1277 1 -12.7294 21.3771 -5.04661 -3.87581 1.31721 6.63485
1279 1 -20.2598 16.041 -12.4995 0.337984 -0.69107 5.22722
1292 1 -5.25684 18.7712 -3.1512 -1.33469 3.34732 1.86111
1311 1 -2.39839 19.9342 -11.9566 2.28078 -2.04998 -2.18905
1327 1 -10.3325 21.2735 -21.457 0.189327 2.81889 6.61961
1330 1 -8.79229 16.1392 -8.51358 1.64176 1.53288 -1.10947
1335 1 -14.6356 23.3714 -14.2382 0.462544 -1.13576 -1.10915
1368 1 -20.0176 19.488 -1.41436 1.0284 -0.235154 -0.324069
1400 1 -12.6021 15.2871 -23.015 1.59425 3.48453 -1.08116
296 1 -1.23445 13.9244 -0.961332 6.47291 0.474954 -1.42186
1420 1 -12.4515 19.325 -22.1246 0.915255 1.56392 4.49829
1440 1 -23.8341 13.5675 -2.63003 0.377238 0.0837611 -3.09618
1465 1 -21.7325 22.8868 -14.8257 -1.01224 -0.904035 -4.51271
1476 1 -20.6119 14.3988 -20.4179 -2.08445 0.677088 -2.69698
1481 1 -8.41872 16.2652 -1.45163 -3.08445 4.93052 1.22706
422 1 -3.27717 18.2258 -23.4131 2.66517 5.39528 2.33538
1507 1 -24.1346 20.1923 -7.63268 0.140948 2.58893 1.21389
3719 1 -0.576688 14.7067 -5.85058 -2.08374 -2.58712 3.3047
1537 1 -3.68854 23.6564 -17.3354 -6.04133 2.12239 5.56996
1544 1 -5.13365 21.0152 -17.0308 -1.50553 2.46315 -3.19297
1553 1 -10.9966 21.2498 -15.5289 0.0258008 -0.683798 -0.715856
1565 1 -8.46651 15.5066 -11.4553 -1.89143 4.20013 2.88206
1579 1 -5.10376 15.1657 -5.04579 -3.88119 0.059932 3.9157
1609 1 -23.3074 17.3517 -20.2694 -3.19877 3.08067 3.17493
1610 1 -13.6366 20.5686 -14.7779 -4.27936 0.0945785 -2.14168
1637 1 -3.91481 21.1437 -2.01973 1.31451 8.31815 -3.8881
1643 1 -7.34598 23.2142 -9.00013 -1.16234 -4.41863 -1.1906
2787 1 -15.8658 14.8656 -0.704344 0.479943 -0.71306 1.91793
2081 1 -23.0173 17.3922 -16.3157 -2.71957 -1.40114 2.66871
1734 1 -8.50855 25.1189 -22.1216 -1.66056 -0.69892 -1.97008
1764 1 -15.26 16.8259 -11.7381 2.56208 -3.31066 1.15299
1803 1 -18.452 17.1055 -9.17883 1.90619 3.12867 1.62251
1817 1 -2.54111 17.063 -18.7932 0.63023 -2.96151 0.308558
4173 1 -3.69796 34.3758 -9.24459 -0.282377 0.207753 3.49246
1899 1 -7.88859 19.3323 -5.63069 1.69372 -4.29523 -3.0446
1933 1 -4.10138 19.5118 -19.3229 -1.02876 0.80747 -1.82328
1947 1 -16.7325 12.6726 -13.4891 0.000483068 1.61269 -1.52342
2002 1 -21.4443 22.4342 -9.38544 0.187518 -1.92958 3.46486
2007 1 -11.3231 14.7109 -12.0815 0.731901 -3.83791 4.08444
2987 1 -23.3582 46.3083 -8.54512 -3.15155 -0.55816 -2.56188
2062 1 -19.1859 19.2366 -7.18142 -1.90113 4.42028 1.57141
2076 1 -13.7695 23.8838 -8.22937 5.13502 0.203937 0.938582
2154 1 -10.4744 16.8932 -21.7926 3.56051 -0.392589 0.971219
2092 1 -19.6486 22.5961 -22.6441 6.52977 1.12124 -1.35612
2731 1 -24.3685 23.0723 -8.29422 0.966916 1.35064 3.48566
861 1 -24.0243 19.6114 -13.3422 -3.01029 -0.71272 0.232778
2156 1 -21.9934 18.475 -7.10343 -3.834 -0.975304 2.90221
2166 1 -15.6036 20.0858 -16.6492 0.726389 3.36205 5.06418
951 1 -9.42466 46.9618 -12.7565 -3.56782 5.11116 2.44865
2224 1 -15.8522 13.5208 -4.2619 -2.38312 -0.13796 -4.23375
2232 1 -23.8274 23.0502 -16.9317 -2.2757 0.872837 1.17344
2249 1 -14.5072 13.2793 -16.7717 -3.00873 -4.96089 -1.4622
2258 1 -9.11346 15.7039 -19.5056 -4.44281 2.40341 -3.18971
2275 1 -12.2934 24.471 -13.5031 3.58644 4.35155 2.09701
2284 1 -21.929 24.0911 -23.2247 3.06741 -0.265395 -4.87762
2289 1 -3.45404 12.6204 -20.7137 -1.65999 6.59875 -6.15125
2303 1 -13.3249 19.0731 -12.475 -2.56171 -6.36106 2.85067
2313 1 -7.95367 11.6065 -18.1477 -1.31233 -6.70133 4.84827
4038 1 -9.72173 32.4821 -0.583121 -0.219893 -0.463053 3.10741
2382 1 -12.4579 17.1811 -16.8517 2.08029 -1.29758 -0.717426
2401 1 -18.8381 23.4807 -4.69179 -1.64934 -0.92282 -0.709269
770 1 -6.15238 22.0351 -22.3868 3.63687 -3.51603 3.09993
2431 1 -21.0777 17.7106 -9.86933 0.221396 -0.0194858 3.70801
2061 1 -16.5392 46.9258 -22.1537 -4.89874 1.45455 0.10529
2459 1 -18.1111 15.4193 -6.92819 -2.77775 0.490194 -1.8547
2461 1 -19.737 17.2334 -3.29725 -1.35794 -0.603351 -0.463508
2471 1 -2.4713 22.7741 -22.625 -2.07746 -2.06675 -5.65486
2533 1 -14.3264 25.5191 -3.97138 -5.30581 -2.04691 -0.460058
4181 1 -2.94615 34.709 -2.01154 -1.51857 3.77738 -0.986464
3780 1 -24.4469 19.1422 -18.3822 -4.75916 -3.73995 -1.39398
2570 1 -21.5803 16.3109 -18.533 1.29218 -1.53011 2.52331
1880 1 -2.16515 23.3902 -19.8833 1.25722 0.489567 1.32011
3408 1 -16.9695 13.2843 -22.8352 -0.550432 3.42055 -2.45653
2611 1 -23.4469 24.992 -21.0139 -3.84245 1.56706 -4.13735
2614 1 -10.1104 13.6584 -17.2896 -1.01406 -0.854687 -0.669074
322 1 -13.5735 14.8305 -2.26953 -0.453546 -0.476781 -1.43498
2623 1 -20.3809 17.763 -22.8473 4.34928 -1.83003 0.955745
2624 1 -20.8218 19.6003 -4.75162 -2.05344 -6.32146 0.160152
2952 1 -13.2954 23.686 -23.8773 -0.545454 4.18083 3.20976
2649 1 -18.1648 20.5723 -11.6497 -0.462102 -1.38931 3.01968
2699 1 -17.8129 13.9748 -2.38613 -4.16798 0.602478 3.0684
2702 1 -6.81026 18.8371 -20.4984 0.695922 5.10132 1.41154
2722 1 -10.7839 19.3129 -6.13654 -4.42057 5.71546 -2.18591
2750 1 -14.6707 23.1146 -21.3283 -0.371991 -0.0432479 0.501525
2752 1 -9.15709 18.3802 -11.9645 2.1416 -2.02712 1.84608
4193 1 -3.08727 38.9334 -5.08238 1.41663 0.818299 -2.44695
4112 1 -5.26509 43.6783 -0.402123 -4.29153 -4.3869 0.0710085
2772 1 -14.54 18.4025 -20.4121 1.56902 -0.90326 -0.379975
4206 1 -1.15942 41.3202 -0.989384 -0.88885 -1.19833 -2.52847
2804 1 -19.0078 13.693 -11.8321 -4.60943 -0.558542 -3.80878
2806 1 -3.56019 19.6915 -14.746 1.22237 -1.24928 2.25389
3041 1 -20.8367 23.9306 -2.37654 -1.25924 2.23152 -1.12197
2836 1 -14.3424 16.6184 -4.31637 -1.4621 -0.34038 2.86179
2866 1 -21.0277 23.5222 -6.6737 0.80707 0.621909 -4.3019
2867 1 -17.7962 16.8422 -13.6538 1.76468 0.773391 2.69839
2870 1 -12.9564 15.8367 -10.0506 -0.175814 -1.22403 -1.67781
2878 1 -19.6144 19.5859 -13.9934 0.706642 -0.154107 4.54338
2881 1 -16.0867 14.1651 -19.0885 5.61756 0.213059 -2.29269
4013 1 -10.8444 24.9904 -1.00802 -1.76866 -2.71829 2.80768
2904 1 -7.71693 13.5557 -0.721269 -6.82829 -3.5933 2.23592
2907 1 -17.1338 22.5431 -6.7201 -2.59102 -7.02096 -0.408722
2837 1 -17.0971 11.1587 -7.95688 0.438893 -1.86185 0.707206
2956 1 -16.1592 21.164 -1.77248 4.45665 -1.51176 2.9268
2959 1 -19.0239 18.7839 -20.5481 0.980973 -1.58804 -2.3684
4229 1 -2.85547 43.5394 -1.73169 3.19354 0.70945 1.07221
2976 1 -22.0733 19.9835 -15.4051 -1.92713 3.60307 3.97564
789 1 -14.3284 19.2479 -0.598009 1.37811 1.69153 -1.34699
2986 1 -5.5076 16.7701 -22.0668 -2.4552 1.78501 -0.872364
4197 1 -3.63208 39.0569 -8.64677 -4.26765 -0.665074 -0.576339
3021 1 -19.4747 26.4406 -2.15759 1.00773 -2.66227 2.83451
3030 1 -16.4458 19.0938 -10.3442 1.0369 -0.373987 2.02016
3044 1 -7.38561 16.4379 -5.98465 -2.29404 6.16461 2.73653
2223 1 -19.284 11.754 -21.4829 0.961144 -1.06873 2.74219
3060 1 -23.1001 25.3022 -6.70005 -2.04751 0.273765 -2.5871
3061 1 -10.5244 23.8735 -15.5956 2.96252 -1.88022 -2.73307
3062 1 -8.25359 15.0165 -15.7402 -0.259935 6.23584 0.105772
4217 1 -3.3511 43.1259 -4.39009 -2.13714 0.435839 1.57086
1516 1 -10.4972 23.3516 -23.28 -0.0543264 -0.0892717 -1.00426
3115 1 -17.8367 18.5719 -15.9797 0.112163 0.995699 0.26266
3228 1 -11.0094 12.1019 -10.7468 0.610724 -1.71751 -2.47432
644 1 -6.3555 12.9544 -3.41324 -2.01013 -2.59512 0.526394
3133 1 -1.73064 16.299 -9.83735 -1.6805 0.0117829 -7.49601
3152 1 -13.8856 15.7151 -20.3731 -0.629475 -1.97375 3.29836e-05
3165 1 -6.24092 22.196 -14.6007 -3.23808 2.20555 8.57496
3171 1 -6.5758 15.0036 -20.0426 -1.24682 -6.3796 -1.7803
4222 1 -1.85345 45.5693 -8.18928 2.56575 2.79856 -0.501464
3185 1 -16.7369 20.0426 -21.1155 -1.46317 1.73053 -1.89388
3188 1 -21.4921 15.0121 -9.03404 -7.36922 -1.69119 -3.10382
3190 1 -22.301 20.8631 -18.0162 0.392377 0.0400253 1.71276
3218 1 -5.10211 22.311 -7.08572 -2.75782 2.0395 2.57903
3226 1 -22.9182 22.1246 -12.2886 0.68707 1.19732 0.253157
384 1 -10.6869 12.6325 -7.05735 -1.84207 -2.99393 1.42185
2634 1 -5.45739 11.5248 -22.3408 -1.00249 2.82331 0.429084
3525 1 -16.5599 11.6809 -20.5279 1.03266 -1.16348 -1.19406
3256 1 -6.06942 16.9605 -8.81581 2.47164 4.95491 1.71323
3299 1 -14.7704 23.2801 -5.54443 3.52174 1.16994 0.667424
3308 1 -18.5247 21.0727 -3.40162 3.05811 -5.7279 -3.62211
3330 1 -8.4402 19.8363 -14.6949 -2.70801 2.13562 -1.02754
1692 1 -1.18865 19.2027 -4.98772 1.69131 -4.43587 0.0279896
3383 1 -22.1298 24.6983 -18.6412 -0.729211 -0.425433 -2.56797
3393 1 -12.747 14.5956 -18.1253 -0.158792 5.21497 1.55177
2617 1 -4.06351 12.2612 -16.28 0.177338 -0.86476 0.753326
3435 1 -4.0576 22.539 -12.7944 2.2642 1.55449 -1.84419
3462 1 -12.6789 20.9102 -7.92922 -3.62947 -2.46255 -1.84059
3735 1 -7.97472 19.1854 -0.317794 -0.183861 2.82593 -3.34539
3499 1 -22.903 19.3501 -22.5862 2.07562 -3.58242 0.538474
3501 1 -16.6625 19.9694 -5.59495 -2.37661 2.43016 -4.89908
3502 1 -7.13747 23.0887 -5.16375 4.28973 -1.70822 1.62216
3506 1 -23.4464 19.8082 -3.39447 3.51976 2.51962 -4.76717
3514 1 -3.55524 20.6922 -9.21742 3.90926 -1.63 -4.39184
4088 1 -4.92311 39.4185 -0.63226 -2.82757 1.1334 -5.24139
2458 1 -23.408 24.7932 -1.23548 -0.0311624 0.613163 -2.82398
4014 1 -9.59466 27.5991 -0.85718 4.66283 -0.607674 2.13764
3543 1 -15.7165 13.7381 -7.33898 -4.64447 1.08664 3.36873
3544 1 -7.57709 20.2406 -2.88304 4.08998 4.74221 -1.70179
3553 1 -9.47344 16.1009 -4.06812 2.35784 0.943766 2.76791
3560 1 -18.179 14.3801 -17.1418 2.99861 0.965478 3.75641
3600 1 -18.6952 21.5817 -8.92997 0.497442 -1.62642 5.01551
3611 1 -18.1407 22.8537 -16.959 -1.39128 -3.44759 -0.758128
3612 1 -2.72986 14.4193 -3.60086 3.22329 -0.383552 -0.915416
3620 1 -4.35977 14.9739 -9.58831 4.50866 -0.753561 3.82264
3655 1 -9.36514 24.4927 -12.5825 -5.17764 -1.46548 -0.0269158
3675 1 -14.9506 18.901 -7.6213 0.885333 3.52212 0.290484
3717 1 -3.23484 15.4975 -21.0724 -0.383268 1.75168 0.377489
3427 1 -23.4235 12.5259 -16.1934 -1.74749 0.778032 0.611579
3653 1 -0.983357 17.1683 -0.0743688 2.30782 1.52439 3.07976
3725 1 -14.4423 19.6921 -3.74315 -3.17255 2.15851 1.65279
4016 1 -5.44254 25.2059 -0.988608 0.851796 -3.40043 -2.21991
3747 1 -19.8866 22.7458 -18.9981 -4.23548 -1.58191 -0.139436
3752 1 -21.1295 14.238 -16.7799 0.235137 -2.51893 5.52852
3791 1 -11.198 17.1514 -13.4302 3.68124 -4.69207 -0.714365
3805 1 -5.88318 16.6879 -16.4753 -2.62643 -2.0231 0.340188
3807 1 -7.94871 20.6621 -17.38 1.38768 -1.15082 4.15656
3826 1 -2.28072 17.5185 -15.7971 -3.82892 -2.50027 -3.07438
3828 1 -18.9444 16.9115 -18.0268 2.20016 -3.82967 0.278768
4169 1 -3.51165 34.5265 -4.60662 0.241105 1.47041 1.89878
3929 1 -1.79751 12.658 -7.53354 1.91185 2.51119 -1.37188
4194 1 -1.83114 41.2235 -5.75642 -0.157498 2.72202 1.90144
3901 1 -14.6767 12.6896 -11.712 0.256401 1.91462 -2.88429
3910 1 -5.27262 19.2191 -7.14611 0.427653 2.17901 1.25557
4174 1 -2.46448 36.6633 -8.51768 -0.754768 -0.884924 -1.92013
3940 1 -3.19712 23.2157 -10.1623 -5.39924 0.35007 -1.09309
3956 1 -13.0428 12.5194 -3.94631 1.29139 2.34515 -2.00398
3235 1 -4.75492 12.4265 -10.5394 0.318901 2.7016 0.0999963
3984 1 -6.21319 13.8012 -17.5931 1.64589 3.42875 0.910822
4001 1 -11.4448 25.3951 -3.96307 2.4129 5.41305 -2.81358
4002 1 -10.0691 27.3754 -5.14349 -0.169127 0.139807 -2.60986
4003 1 -7.53279 27.8335 -4.29291 -5.34873 0.416724 -0.698348
4004 1 -6.22125 25.8004 -5.52671 -5.71521 5.25455 1.07106
4005 1 -11.1732 24.8848 -8.41631 0.661307 0.782458 0.538753
4006 1 -10.6435 27.7165 -8.04866 3.53968 0.827862 -0.728018
4007 1 -8.09041 28.2046 -9.02361 1.01997 2.12931 -3.79409
4008 1 -6.30202 25.8878 -8.38677 -5.78546 3.33638 0.611914
2545 1 -12.3028 12.912 -20.2984 0.465818 1.84387 1.03646
1083 1 -1.12273 20.9403 -19.1183 -2.77921 -2.00371 1.43691
4015 1 -6.89431 27.4597 -1.62729 0.204266 5.54594 4.99054
1698 1 -10.0393 12.4187 -1.73039 -0.420563 2.60955 4.68509
4025 1 -11.3654 29.9667 -4.38332 2.43017 1.99495 3.52406
4026 1 -10.1005 32.4627 -4.71344 4.92655 -2.17638 -0.821318
4027 1 -7.47254 32.2726 -4.58132 -1.19479 -1.93294 -1.4115
4028 1 -5.95351 29.9705 -5.40177 0.604638 -1.77083 -2.45017
4029 1 -11.6406 30.094 -7.30781 -0.694226 -3.24522 -0.61934
4030 1 -10.0919 32.5901 -7.4366 1.2153 -0.44792 -1.52892
4031 1 -7.53335 32.6897 -8.59636 -6.11997 -5.45037 -0.888607
4032 1 -6.23513 30.253 -8.06354 2.03693 1.63548 3.78468
4037 1 -10.7905 30.158 -1.74383 1.15609 3.69245 4.48124
228 1 -11.8025 20.5996 -0.339529 -0.915327 0.354972 0.482277
4039 1 -7.07195 32.634 -1.65375 6.18282 -0.379298 3.11668
3532 1 -6.81108 11.8458 -7.57348 5.19277 -0.44151 -0.40361
4049 1 -11.0166 34.7952 -3.77527 3.09421 -0.221256 1.7827
4050 1 -9.89497 36.7145 -5.17798 -3.21612 2.79319 -5.93964
4051 1 -7.31109 36.8694 -4.1448 -2.09783 -1.25464 -2.98294
4052 1 -6.01585 34.5631 -5.16074 2.03177 1.56667 -1.0919
4053 1 -11.5712 34.6382 -8.30912 -0.0932858 2.55589 5.10139
4054 1 -10.4692 37.218 -7.91146 -2.36395 -2.2416 -2.54672
4055 1 -7.75246 37.1191 -8.52555 6.20036 2.9281 -1.88097
4056 1 -6.01513 34.9211 -7.99938 -1.21612 3.95895 -0.168366
4061 1 -11.1838 34.7897 -1.13909 -3.01459 1.28987 -1.40028
74 1 -0.775789 14.9265 -12.257 0.93839 -3.07179 1.05357
4063 1 -7.0488 37.1598 -1.3365 -3.33331 4.49396 -0.821119
3928 1 -18.0707 15.8674 -23.4441 -1.3551 4.25404 -2.70375
4073 1 -10.6952 39.2379 -4.1803 3.35066 1.01154 -5.74355
4074 1 -9.32205 41.8307 -4.6541 -0.373584 3.99205 4.99823
4075 1 -6.78984 41.2385 -4.12132 -2.55908 -0.726702 -3.97834
4076 1 -5.87535 38.8809 -5.40986 -2.32914 0.135542 0.372052
4077 1 -11.9988 39.5201 -6.6585 2.73243 0.582716 -0.836769
4078 1 -10.1338 41.5637 -7.34423 -1.26106 -2.45579 -1.93721
4079 1 -7.84476 41.7911 -8.58045 0.739787 2.06263 -1.70724
4080 1 -6.23745 39.586 -8.11341 -6.74455 1.81056 0.352989
4085 1 -10.6018 39.5311 -1.44101 -2.11348 3.44375 -1.17869
394 1 -8.48755 11.719 -5.37333 4.13065 4.02167 2.50866
4087 1 -6.67452 41.4519 -1.31036 -3.74004 4.08245 -1.85576
2807 1 -22.651 18.483 -1.01437 -4.21489 1.34697 0.671358
4097 1 -9.70343 44.2631 -3.76412 4.8839 0.113762 -2.25369
4098 1 -11.3344 45.7847 -5.32284 -1.92148 -2.0693 -1.65679
4099 1 -7.2857 45.8236 -3.80508 1.72645 -2.29733 -1.41074
4100 1 -5.88948 43.8208 -5.40993 -1.82955 -0.384965 -4.93137
4101 1 -11.2439 44.1146 -7.63297 8.08779 -4.3124 2.24144
4102 1 -8.77247 45.565 -8.22257 0.744679 -0.801995 2.5461
1919 1 -22.4827 12.4848 -13.2118 5.70347 1.4645 -0.347619
4104 1 -6.16091 44.1056 -8.02391 -0.127259 -0.671123 -2.51724
4109 1 -10.5339 44.052 -1.10798 -0.72468 3.98578 -2.15581
2580 1 -23.8082 13.253 -21.7035 -1.23519 2.15953 -2.27333
4111 1 -6.76547 45.8379 -1.03918 -2.39285 0.303102 -7.68399
3174 1 -23.2914 13.749 -10.576 0.66914 -4.69642 1.94966
4121 1 -3.65563 25.9647 -4.67047 0.419709 0.385537 -5.56658
4122 1 -2.03188 27.92 -5.71821 -3.18259 4.72777 0.966997
4125 1 -3.57505 25.6055 -8.64348 -0.0732934 3.26254 4.19832
4126 1 -2.23813 28.1259 -8.48619 2.7577 0.411344 -0.480904
4133 1 -2.93452 25.5469 -2.03239 7.6866 -0.759387 -1.5906
4134 1 -1.81375 28.0455 -1.45725 -4.46771 -4.61424 -1.41707
4145 1 -3.12195 30.3647 -4.83133 -1.93744 5.33707 2.76301
4146 1 -1.88463 32.5946 -5.85238 -0.82212 0.76263 3.54793
4149 1 -3.69301 30.2069 -9.28363 1.92258 -0.0656845 2.3432
4150 1 -2.088 32.2037 -8.70291 7.85031 0.00984022 3.96034
4157 1 -3.09307 30.3227 -2.05891 2.32384 0.0279157 -0.494805
4158 1 -1.41177 32.5102 -1.34514 0.240702 1.12242 -1.31162
2161 1 -1.53201 11.7593 -3.98631 0.863489 -2.66682 -1.03616
4040 1 -5.87427 30.0785 -1.12338 3.00618 -1.7455 -3.07212
673 1 -0.889739 16.4414 -22.6439 1.70144 -3.33456 0.177893
1489 1 -24.1197 16.2727 -1.72159 -0.186926 0.196582 1.57076
3857 1 -12.7306 44.7602 -10.2119 -0.981887 -2.10696 2.55774
286 1 -5.30574 16.4382 -1.17611 -3.88618 -7.71975 0.322846
3721 1 -1.16406 17.2788 -7.10333 3.38899 -0.394246 -3.36986
2551 1 -7.45197 11.3477 -12.9418 -0.362313 -2.16253 -0.801362
4064 1 -5.5399 34.7116 -0.898903 -0.903824 1.80576 -2.93836
3124 1 -13.4461 11.725 -6.6429 -2.8909 0.44545 -2.60793
104 1 -15.0164 46.1712 -10.8563 -0.629448 -0.883723 2.00199
1836 1 -11.4478 46.9617 -17.6359 3.94105 -1.63255 3.92138
1291 1 -19.3057 16.1177 -0.737022 -1.51339 2.75665 0.34394
587 1 -20.6339 47.0048 -9.49557 6.41429 -5.14637 2.72727
3661 1 -24.1882 11.7845 -18.8007 2.24532 4.99916 2.7424
3052 1 -20.3713 11.2723 -11.8084 -2.22881 -0.813475 -0.427069
1518 1 -2.58722 11.613 -23.2536 -2.40075 -0.394961 -0.295421
4062 1 -9.68441 37.2039 -0.583474 -0.00690023 -3.86804 -0.256864
2093 1 -5.20149 12.1842 -0.925037 1.39552 -1.85769 1.04449
3080 1 -20.5961 11.3885 -7.09816 4.01779 -2.45515 0.274808
4086 1 -9.30875 41.8411 -0.188881 -5.19551 -5.29546 2.60299
3255 1 -17.9487 11.5091 -17.6106 -0.035117 -2.60562 2.17485
815 1 -20.9151 11.3464 -17.4928 0.405153 -0.881667 8.50449
2053 1 -21.8842 11.636 -20.317 3.30447 2.66307 1.34405
68 1 -0.885566 12.795 -20.4185 1.0005 -0.845268 -0.547621
3480 1 -24.0716 24.3733 -4.14963 3.60495 -6.0788 0.883438
2871 1 -16.1774 19.8288 -23.9697 -4.83499 2.81295 -4.41277
2 1 -8.63475 15.0401 3.03157 0.615192 -0.932936 1.6568
19 1 -16.0054 22.7305 19.646 3.67794 0.787675 -3.47014
26 1 -1.56886 15.106 10.9411 -5.01033 -1.78368 2.10957
53 1 -2.65059 21.9645 10.6387 0.271194 0.0335316 -1.42536
69 1 -9.96485 15.2616 9.65527 0.115989 1.91167 5.69956
98 1 -3.67642 14.0218 12.8227 0.277037 3.21316 -0.450357
148 1 -18.5499 14.2758 15.4317 0.0726819 6.54916 -0.908405
2129 1 -12.3296 45.6521 13.9895 4.68421 -3.43002 -4.44817
196 1 -17.1164 23.9737 3.81805 0.901919 -3.55894 5.622
4115 1 -5.67502 45.4458 11.227 -5.29569 1.38559 0.79767
219 1 -7.28091 24.0648 21.2347 -0.396437 -0.681249 3.29363
230 1 -7.60671 14.1365 19.8348 1.26587 -1.12289 -1.86222
233 1 -12.652 17.364 12.6297 3.29189 -4.07054 3.58192
234 1 -7.37616 18.2508 7.70798 2.39554 -0.25276 1.69467
237 1 -18.1508 23.9419 1.28072 5.98847 -7.08394 0.0276274
239 1 -21.3485 19.2155 17.8265 3.37117 -5.52148 1.88188
285 1 -15.6245 20.0673 14.8048 1.3476 -0.625064 -7.74698
371 1 -12.4864 45.3993 16.7377 -2.47582 -2.58864 2.22605
1967 1 -14.9606 46.8014 17.1808 -0.922252 -1.04326 -1.64062
372 1 -9.35767 22.0204 8.01554 -1.08088 4.16787 -1.41764
2307 1 -14.7865 12.6744 23.7735 -1.01698 0.853985 0.36997
4166 1 -1.03846 31.613 6.10283 -4.88511 1.98113 -1.10399
425 1 -20.3383 14.0242 17.667 -1.68021 -6.19039 -4.61522
453 1 -19.3607 13.5806 8.70973 -3.41983 2.70203 1.1051
3840 1 -11.9489 45.5657 11.3408 0.597611 0.515396 1.34144
514 1 -15.032 19.8129 19.7584 -0.457583 -3.54355 -3.01041
3000 1 -3.15016 12.2365 16.1962 -1.44328 -2.90218 -2.70286
577 1 -10.3965 22.8168 0.860767 -4.4848 -0.939034 4.99644
583 1 -21.8907 23.8147 13.2158 -0.165536 3.9501 2.96725
1917 1 -24.3054 23.9366 18.0894 -1.07781 -4.29238 -0.232442
588 1 -18.7695 22.1525 5.06771 -1.76689 0.829811 0.416622
590 1 -7.25831 19.4743 21.2221 2.28202 1.45538 0.568027
600 1 -22.1952 23.6946 16.0206 0.2559 -1.79522 -1.17495
630 1 -22.1122 24.0476 10.2938 -1.8234 -4.92384 -2.04109
641 1 -16.2329 18.247 4.71784 -1.02405 2.83965 -3.12007
668 1 -11.1209 13.5601 16.871 1.17661 4.50254 -3.02906
693 1 -10.0232 23.3846 3.56235 -0.471037 -1.17589 -0.700954
729 1 -13.5116 15.9873 15.1029 2.59075 0.164268 1.41267
734 1 -20.5702 23.3321 19.6058 -0.822004 -4.22113 1.58589
4114 1 -8.30853 45.5221 10.2607 2.0177 3.10458 -1.83871
754 1 -15.332 25.0795 15.6577 4.78069 0.661324 -6.24756
785 1 -3.55296 20.965 20.5899 -1.64891 -0.634754 -0.36563
786 1 -22.6679 19.6916 22.6728 -3.38468 3.75544 -2.52245
791 1 -4.10516 22.5877 14.9053 3.75431 3.73385 -0.337101
743 1 -24.4922 19.8239 0.727923 1.48409 0.819726 1.82038
886 1 -5.6074 22.7635 1.85349 0.409134 2.12204 4.28759
1968 1 -21.9644 11.9825 13.3482 0.0536816 -4.4313 -1.49766
913 1 -7.07975 23.3144 15.563 -3.46411 0.334835 4.08461
914 1 -22.0142 16.0305 10.2863 0.378248 1.39558 -0.284273
919 1 -9.28928 16.1601 12.5074 -3.53348 -1.51239 0.981526
924 1 -8.16961 15.6399 7.16969 -0.185001 8.1573 -2.20793
932 1 -19.8984 16.5022 14.5657 0.770587 -0.778357 -3.34866
941 1 -20.442 22.7197 8.4525 8.07663 1.78104 -2.41744
947 1 -10.2962 16.887 18.7794 4.05442 -2.20077 2.99944
949 1 -3.68897 14.4575 22.7561 -1.99908 4.85325 2.87426
961 1 -8.18131 12.5699 1.92217 -1.91334 -3.87159 4.68739
965 1 -16.6959 13.291 7.65138 1.28172 0.24283 -5.85413
985 1 -17.5795 19.5572 11.3527 4.71216 -0.299163 -4.63157
2897 1 -3.8177 14.4634 0.112289 -1.95859 1.52714 2.15616
1055 1 -8.3095 17.2584 15.707 4.68395 -3.90914 1.12176
1056 1 -8.78284 19.4256 5.24307 3.95423 0.0375647 3.93848
1771 1 -0.584405 23.5721 9.22856 1.83935 0.620976 -0.628232
1270 1 -24.1463 14.4486 11.8818 -0.120152 1.94009 1.92291
1088 1 -21.4223 22.4464 5.5828 3.97539 1.6703 8.0785
1110 1 -11.3649 24.0726 7.62596 -0.288667 -1.41815 -0.991396
1113 1 -19.9142 19.164 22.9238 -0.259084 -0.0874954 -2.79433
1117 1 -7.91475 13.7125 10.862 -1.17746 2.63594 -3.85055
1150 1 -14.8479 15.521 8.21775 2.24554 6.56567 0.0909001
1152 1 -14.3876 14.4153 20.0142 6.79569 6.09491 -0.13691
1166 1 -17.2021 23.6012 17.1552 -3.78085 -1.22065 -1.30745
911 1 -0.913136 15.5285 22.6972 5.63412 -3.78688 -0.973128
1175 1 -9.7281 13.0289 21.0884 2.61184 3.02441 -0.866036
1197 1 -20.2604 16.3713 21.0601 -8.27376 1.90399 -0.632492
1204 1 -3.73965 21.2712 3.69051 -1.53104 -2.6542 0.0704332
1220 1 -22.785 20.8303 15.8922 0.373218 0.807691 -0.991034
2426 1 -2.32123 17.2096 19.0568 -1.5778 2.89452 -1.12126
1237 1 -19.6469 19.4729 15.43 -0.823359 -3.70413 0.236128
1642 1 -1.34609 22.741 6.59496 1.36438 2.02112 -3.54349
1285 1 -13.9716 22.3904 15.1143 -0.863437 -0.314971 -0.173975
2441 1 -22.3209 12.3083 19.1349 -7.20724 -3.34751 -1.08732
1325 1 -6.19715 14.46 8.71584 -0.953502 -4.79156 7.48294
1340 1 -20.3587 18.7952 10.4847 -3.92082 3.36558 3.78925
1355 1 -9.69997 21.8085 18.4055 3.86208 -0.508068 1.06969
1358 1 -9.53929 22.5398 22.5231 0.860863 3.16023 -4.01037
1372 1 -12.5247 14.2304 3.00998 -5.23961 3.33386 -1.32399
1374 1 -19.8269 24.594 17.1966 5.95158 -3.07 1.89153
2768 1 -7.80327 21.8697 0.234897 -0.204128 1.97511 -2.51333
1385 1 -16.9102 25.4604 13.0883 2.78897 -2.04802 1.2396
1391 1 -12.5252 19.7608 21.2291 -2.30978 0.67242 1.41439
1456 1 -17.0034 15.8837 11.8783 -1.97731 6.26777 -3.85876
1458 1 -21.2977 12.8418 6.21991 0.774486 -1.4221 6.23425
1461 1 -14.1935 15.4126 22.8424 2.86205 -2.37785 2.32976
1492 1 -11.7619 14.0276 11.3988 -4.00285 3.39518 -0.150147
1500 1 -17.4382 18.0546 13.9066 4.15913 1.23781 1.43251
1091 1 -12.2676 14.2669 7.90348 5.70801 -5.43281 0.658099
1575 1 -19.1279 15.4232 4.25125 2.8622 1.12519 -2.94588
1606 1 -22.4414 18.9465 6.4277 -4.01014 -5.21356 -2.52261
1622 1 -18.0876 21.7158 15.2078 2.82741 3.12913 -3.90566
1377 1 -13.5346 20.6544 23.7569 0.433907 4.36927 1.46481
1655 1 -2.7521 14.8967 15.2285 0.741337 -2.39071 0.027612
1656 1 -4.32439 12.7996 18.7943 -1.21324 0.171738 -1.04851
1658 1 -17.8271 21.6485 7.77092 1.64593 0.79091 2.11386
1668 1 -12.572 17.2389 7.66575 5.30771 -3.6069 0.565352
1679 1 -11.6803 22.3367 20.3912 1.30642 -2.12419 -2.35361
1005 1 -15.8798 17.2371 0.542381 -0.135161 -0.0217118 -5.11666
1705 1 -2.48328 24.8308 19.4265 2.05837 -3.45611 3.51817
1708 1 -9.3738 24.8403 15.2961 2.7541 -3.0618 4.52142
2528 1 -9.35644 11.7929 6.04731 0.654401 -0.795356 1.68304
4210 1 -0.653295 41.093 9.46552 -3.49251 -3.7376 -0.934562
1784 1 -9.72917 13.0331 13.2736 -6.58811 -0.460358 -4.61065
3581 1 -15.2693 11.5918 4.96063 3.7665 -0.26336 5.13913
1869 1 -2.15831 23.9984 16.7621 0.516483 -0.638525 -3.96475
1873 1 -11.1673 17.7119 10.2698 -0.450628 -0.776558 0.742157
1885 1 -9.24548 17.0139 23.4275 0.522836 1.53911 1.65082
1898 1 -21.3408 19.2779 12.985 3.12501 1.92992 0.214804
1916 1 -6.45388 15.1219 4.86923 0.0099172 0.19909 1.79626
4142 1 -1.56966 27.1186 5.21684 1.02061 -0.890048 -0.342206
765 1 -23.7474 11.9104 7.32465 4.0847 4.83946 -5.08987
1963 1 -3.1049 18.1477 1.71099 2.82514 2.13384 2.81768
178 1 -14.0138 11.7958 7.61059 1.12136 2.39123 5.20817
2492 1 -23.2456 16.2171 3.01887 -0.803174 -0.154121 0.747476
2008 1 -11.329 25.4917 13.217 -3.17274 1.04532 -0.644644
2013 1 -14.495 23.5929 4.26171 4.79135 -0.00891773 -0.721158
1226 1 -20.6575 13.9481 0.358939 -1.03842 -1.52385 -1.57606
2046 1 -8.69627 14.6622 17.1389 2.03826 5.49828 -2.54989
3757 1 -1.02446 22.1481 0.643512 -2.63225 -0.365317 2.04583
2082 1 -8.14293 17.8003 3.19141 -1.79647 1.48943 5.19853
2119 1 -10.3614 18.9007 1.32501 0.457351 3.39293 1.41076
2157 1 -4.2896 16.3814 20.6527 2.63808 1.37688 2.22995
2158 1 -15.8723 12.9933 15.7853 -5.30166 -0.905031 3.67155
2168 1 -19.9288 18.1314 3.13362 -0.334998 3.75639 -2.2696
4233 1 -1.83767 43.5196 10.6544 3.22583 0.155638 -0.161801
992 1 -24.5584 11.5087 3.19941 1.70503 -4.76162 0.167929
2231 1 -13.0602 23.5285 10.234 0.42626 -0.667379 3.15241
2264 1 -5.00559 17.6244 3.99029 -2.91285 0.246501 -1.46508
2270 1 -6.11817 20.3323 5.19539 0.661613 -3.17166 3.50576
4209 1 -1.49637 38.5816 10.4357 -0.00355549 -5.47218 4.2749
2282 1 -6.60336 22.5808 8.08805 1.70661 -0.741917 -1.47637
2285 1 -21.4595 16.7464 0.948726 -3.49463 -6.29995 -0.942813
2305 1 -14.6037 19.6378 12.0651 -0.381671 3.72255 -4.62538
4119 1 -5.67938 46.2321 6.13968 -1.06635 4.07016 3.57922
2315 1 -12.3199 13.4584 14.2168 1.37397 -2.74743 2.41728
3815 1 -0.934529 19.404 23.5965 2.53464 0.0928447 2.11627
2322 1 -5.93132 20.4792 18.868 1.92995 -1.5032 1.08328
2334 1 -10.7527 18.1335 14.5906 -0.389589 -0.787851 -4.09701
2335 1 -4.67528 18.8282 22.2365 -8.15385 -1.73851 -2.46471
2349 1 -11.0236 22.6529 16.1333 2.13823 -2.09252 -4.61784
2379 1 -21.2298 13.4901 11.065 -5.06195 3.22248 -3.41309
2413 1 -7.2634 22.9014 4.34318 -2.18489 0.991455 5.88804
4186 1 -0.529017 36.3316 9.16348 0.879199 1.08561 -0.0903764
4202 1 -0.964023 41.3552 1.77744 -0.0348587 3.11455 -0.625857
2435 1 -16.1731 23.7739 10.7645 0.95553 -2.63342 -3.74178
2439 1 -14.3179 19.2889 9.02078 3.48019 -2.75053 -0.039723
2321 1 -3.99304 24.5225 24.1357 -2.47793 -5.75644 -0.0934723
2462 1 -12.96 23.8793 1.75717 -3.0453 -1.98104 -2.09665
2488 1 -9.97696 19.4055 19.794 0.225945 -6.61714 0.753798
2490 1 -13.3086 22.8592 18.0086 -2.31997 -1.91203 5.92107
2505 1 -11.8598 17.2259 22.3068 0.0591835 -5.20917 -2.35168
2519 1 -23.2338 21.2893 13.0725 -2.59514 -7.13628 -0.130279
4162 1 -0.866109 31.349 8.92707 -0.224946 -2.93039 -0.702165
2581 1 -7.3036 16.6674 21.3396 3.37426 -5.60551 3.29559
2586 1 -14.38 15.1242 11.2634 2.11043 1.58857 4.91523
2620 1 -10.4589 17.2716 5.90112 5.77835 -2.16994 -0.445053
2660 1 -14.1383 24.3875 12.9203 1.06 3.33687 1.33318
2664 1 -16.3235 17.1617 23.0048 -2.422 1.26149 -1.79279
4189 1 -2.07053 34.1354 5.41582 -1.49952 -1.14827 -4.27213
2710 1 -5.46765 15.4564 18.3072 -3.67219 -2.07188 -1.62208
2723 1 -6.68576 15.3017 14.208 0.373128 1.3229 -0.563424
2742 1 -16.7311 15.7512 5.75821 -0.645017 -2.83272 2.81728
2745 1 -13.799 21.0781 1.67391 2.12563 2.19462 7.08592
2769 1 -16.2001 16.2028 15.9445 3.53056 3.62686 -3.02135
2777 1 -14.6827 16.9682 3.04172 -0.522835 -0.402076 -1.30287
2778 1 -22.7381 15.4229 19.8271 -5.21947 -1.44513 -0.942937
2788 1 -22.5464 16.6235 13.1715 1.509 4.74494 0.844004
2809 1 -12.1379 17.7998 16.896 -0.087616 -1.64716 2.83228
1864 1 -6.47865 11.6989 20.263 0.554355 1.41096 -2.42361
2820 1 -15.0155 22.0064 8.53352 0.622254 -4.36263 -0.528689
2851 1 -7.16358 23.1854 18.57 0.743327 -3.00102 1.29735
2853 1 -4.50065 23.5377 21.5223 1.69892 0.188009 -1.81355
23 1 -12.013 46.5186 21.0881 3.24518 3.21729 -5.20987
2011 1 -0.440733 11.7449 17.049 -3.96163 -3.70268 5.10652
4178 1 -1.29581 36.6811 1.51656 -0.78988 3.52887 0.990293
2895 1 -19.1998 19.0632 19.828 -0.078608 -3.75954 -6.12063
2905 1 -18.4886 21.7231 20.7379 -2.24406 -2.47451 -1.97812
2921 1 -18.4936 22.3159 10.6748 5.93015 1.32821 3.85664
2939 1 -12.2209 19.7618 3.63075 -3.30178 1.70975 3.97232
2942 1 -22.3205 13.1375 21.8504 3.5976 -0.354391 -2.58664
2950 1 -20.0971 17.4532 6.12935 -1.17812 -0.877492 -4.77102
2971 1 -3.34577 19.4308 11.8824 -0.167301 -0.911139 1.34014
2973 1 -11.5343 15.0251 20.418 -1.22206 2.43678 -1.33766
1068 1 -6.08946 17.7141 1.25903 2.80557 -0.892175 2.50348
3530 1 -10.3401 14.5638 5.54533 1.34159 0.680812 4.24096
3002 1 -21.9283 16.3349 16.8833 -3.55397 -0.012239 5.83068
4225 1 -2.30253 43.4747 3.18388 1.04814 -1.14224 1.71329
3619 1 -2.40313 20.6406 8.09068 -0.857001 2.31085 -1.78111
4185 1 -2.0091 34.1154 9.66771 -3.52485 -0.100318 -0.316672
3042 1 -10.3146 20.7702 13.9942 1.69464 2.35195 0.264282
3527 1 -1.0602 13.9658 6.57519 -3.16187 0.541666 1.88385
3076 1 -11.8208 20.7179 9.6697 -1.24174 -3.32081 -3.23083
3122 1 -14.2292 23.956 21.4379 -2.18988 1.85508 1.32842
395 1 -10.4636 46.0733 18.6094 1.20696 -1.74823 3.51901
3144 1 -3.31049 15.3004 2.68237 -5.51268 -2.07742 -1.1844
3180 1 -0.818148 14.5897 3.8048 -0.928485 -0.401456 -1.49069
4201 1 -2.32367 39.0074 2.85834 -1.51846 -6.14114 0.306355
3186 1 -5.17314 20.1603 7.84435 -1.11356 0.896153 0.454662
3193 1 -19.6035 26.7005 0.829205 3.36707 0.792431 -0.995376
3211 1 -6.09164 18.8065 14.3509 1.9857 -3.99561 1.98708
3214 1 -4.68612 16.7543 15.709 2.05202 -2.43606 0.297105
3232 1 -21.9628 15.4456 5.26646 0.502116 -5.35746 2.95245
3233 1 -3.49631 16.1891 8.46849 -4.29426 -2.93596 -1.01185
3245 1 -9.06582 19.4806 9.73065 -0.956045 3.05327 1.62381
3286 1 -17.8596 20.0837 3.40512 -3.36097 4.75371 0.145282
3290 1 -13.9866 20.0877 17.1797 -1.35283 3.07236 0.131505
3292 1 -22.6198 21.9434 1.67748 -3.45824 2.04747 0.899875
410 1 -15.924 12.7761 1.17554 -1.65053 -0.312697 1.28778
3297 1 -18.3084 21.3954 23.4892 -0.899976 -2.2546 0.15989
3323 1 -3.73231 18.9296 17.2843 -6.11295 1.45093 -6.13734
3325 1 -11.8321 16.9159 3.10006 1.35766 0.994202 -3.48738
216 1 -16.6822 46.7278 6.08577 -2.43498 0.273861 0.49643
3356 1 -10.7629 21.4965 5.35411 3.02317 1.38519 0.190789
3358 1 -3.52294 20.005 14.537 1.8365 -3.01007 5.37908
3359 1 -6.13271 22.9966 12.8504 -5.26062 1.12578 -1.13405
3361 1 -4.99391 23.3005 10.4253 -2.15253 -0.531316 0.43572
3382 1 -24.2335 13.457 14.4767 -3.66744 -2.06728 -0.909364
3428 1 -5.05497 11.7213 14.148 0.884751 0.643591 0.743777
3444 1 -19.8634 12.9155 3.00974 1.90405 4.33389 1.83547
3454 1 -23.994 21.4655 10.3031 4.24333 -4.14274 -2.12302
3455 1 -18.4452 14.6152 19.8963 -0.687793 1.41827 -2.03676
3459 1 -2.01615 21.2294 17.9912 -0.676645 3.14031 -1.38825
4213 1 -1.97683 38.8793 5.60962 -6.53235 1.32388 -1.74331
350 1 -24.2082 17.2585 21.7099 -4.38888 0.521407 0.254023
3517 1 -7.44447 17.6996 18.3268 -7.92767 0.392482 2.07664
4237 1 -2.2119 43.5828 5.82184 4.21574 1.94397 0.516002
1932 1 -3.58264 18.2059 6.47163 2.32769 -5.16866 2.32409
2864 1 -13.7415 12.8224 17.6419 0.236676 -0.587286 -0.902318
3550 1 -16.7478 17.4788 9.36186 1.37744 -2.42989 -2.71159
3561 1 -22.0076 20.1378 3.91506 0.999119 -2.48208 3.31169
3583 1 -17.785 18.9412 7.093 -0.213853 -0.779729 -3.24301
3597 1 -3.5959 13.3669 7.42209 -3.99776 2.08309 3.59598
1094 1 -20.112 14.5074 23.5639 -2.49656 2.63123 3.3268
3627 1 -5.12059 18.1998 10.062 0.493419 1.6071 0.83363
2475 1 -18.2512 13.5424 12.4432 5.74708 3.78078 0.0299061
3654 1 -18.9739 23.3502 13.0857 5.3467 -1.52275 1.56409
3677 1 -7.69622 12.7311 15.3252 -1.33137 -0.555851 -1.07871
3709 1 -19.4018 16.2903 8.74891 -2.87593 -2.53479 1.11391
3293 1 -9.08406 14.0309 23.677 -3.80258 -4.52796 1.21096
2811 1 -15.3022 14.2099 3.6097 5.69275 0.906 -1.10734
3744 1 -18.3984 18.6415 0.759455 -1.04217 -1.1699 -1.86926
3766 1 -12.6306 21.667 12.4296 -5.08883 -2.40361 0.040702
3771 1 -16.8905 17.8461 20.4016 2.73345 -0.198057 -1.99808
3890 1 -0.568803 19.6684 14.1646 -1.53075 -1.54375 0.891327
3793 1 -16.7229 21.0483 1.18332 -0.0668193 -5.15669 1.54523
3672 1 -15.2136 12.5945 12.9602 -1.60946 -1.38725 -0.114252
3846 1 -23.1771 22.422 20.1557 0.680806 1.37646 1.28205
3852 1 -7.5878 20.6065 16.3075 1.17285 -3.95632 5.15624
3889 1 -16.2221 15.9583 18.6195 3.83383 -2.48464 0.608445
3892 1 -13.2469 22.2237 6.50631 -0.333653 2.20486 1.00311
413 1 -22.4584 24.0928 3.51388 1.10331 -3.87591 2.03489
3946 1 -5.80387 15.599 11.5694 -1.98262 -3.96049 4.35082
3955 1 -8.04897 21.2941 11.8777 -0.166423 -2.14904 3.69387
3966 1 -21.9369 20.3371 8.71113 4.18025 -1.39772 0.227206
3970 1 -7.60496 20.8628 23.6593 -4.58525 -1.77049 2.68104
3976 1 -4.12728 13.3618 4.48131 -4.06285 -1.53869 -0.217287
3985 1 -13.8868 19.6084 5.91062 1.19144 2.26984 -2.5101
3988 1 -23.3892 19.6466 19.6287 -0.151838 2.86617 -2.39255
3999 1 -7.42534 18.1947 11.949 0.930223 2.76659 -3.97738
4009 1 -11.1733 25.8788 3.15126 -2.3318 -0.797425 6.49533
4010 1 -9.1925 27.7541 1.7991 2.6461 1.60542 -2.3961
4011 1 -6.61973 27.5321 2.92205 5.58846 3.89126 -2.73605
4012 1 -5.14586 25.5708 1.81446 2.55275 0.0292599 -2.53731
4017 1 -10.6386 25.1394 10.3872 3.72887 0.230788 -2.64924
4018 1 -8.88191 27.3262 9.53573 2.60419 3.90487 2.77318
4019 1 -6.17171 27.5416 9.56782 -0.78268 -0.510807 -2.63864
4020 1 -4.51225 25.4989 8.76653 -1.83126 0.872236 2.69995
4021 1 -10.7125 26.109 5.88555 -5.8075 -1.07831 -1.88459
4022 1 -8.91622 28.0912 6.63226 0.388927 0.135205 -2.47704
4023 1 -6.50481 27.2231 5.60264 -1.49962 4.08236 -0.688506
4024 1 -5.67727 24.7465 6.38279 6.81753 0.9656 -6.64588
4033 1 -9.91247 30.1021 3.06659 -3.88859 1.048 5.16182
4034 1 -9.10581 32.5208 2.15393 -1.32678 0.28767 -2.50475
4035 1 -6.33563 32.4973 2.91205 -7.19258 -4.51044 -1.04411
4036 1 -5.70846 30.1034 1.7606 -2.78752 -5.6748 -0.0907523
4041 1 -9.54715 29.6527 10.7896 7.23056 3.07742 -7.20531
4042 1 -8.31768 32.0072 9.75781 2.65439 2.60647 2.04781
4043 1 -5.7033 32.0741 10.5023 0.644959 -1.01625 -3.83566
4044 1 -4.60967 29.7174 9.19062 -0.121371 -2.4951 -0.32078
4045 1 -10.1797 30.2938 5.73638 0.545446 -1.86299 -0.840195
4046 1 -8.28535 32.3071 6.98091 -2.51891 -1.52779 -6.29091
4047 1 -5.89661 32.2512 5.61957 -0.164971 0.846973 2.94302
4048 1 -4.95478 29.71 6.39686 2.27122 -1.08583 1.48333
4057 1 -10.0022 34.6969 3.4247 2.14185 2.26277 -2.05889
4058 1 -9.15434 37.3432 2.09323 1.86898 -0.442496 -0.328753
4059 1 -6.2671 37.1694 2.97446 2.59404 5.23968 0.0466348
4060 1 -5.04405 34.7762 1.85681 -4.67552 2.15016 0.37265
4065 1 -9.51344 34.2673 10.8606 2.79569 3.2416 -2.75571
4066 1 -8.55786 36.5356 9.80997 -1.27343 1.01859 -2.74309
4067 1 -5.85706 36.7277 10.43 -6.02299 -4.04361 -2.50406
4068 1 -4.7199 34.4413 9.38529 -4.02731 2.95951 -8.5158
4069 1 -9.47323 34.8814 6.20403 -1.93604 1.5956 0.937353
4070 1 -7.83236 37.0104 7.14077 -0.946124 4.37233 0.280393
4071 1 -5.46963 36.7601 5.68579 2.07057 6.92514 -4.50181
4072 1 -4.47189 34.4914 6.56742 -3.06671 -4.08064 -0.0482442
4081 1 -9.82777 39.5062 3.58573 -1.37993 -5.09281 -0.448705
4082 1 -8.93202 42.027 2.49232 1.2416 2.46039 -0.169249
4083 1 -6.22326 41.4913 3.08353 3.08299 1.14974 -1.4902
4084 1 -4.86657 39.2307 2.169 1.47524 1.75644 -1.25608
4089 1 -10.2613 38.896 10.3103 -2.40376 -0.828768 -1.58678
4090 1 -8.70244 41.2711 9.9724 -0.500898 3.52379 4.13041
4091 1 -6.0237 41.1619 10.6351 5.43058 0.422999 -0.902245
4092 1 -4.36259 38.9704 9.52149 2.15217 -2.10103 1.3036
4093 1 -10.0918 38.6768 6.09512 -6.692 -2.53727 -2.42837
4094 1 -9.04319 41.143 7.12308 0.614682 -0.775183 1.18561
4095 1 -6.0371 41.4125 6.31813 5.77911 3.57562 4.39895
4096 1 -4.84948 39.0366 6.93023 -0.529823 0.316283 -0.738058
4105 1 -10.1995 43.9935 3.96967 0.638481 0.877334 -1.58999
4106 1 -8.64211 46.0054 3.03556 -1.30197 -0.283809 2.5351
4107 1 -5.76609 45.9868 3.33257 1.52579 -1.73713 2.2053
4108 1 -4.74316 43.4487 2.15099 -0.890634 1.19 1.9869
4113 1 -10.327 43.6411 10.011 0.293545 -0.884049 1.19652
261 1 -2.30312 46.2306 11.6072 -1.55113 4.43509 1.46524
2362 1 -19.9838 11.7959 15.5829 0.564462 -1.37498 2.27556
4116 1 -4.62202 43.3931 9.75919 3.01132 -0.830694 0.0845045
4117 1 -10.1496 43.831 6.81782 3.62236 -1.43051 5.42702
4118 1 -8.21316 45.9037 7.34658 2.25905 -0.912551 4.65554
3669 1 -0.764586 21.2697 4.40158 -6.38248 -0.546646 1.90073
4120 1 -4.53148 43.7309 7.02149 0.364704 -6.36196 -1.16891
4129 1 -2.5779 25.9153 2.99323 -1.19767 -0.794523 0.408487
4130 1 -1.57787 27.8799 1.43674 -0.407845 -3.24849 -5.70663
4137 1 -2.02847 25.5687 7.49533 -4.03571 -0.47022 1.71118
4226 1 -0.774817 45.608 1.89839 -1.2777 -3.49947 2.06103
4141 1 -3.46347 23.9457 4.66074 -1.42764 4.04214 0.00138069
997 1 -23.2944 22.543 23.0657 1.96864 3.50636 -4.33558
4153 1 -2.91154 29.9898 2.50653 -2.213 0.266772 -0.411175
4154 1 -1.48746 32.1073 1.33694 -3.50467 -1.19114 3.14353
4161 1 -1.9747 28.8688 9.77107 3.89588 -2.48033 -1.46259
1685 1 -19.1176 11.9032 23.818 0.593745 7.15689 -4.93419
4165 1 -2.66393 29.7003 5.00119 -0.0271574 -3.20329 -0.679045
2701 1 -22.1332 25.9175 1.45081 2.20653 1.23244 6.1784
4177 1 -2.45999 34.2952 2.67985 1.98095 -5.44436 -3.03823
1484 1 -6.44061 12.5958 6.29841 -3.09826 1.83267 2.44991
3028 1 -15.3685 12.029 20.9367 0.781614 -1.70879 -2.858
998 1 -1.79101 12.1113 11.2954 7.79972 -0.515616 5.64091
3831 1 -3.49599 20.9401 0.835581 0.87451 1.80346 -0.00751788
1723 1 -24.4348 18.8686 3.37658 -2.20424 1.06909 -0.639758
867 1 -1.69283 12.4748 19.6036 -5.07394 0.357909 3.94187
749 1 -0.617716 16.2238 8.31502 -4.39976 1.73394 -0.0125466
2291 1 -0.586332 21.5014 21.4266 -0.97459 -3.37831 1.78464
869 1 -1.6073 18.6425 4.376 2.27163 1.44774 3.06063
3337 1 -16.6125 12.0686 10.3053 -0.579458 -2.24296 0.29509
2424 1 -23.0079 16.5383 7.78359 4.54191 3.95823 -4.60229
2849 1 -21.5799 47.1594 14.9036 -7.68497 0.737684 0.378459
3774 1 -10.7126 12.1307 3.60258 -2.07805 2.45948 -5.37047
3304 1 -0.573566 15.8376 13.8682 -3.31304 0.343507 -3.25262
3637 1 -3.20632 11.7546 22.1816 0.478908 0.829431 -0.789862
3251 1 -0.981215 17.8149 11.7998 5.64046 1.78413 0.957132
4214 1 -0.72957 41.2545 6.49365 4.12799 -3.00541 -4.6322
2117 1 -24.1266 22.6445 6.20915 1.6197 0.372273 1.89042
1769 1 -24.2795 15.9591 15.6151 -2.53982 -0.366633 -1.45384
3307 1 -18.1604 11.813 20.7609 5.07718 -2.29545 1.23982
3056 1 -23.8127 12.0006 10.4166 2.72893 2.96252 2.16024
902 1 -10.2999 16.1114 0.853413 -4.28782 3.01275 3.97678
456 1 -6.15129 15.1651 23.758 -0.181826 -1.1565 1.66034
1148 1 -11.5308 11.7357 9.32687 -4.40782 -2.05205 3.22551
1167 1 -1.34915 14.9434 17.9354 1.2853 -3.67949 4.08192
1940 1 -18.1698 46.8718 3.73379 3.73737 6.28842 5.0813
4190 1 -0.818129 36.47 6.27654 -8.22619 -2.90587 0.96703
3582 1 -14.9902 46.6791 14.4451 1.54775 1.23384 0.217104
1998 1 -13.4857 11.7172 0.605195 0.180155 0.204579 0.662928
3131 1 -11.9573 14.0151 0.0994183 5.51643 1.39141 -0.766622
337 1 -20.0169 22.0855 0.0938386 3.69749 4.15688 -2.85685
604 1 -1.49778 26.2194 24.1594 -3.67536 4.19596 -0.154115
4110 1 -9.14731 46.0744 0.139124 1.84545 0.171229 1.35908
4 1 3.4849 -2.37295 -4.88908 3.20799 -5.97096 2.85929
12 1 19.8069 -5.91518 -22.9862 3.10896 4.81248 1.01186
14 1 9.56338 5.62377 -7.86998 3.01585 2.44214 4.14506
30 1 21.7722 -0.479579 -22.5762 -0.912595 -2.7652 -1.64075
31 1 6.37509 -15.2015 -19.3938 -1.10408 -2.61626 -2.6661
33 1 0.66712 4.09845 -12.342 1.56733 0.318452 -0.47484
3 1 4.59664 -8.1016 -22.167 1.50438 5.14336 2.56118
41 1 7.23212 -6.01924 -12.7228 -3.8921 -3.16559 -0.746746
48 1 6.64892 3.84585 -6.62875 -3.10241 -0.534728 0.948718
52 1 14.5933 3.87266 -14.7696 0.148126 0.733575 -3.55687
58 1 2.73437 -18.9036 -3.63985 -1.61108 -1.65804 3.02785
831 1 3.27689 -14.907 -23.4786 1.31678 3.5466 3.55574
3288 1 0.0667578 7.85428 -18.2947 -0.13015 2.1736 0.0182902
2080 1 22.4071 -23.5823 -16.7277 -1.14474 0.359453 3.02141
3872 1 21.259 -23.9741 -8.00267 2.46446 -0.652119 -3.48841
3322 1 13.3137 -10.6466 -23.5915 -2.18364 1.48426 -0.462513
95 1 5.8136 -2.24959 -12.9466 2.29321 3.95321 -1.99621
99 1 14.7952 -22.1631 -6.0614 0.847157 3.687 -5.84845
101 1 0.368955 -19.5359 -9.38 -3.56181 1.76199 1.25786
110 1 10.7903 -11.2352 -10.5239 0.184466 -0.0123031 -2.28112
111 1 19.6329 -3.47613 -13.6196 -0.907429 2.79328 -0.671734
116 1 4.41583 -17.6986 -16.5829 -0.208588 -0.246001 0.525776
118 1 3.56313 -17.5433 -12.607 1.75476 -1.22747 -3.12059
657 1 2.64743 -2.8222 -12.8445 -2.06429 -0.202015 -4.86715
1395 1 0.140519 11.0198 -6.28949 0.240742 1.70644 3.7324
131 1 1.81257 -7.41133 -21.2815 0.46149 0.148303 -0.974789
299 1 6.01256 -22.933 -12.529 -8.05583 -1.02414 1.47472
153 1 8.44496 -15.6304 -3.66051 5.67339 4.81898 1.18689
155 1 21.8661 -21.5158 -20.3586 -0.139884 -3.27272 -1.59386
157 1 13.1484 -14.3392 -13.0282 -0.433203 2.50709 -1.97719
161 1 17.1413 2.5152 -14.224 -2.30545 0.422924 0.88557
184 1 5.12778 -22.6702 -20.6267 3.73079 -0.128295 -2.71554
2514 1 21.5007 10.3783 -21.5409 5.59222 -1.51822 0.239853
191 1 2.24313 -2.96683 -21.4289 5.98425 0.193872 -2.91853
192 1 9.12599 6.32007 -3.40934 -3.42506 -1.328 0.056262
195 1 7.71256 0.947902 -6.79186 -0.111952 -3.05994 -0.400397
200 1 16.307 8.24654 -14.3909 5.03569 0.588326 -7.96364
144 1 23.6026 -7.41766 -15.0349 -2.37838 2.26511 3.45487
214 1 15.9634 -6.22772 -21.4785 0.551025 0.590526 -3.14516
218 1 13.0724 4.15514 -2.38549 1.40427 5.01803 0.994901
225 1 3.82487 -13.6989 -9.25388 1.34975 3.60101 3.58535
2460 1 8.13328 11.1218 -14.8511 3.47819 -2.84381 -8.65211
229 1 11.215 10.6233 -11.4443 0.58387 -2.13847 -1.5984
254 1 8.28626 -11.9457 -9.36825 0.400611 4.22811 2.01982
259 1 15.037 -15.5167 -18.5365 -0.449517 0.565772 -3.12701
260 1 13.4323 6.87615 -3.32066 -3.27682 -2.24115 -3.2458
265 1 13.0692 -17.0964 -5.90495 -1.25398 5.83625 -1.77258
3806 1 1.51396 1.77996 -3.4594 -0.86275 -2.29622 -4.15594
276 1 21.7547 7.30264 -8.41231 -5.71387 1.17072 1.28687
277 1 12.7374 -13.7741 -19.2468 -5.59789 0.542199 0.969102
287 1 5.51699 -8.94069 -9.75712 4.98231 -1.54203 -1.53932
297 1 21.1044 -8.07958 -6.11672 -1.01205 5.294 -1.70321
298 1 14.2617 -22.0476 -20.7367 -4.53987 -1.61129 -1.55121
1215 1 3.93701 11.1308 -7.50207 1.07693 6.12014 -3.94465
1306 1 6.1247 -20.102 -0.487227 -4.65476 -2.21044 0.366374
332 1 11.1614 0.11885 -8.92187 0.982253 -2.64099 2.30297
333 1 10.6343 -8.55214 -14.4617 1.99437 0.673784 -2.49614
334 1 4.57817 -23.2941 -2.63011 2.33148 -0.554757 3.09018
344 1 8.99369 -14.651 -12.0654 -4.40975 -0.465975 4.31514
1548 1 16.6336 -23.5553 -9.44806 2.83728 -1.02606 0.625151
369 1 10.9969 5.57073 -13.9168 0.420657 5.02839 0.996625
370 1 6.46987 -12.6097 -22.9607 9.6731 -3.61535 -2.9617
378 1 17.5475 -14.4458 -3.30041 1.55595 1.82866 3.39042
386 1 17.0611 -2.52275 -22.5319 -2.06243 -2.36271 -2.44282
401 1 21.251 -16.1163 -4.9157 2.50792 -0.00988547 1.59268
1411 1 19.591 1.18455 -23.6991 3.442 2.27199 1.16125
409 1 2.19489 -0.517566 -6.7752 -2.00645 -3.82873 -1.55088
329 1 1.06014 1.80261 -8.24995 -3.86491 1.40187 -1.09165
424 1 4.23062 -3.9922 -2.30204 -1.26242 0.558137 -6.22934
431 1 12.3187 -6.96828 -16.5183 1.32718 -0.576103 -1.97832
441 1 18.3501 2.34952 -3.95805 1.57234 2.04178 -2.10771
445 1 18.4805 -10.8757 -8.98039 1.69938 2.29472 -2.05623
446 1 22.3176 -13.2846 -6.72392 1.85491 0.826842 -1.13803
449 1 14.1143 -3.45695 -1.67763 1.67301 -4.86819 -7.21897
853 1 12.8889 9.53447 -15.1589 -0.452765 -2.24103 0.0526676
459 1 0.968057 6.59052 -13.2295 2.70992 -1.68959 0.0320986
1043 1 17.9296 10.9737 -7.5889 -0.980083 -4.08807 0.581664
461 1 2.40124 1.64544 -21.785 5.4964 -2.60995 -4.42576
3207 1 -0.495019 -5.97902 -19.0065 -3.46795 -5.05777 -1.92299
474 1 4.48813 -4.88759 -12.2817 1.47999 -0.934116 0.111509
3101 1 23.0773 -14.7752 -19.4535 0.864879 4.75683 -0.219717
2069 1 23.3059 -21.4767 -9.85594 7.36803 -1.44461 -3.55289
485 1 20.5753 -21.9067 -17.9709 5.22585 -1.42113 5.13441
486 1 15.4873 2.76857 -3.40642 1.53882 1.33085 0.839867
490 1 15.6601 -15.7055 -12.1591 1.33191 2.24091 -1.33506
493 1 13.3173 0.00114697 -14.1095 -1.93117 1.57847 0.873388
496 1 3.86524 7.27974 -13.7796 -1.78726 2.50245 2.37109
3504 1 16.1132 -1.43506 -0.847317 -3.30025 1.47422 -2.4949
503 1 8.81188 0.691223 -13.4706 -1.62394 -1.99133 -3.54829
516 1 7.6837 -22.4098 -0.627833 3.7243 -0.714426 0.224212
534 1 18.6455 8.98242 -11.6657 -4.80462 -2.25678 -2.22298
1695 1 17.6842 -21.777 -11.0496 -1.56787 -2.15961 -2.38484
2473 1 13.9356 9.85507 -5.88421 2.83062 -0.895287 -1.00459
543 1 17.3888 -16.3568 -17.4189 0.623509 6.97503 -0.0578517
547 1 15.2648 -16.3332 -21.4801 6.48364 7.37484 4.99736
2213 1 19.7504 10.9968 -5.12609 0.869432 1.31925 7.49109
551 1 11.3459 6.38115 -16.8043 -0.432657 -0.0310644 -1.19375
1040 1 5.60531 -2.61 -23.3545 -2.79332 -0.881747 4.00327
188 1 7.35016 -24.4897 -2.7528 2.20118 2.66854 -0.669611
1791 1 2.53767 -6.18422 -18.9932 -0.968507 -1.97782 1.05165
562 1 6.2542 6.74557 -21.0453 5.11822 -4.43897 -2.11595
574 1 12.5247 -21.061 -4.91918 1.89723 -3.40514 -3.51842
579 1 2.76443 -19.8036 -10.8022 -5.19636 1.94519 -0.424486
584 1 15.5427 4.77324 -5.7463 -0.602788 -3.34932 -5.94403
1154 1 1.12565 9.05808 -21.6848 2.90814 1.09801 -0.285989
606 1 2.37123 -0.799889 -23.3145 3.11789 0.186695 3.89361
608 1 3.82509 8.89003 -10.4188 -2.75957 -1.63227 1.57689
613 1 12.0152 6.5458 -20.5062 1.08669 -0.301281 4.3315
620 1 22.0223 -11.3881 -9.00549 5.36229 -4.13763 -2.04852
1985 1 1.66822 -24.37 -10.4647 -3.07327 -4.53811 2.6159
2443 1 5.49802 10.4051 -21.371 1.47763 2.19239 3.49201
647 1 4.62208 4.70926 -2.83845 0.754411 1.00348 -1.76778
648 1 19.6103 -16.4701 -21.7726 -1.92156 0.0814704 3.87807
1049 1 22.3825 0.173323 -12.5654 3.37254 2.36358 2.25261
670 1 1.39121 -14.9153 -1.33873 0.758091 1.7306 1.37716
2004 1 0.801706 -22.6713 -21.8945 -2.49976 -4.93221 5.26962
684 1 10.913 -21.1538 -11.0804 -1.02321 1.69604 -4.97159
695 1 6.85782 -12.2609 -6.93786 3.6711 -1.44082 -0.018456
698 1 22.6073 -10.758 -3.52806 -0.354559 -3.14454 1.86025
732 1 13.1804 -23.8787 -7.76378 3.16269 0.0322706 -2.65703
708 1 10.9275 -5.52054 -20.3781 -1.3356 3.30518 1.20096
714 1 19.1491 -6.68538 -10.6255 0.681727 -0.537261 -1.28908
720 1 3.73153 -3.82885 -19.1931 -2.93405 2.43693 4.75698
136 1 0.419749 5.84977 -5.78791 3.27301 0.818528 -1.07465
727 1 10.2506 -3.39141 -15.1523 -0.79925 2.51749 1.44708
730 1 13.0056 -19.6496 -17.103 -3.4232 1.93747 -0.796373
3802 1 5.09431 0.250447 -23.9815 -0.251378 -2.45467 -4.34137
744 1 9.24396 -10.9185 -13.203 6.41683 1.82342 4.37274
750 1 19.1658 -3.90309 -11.0246 -1.05045 -0.376568 0.35154
755 1 11.6771 9.25104 -21.5076 -5.27506 -3.96259 -1.15428
775 1 22.4195 -18.8248 -10.8323 3.03676 -3.3557 1.71909
777 1 21.9927 -6.89908 -11.7686 -1.9011 -2.6258 -0.411581
778 1 2.39796 -17.0865 -18.5292 -0.868231 -0.743703 0.909982
779 1 6.91308 3.28299 -9.76155 -2.60209 0.551651 1.03435
782 1 19.584 -8.39165 -13.003 2.3496 3.01735 -0.499568
803 1 20.2463 -11.059 -6.65228 -2.32784 1.40708 0.701942
804 1 7.14572 -18.5424 -11.8533 -1.66764 1.65638 3.57895
812 1 5.20132 -13.2974 -12.022 0.990269 -0.524069 -0.334207
824 1 3.76834 -19.4827 -6.41856 -1.18481 -0.990886 2.34248
1186 1 6.15128 -6.83211 -1.08337 3.52305 -1.93568 5.42638
835 1 2.30808 7.123 -20.107 -0.905605 -0.619895 -1.78728
844 1 16.4351 -20.2923 -19.5783 3.62174 -2.61232 -7.10309
845 1 18.8103 9.4946 -2.97587 -2.36258 -3.28876 -3.81443
846 1 8.25755 9.84661 -10.9153 -7.51087 3.94565 -2.80931
849 1 21.6232 -14.4369 -9.84528 1.21696 -2.42758 -2.1369
2964 1 0.2857 -20.1506 -20.7803 -0.845199 3.13552 -4.1186
1728 1 23.1701 -5.2769 -20.5497 3.40064 3.39172 -1.44138
1505 1 18.4023 -23.9579 -21.5657 3.65819 4.56756 1.15907
860 1 15.0057 -6.00566 -17.3622 2.08533 1.14775 -1.78621
871 1 5.83391 9.82366 -16.7791 -2.96939 -2.75766 -2.23073
876 1 12.325 -15.7536 -8.54355 -0.693893 1.4631 4.20044
879 1 15.3766 7.38023 -22.2342 -7.77176 -1.13273 3.45648
884 1 19.9498 -20.0036 -15.8913 -1.23037 -2.00553 1.11089
892 1 4.46303 -10.976 -8.13484 4.40254 2.71431 -1.71077
2469 1 13.0078 -23.0303 -23.0361 0.950946 3.75302 0.279077
915 1 17.5649 -5.29998 -13.9095 1.35238 -4.99817 -5.15121
2569 1 18.6436 -18.1684 -13.6799 -1.12094 1.2724 -4.58269
921 1 9.2775 -9.22569 -20.8304 3.32307 4.32038 4.08966
931 1 17.8536 -0.814951 -8.25448 -2.34405 5.17434 -1.84385
2604 1 13.2396 -12.5844 -0.563114 6.24776 4.58183 -1.20644
940 1 21.3448 2.02158 -10.7958 3.21723 0.445471 -5.52972
952 1 11.4572 -14.1051 -10.7658 -4.05311 2.82274 -2.60176
954 1 15.3467 10.2352 -8.36447 1.3593 -2.7255 0.468901
964 1 11.1341 -14.9205 -21.2044 2.49973 -3.10282 -4.07988
967 1 17.0771 -2.61523 -16.5567 -1.88525 2.61168 -0.868222
981 1 7.20879 0.166158 -4.0814 0.523347 2.72406 0.757474
989 1 9.5828 2.68259 -8.50055 1.05698 0.574699 1.53724
2415 1 22.7278 -24.4594 -23.8236 -3.06139 2.68206 4.12087
3648 1 22.847 -21.1916 -1.21232 -2.52099 1.38398 2.66129
3587 1 22.4643 -14.6585 -15.3063 4.71093 0.838176 3.27387
1015 1 -0.220977 4.69128 -23.7167 -4.79399 5.59364 2.56941
1021 1 19.8108 -18.0129 -3.15371 -5.45655 -0.349975 -4.66552
1025 1 5.1992 4.17211 -21.1043 4.99318 -3.33444 0.548634
2975 1 16.9901 10.7901 -1.42814 -0.190509 -0.988672 5.09422
1168 1 12.2508 -8.50604 -0.29083 0.760068 -0.0369261 4.97257
767 1 2.15184 -11.93 -1.09645 -1.53079 0.839776 -1.11424
1053 1 4.68057 8.43848 -19.1312 -0.327572 4.62832 -2.45564
1058 1 1.79337 -2.75625 -9.94874 2.87965 -1.93496 0.908705
1209 1 3.10162 -4.19958 -24.0575 4.80445 -2.99685 2.19118
1061 1 7.20739 8.82708 -13.3129 -1.63092 -4.49942 -6.36877
1066 1 13.3048 -5.00109 -21.9405 -1.04653 1.59877 -3.6648
1072 1 14.361 8.10547 -19.7595 1.81312 4.612 0.461363
3918 1 10.7964 10.848 -16.5858 1.90382 3.97266 3.6939
1059 1 3.6118 -23.724 -14.0142 4.88493 -1.96768 0.769603
1077 1 17.3849 -9.49525 -5.42628 4.84561 3.34253 2.98124
1087 1 9.91338 -1.09294 -19.9327 3.24455 2.20021 1.2072
1738 1 3.11976 10.7093 -23.1111 3.07531 -0.766026 -0.273389
1118 1 20.3292 -0.075264 -14.4293 0.19515 -2.85489 -0.336693
1121 1 11.7139 -4.40608 -17.7462 2.9942 1.34545 -2.67621
1123 1 16.3095 -5.59298 -4.9392 -0.965371 4.41105 0.248246
1131 1 19.2811 -5.62208 -3.72557 1.41119 4.69174 -10.9305
1140 1 15.7239 -7.89863 -19.2753 -5.5206 1.23649 -2.16476
1143 1 2.42699 -6.21126 -15.9821 -1.71807 -4.41003 -0.488165
1144 1 13.2092 5.2506 -12.3326 -7.6723 -2.46609 -1.07985
77 1 13.89 -23.0906 -2.18226 -2.02601 0.835706 -2.14861
1157 1 3.32937 3.88887 -8.94473 -4.41817 3.60661 2.5237
3453 1 13.9578 10.9024 -20.298 -9.69959 6.19683 0.417939
852 1 10.8287 -2.57946 -0.57559 5.40587 2.47759 -2.09403
1177 1 10.776 2.68805 -18.0172 -1.41883 -0.743833 -0.642292
1179 1 10.8643 -6.2829 -10.4695 2.04405 2.12911 -3.03715
1183 1 5.38496 -6.34547 -16.2775 -2.26555 2.77559 0.357448
1190 1 14.0677 -2.31265 -22.3595 3.70836 -2.49766 0.109616
1195 1 14.8078 -13.3694 -15.1264 -2.61648 -2.08505 -5.87575
1206 1 20.4174 -19.2048 -20.7653 1.77949 -0.131513 4.52652
1207 1 14.831 -1.37127 -18.372 2.78076 0.969996 -5.25151
1212 1 19.1592 6.11434 -11.2607 -3.6068 1.42492 -0.567528
1214 1 11.8376 1.34708 -1.59579 -0.36009 0.417571 4.3024
595 1 7.9288 -16.0604 -23.4851 -0.306009 4.57587 3.55624
1216 1 17.1001 -8.56443 -9.73447 -5.08852 4.27524 -1.17201
1218 1 16.9723 -2.36436 -10.5674 0.31775 -0.43712 0.795626
1012 1 0.625602 2.72554 -0.857211 -2.87413 0.514798 -0.810236
1238 1 7.52466 0.798374 -10.8335 1.25803 -0.00115092 -2.0927
1242 1 9.11305 -20.8903 -15.3853 -5.54017 -2.45088 2.32859
1256 1 3.51864 -20.3376 -17.3497 -6.47896 2.47558 -1.8
1260 1 4.12249 -7.31491 -13.811 -1.57259 1.79056 0.792646
1261 1 15.6793 -12.3074 -9.12787 1.75538 -6.5678 -0.934335
1262 1 10.3039 -14.0349 -5.6981 -3.12947 -1.84148 -0.936854
1278 1 15.363 -8.29648 -23.3437 2.26885 -1.92984 -2.31697
1280 1 1.18078 -3.9125 -4.62634 1.10257 -3.6369 -0.132291
1282 1 9.93484 -21.5311 -2.63181 0.910454 1.08935 -4.43567
1283 1 4.20937 -21.25 -8.63444 -2.64343 2.4757 -2.22303
1288 1 5.45093 -1.30419 -15.5686 -1.29017 -1.8419 1.81889
683 1 0.733682 10.7825 -19.424 -1.41451 -0.78271 3.82687
1294 1 13.0683 -13.1689 -5.77065 0.453621 -4.46725 -2.36493
3635 1 -0.0152476 -15.5078 -20.5426 -1.55965 6.18256 -0.410378
1298 1 3.69448 -6.61607 -2.93646 -2.46286 -2.40751 -2.61708
1300 1 3.39445 -0.350821 -2.74706 0.669228 0.697595 -2.79572
1304 1 3.77973 2.28864 -6.52219 -0.420519 -0.884951 -2.36188
484 1 22.5783 -13.7794 -12.5098 4.16098 3.90584 2.58854
1316 1 18.7703 -7.13681 -15.5014 1.13873 0.494147 4.32014
1320 1 19.6145 -6.11815 -7.77893 0.454495 -4.85668 1.94765
1321 1 10.1519 -23.3125 -7.30309 -1.30386 -2.53392 -4.95438
1322 1 1.43913 -13.1321 -8.04426 -1.90222 -3.14304 1.04114
2948 1 1.07938 -19.1568 -0.372144 4.55535 -4.45064 6.0118
1334 1 14.3599 -9.44552 -9.59073 3.02775 2.542 4.25884
1338 1 2.52794 5.02049 -0.878582 0.50054 -0.843464 2.71812
1453 1 0.276672 -21.1952 -7.19566 -1.92185 2.5891 1.4963
1346 1 16.2234 -0.198485 -14.555 -0.514577 0.236305 0.552419
834 1 0.315052 10.2745 -1.9114 4.51296 1.18967 0.399425
1364 1 14.068 -11.7597 -11.6084 2.76898 -1.12576 -2.84214
1365 1 7.40514 -5.78651 -22.1556 -4.4755 0.510734 -0.36529
1369 1 22.2446 2.83656 -5.20719 -1.41331 -0.816917 -3.87824
3934 1 22.2517 4.01839 -14.5165 5.40519 3.58469 3.12457
3481 1 3.4899 -23.0082 -22.9404 0.129962 -3.2136 0.370037
1727 1 23.0615 -1.63957 -20.145 -3.71313 1.30466 -2.69409
3053 1 20.2666 -20.9009 -0.708809 0.49098 -1.57299 0.406863
1342 1 0.915446 -24.1336 -15.0631 -1.66245 -2.27378 1.57534
94 1 23.2453 3.80939 -12.0559 2.01822 0.84312 2.36038
672 1 21.9827 7.34785 -11.4211 6.9927 2.79639 3.85022
1427 1 18.6512 -12.7967 -1.0915 0.795886 0.610627 0.34673
1446 1 3.14889 -8.08676 -11.159 -0.291905 2.40156 -2.31181
1447 1 20.7457 -3.80021 -19.5741 -0.130328 -2.60996 -2.84773
1454 1 8.97572 -10.5828 -1.3723 2.79946 0.369261 6.42752
2832 1 22.8709 -18.4649 -5.01204 -4.71135 4.63832 5.78846
1473 1 13.6515 -19.6947 -14.1202 -5.25317 -4.51489 4.79471
917 1 22.6208 3.0916 -21.7461 4.65335 -3.50292 -2.46902
1483 1 9.55722 -22.1417 -19.1542 -0.469414 1.76952 -3.93702
1491 1 12.3604 9.24885 -3.39636 3.00753 1.61915 -1.22246
1497 1 12.99 -8.43672 -20.1438 3.59261 1.21019 2.56633
2516 1 3.45888 11.1041 -19.3493 1.0906 2.31255 -1.48797
1508 1 19.8793 -11.457 -3.66498 2.31287 1.40059 -0.750294
3347 1 23.6534 10.6026 -14.3337 3.17538 -2.12587 1.62811
1520 1 10.6936 2.85521 -14.3595 1.77623 3.81428 -1.05593
1527 1 1.75579 1.71393 -11.2928 0.967057 0.997404 1.1163
1532 1 17.9702 -5.05612 -17.3925 7.45204 -3.06839 0.0657108
1539 1 1.71383 7.56214 -15.7662 0.939922 -3.75828 -1.85964
1541 1 6.62343 -19.5296 -9.32714 -0.0704458 -5.30703 -3.29732
1547 1 12.4526 -1.39339 -2.53242 -1.98913 -0.749172 3.25017
996 1 20.6936 10.2889 -17.9019 -0.0958478 4.2962 -1.06011
597 1 23.6017 -23.3939 -11.8779 -1.47296 5.72944 2.20415
1551 1 10.4583 0.201381 -5.7839 -0.108548 -4.68316 0.798279
1552 1 18.881 8.2696 -18.4101 3.038 -0.986443 1.22309
1556 1 19.8802 -17.1776 -7.45393 1.79807 3.77596 0.806819
1557 1 7.78464 -23.0782 -16.8219 4.48616 3.90432 -0.0360634
1605 1 1.01328 -0.253113 -13.3562 5.24955 -7.17583 -5.33702
1389 1 21.5678 -3.55514 -0.902837 -3.29109 -2.73781 0.542203
1567 1 0.997389 -10.0063 -20.5376 1.92276 0.700393 -4.57002
1578 1 16.4308 2.3189 -11.4094 -0.715323 6.70778 3.58798
1583 1 11.3772 -2.60858 -4.81658 4.00886 1.72408 6.28436
1587 1 20.4408 -2.38941 -8.7437 -0.462203 -0.99935 -0.607453
1590 1 19.2256 8.53471 -14.7446 6.64966 -2.46122 1.70226
1594 1 11.0656 6.2852 -1.36595 1.2178 3.09982 2.37527
1600 1 16.244 -16.0414 -14.9112 0.543631 2.9106 -4.92989
1603 1 6.52987 -8.517 -13.2957 3.78131 -1.42504 1.85003
1604 1 20.2429 -13.5966 -17.126 -2.70818 2.702 2.65768
3849 1 16.9152 10.6719 -23.1315 0.516445 -2.48858 3.62213
3303 1 22.0238 -22.4737 -13.7637 0.0203854 -3.76253 -3.77643
1616 1 16.4708 -11.8926 -16.7258 -2.38773 -0.124525 0.340024
1620 1 14.9735 -10.2478 -6.85974 -1.80284 -1.74332 0.947453
3937 1 14.4363 -18.5456 -19.382 4.44566 0.918536 0.935712
1635 1 5.56082 -16.0409 -10.9555 2.17992 -1.76525 0.902551
1638 1 14.0369 -4.01662 -19.2095 1.42577 5.95191 2.40862
1650 1 12.2643 -3.71103 -12.6116 3.44145 -2.38634 -4.24309
1607 1 11.934 -23.8651 -15.0159 0.769199 -4.65278 -4.44281
1652 1 12.7276 4.59812 -18.5448 -4.14641 2.94575 -1.48763
1657 1 16.277 10.4052 -12.4601 0.554762 -0.692678 -3.20764
1660 1 1.88365 -12.6239 -22.547 -0.91809 0.456647 1.97401
1664 1 3.95208 -9.74705 -15.5024 3.75757 1.17492 -0.393075
1666 1 17.0047 -3.85473 -19.9509 0.398122 -3.00298 2.6442
1669 1 15.0937 -21.6293 -12.3898 2.80335 -2.3302 4.05022
1674 1 5.79109 -2.90859 -7.15957 -4.20817 -0.677691 4.12337
1687 1 19.0332 -15.7805 -9.94156 -2.26034 0.0103481 -0.581207
542 1 23.5635 6.80623 -4.14646 1.6988 1.08929 -0.180601
3809 1 3.6972 -24.2886 -18.718 1.5792 0.825366 1.41499
1700 1 14.8316 -2.04806 -12.6383 2.5268 -1.37295 -5.22278
1703 1 5.53214 5.56172 -12.4557 -3.13767 -5.02047 -2.72237
1706 1 7.896 9.73983 -19.9205 0.836015 -0.00284296 2.46677
1714 1 4.74009 0.141237 -11.429 -0.200075 -2.22625 2.1371
3921 1 17.661 6.42841 -16.5635 1.76934 1.39509 -0.182837
1717 1 10.6278 -16.2291 -1.50468 -3.09904 4.35269 1.42752
1718 1 6.66369 -20.3806 -13.9736 -1.83007 -6.50787 -2.81876
1976 1 18.7936 -9.64911 -22.2906 -2.84349 3.34619 -1.11721
1731 1 21.5267 4.88141 -3.27363 2.58311 7.13752 3.30219
3850 1 20.6965 -18.5697 -23.8294 0.0743555 -0.0873985 2.13952
1747 1 4.81862 -17.5822 -8.30492 1.71986 -6.7438 3.52096
1748 1 17.3647 -2.02806 -4.56633 5.43143 -0.988337 2.12602
451 1 22.8165 -12.4635 -17.6644 2.78725 0.244596 3.31304
1757 1 17.3681 -12.1872 -6.46423 0.449852 0.743849 -1.11839
1761 1 21.8688 -17.544 -19.0531 2.07595 -2.95233 -9.47402
1765 1 4.91132 -14.9748 -4.39449 3.06356 -2.81738 2.77312
1779 1 6.5286 6.65703 -2.36049 0.476261 -0.175172 -1.15482
1780 1 6.35678 7.91514 -5.08461 -4.98532 0.601917 -1.03363
1783 1 17.9224 6.57541 -5.89036 0.627955 -0.441487 1.63276
1229 1 18.2655 -15.8739 -0.803478 5.88638 0.228103 3.09857
1790 1 7.86284 3.57967 -14.2724 0.874018 -2.4107 -1.34433
2616 1 22.794 -2.02861 -10.7786 5.37254 2.49167 -1.5129
1970 1 23.0036 -6.09054 -0.372293 0.425192 -1.8235 -0.549077
1794 1 17.3479 5.38504 -21.1558 0.488584 6.9377 -0.374723
1795 1 14.7546 0.103837 -10.7737 1.79018 2.17659 4.66077
1798 1 19.206 -6.14037 -20.1597 -1.7687 3.67987 -6.48248
1805 1 11.1089 5.30912 -5.52926 2.4706 -1.48491 -3.40854
3301 1 23.5358 9.43371 -7.55764 -0.0297752 -0.427169 -0.425066
1814 1 11.2981 3.02226 -11.4598 -0.622577 0.241461 -2.76259
1822 1 16.9167 -4.01451 -2.43456 1.50329 -3.298 -4.73612
1825 1 9.34464 -10.381 -6.83414 3.08955 -1.88792 -0.0112394
1827 1 15.7593 -21.3855 -3.41884 2.62024 -3.23277 -2.5401
1831 1 12.1987 -15.2748 -3.73329 0.0534458 5.18463 -2.48891
1834 1 6.77293 -7.74677 -19.9134 2.70797 -0.775853 0.876566
1841 1 6.6429 -22.3399 -9.71361 -4.28845 -6.95106 2.31755
1843 1 6.06413 -2.73653 -20.4183 0.348033 0.17563 0.717607
1848 1 7.25386 7.06385 -15.9676 -5.05391 2.12478 1.04336
3830 1 16.5213 -11.7789 -13.1738 2.56697 -0.585731 -1.54097
1850 1 16.2353 -19.8652 -7.70685 2.31238 1.33059 -3.17464
2406 1 22.2868 10.1458 -11.8978 0.916929 -0.956634 2.18824
1856 1 8.71122 -3.63633 -21.0691 -1.39055 -0.861159 2.75359
1858 1 2.60501 -16.2076 -14.9849 -3.38147 -1.87752 0.849695
1859 1 8.9437 -14.8694 -15.9506 -1.3938 3.54361 3.27961
1867 1 5.64942 -8.00066 -4.61845 4.11828 -1.96532 3.2609
560 1 22.2922 -22.1624 -3.98568 3.16656 -1.16 2.38368
3904 1 12.0083 -6.65255 -7.85946 2.3647 -3.59944 -4.00102
1902 1 20.147 1.30255 -20.5641 -2.90454 -0.546342 0.517844
1129 1 -0.0926841 -8.97891 -23.0998 5.45676 -3.18522 -5.02514
1911 1 21.2371 0.595851 -8.0968 0.0574947 -1.54262 2.94666
1915 1 19.2844 -21.6229 -13.5611 -6.2718 -8.62386 2.07859
1923 1 12.1026 0.473313 -11.4993 2.3889 2.3362 1.4408
3917 1 3.12635 -5.30126 -9.74049 -0.506155 1.21665 -0.14292
1926 1 13.9289 -2.43686 -6.3195 -3.73199 1.50022 0.737477
1934 1 1.83216 -10.1462 -3.33895 -2.96117 -0.101083 -2.26749
1946 1 10.5139 8.87056 -6.87384 -1.63525 3.60066 -1.1389
1948 1 12.8807 1.99429 -16.1879 3.33112 3.8178 5.23753
1952 1 6.98939 -13.9891 -14.2717 -0.137747 -4.80725 -3.23269
1953 1 15.4892 -18.743 -2.31951 -2.67606 -0.43107 0.328214
1875 1 22.1017 -5.01001 -14.035 -1.67839 6.73341 -0.529277
1961 1 15.517 -12.3425 -4.19055 0.380415 4.40818 0.761683
405 1 2.90637 -24.0306 -4.85261 -0.674768 -2.71108 6.76572
1647 1 16.1924 9.53535 -17.8449 -2.22347 -3.73355 1.26961
1975 1 10.7616 -16.5151 -17.6248 -1.09587 -3.69498 2.10137
3674 1 0.455548 -2.69105 -7.21084 -5.22015 -0.576096 -4.28022
1983 1 19.4028 -3.69412 -6.12388 -5.68232 2.263 -3.84861
81 1 1.21521 -9.12343 -16.0759 -1.682 2.1368 -2.74562
1990 1 19.6198 -13.8678 -5.35669 -0.348434 -5.20685 1.18477
2000 1 2.30257 4.76724 -22.0769 -1.69582 -0.946248 -2.49419
2003 1 12.8334 -4.41706 -9.54173 -2.21457 -5.01662 1.95839
2132 1 11.315 -20.6009 -23.4694 -0.474331 3.19882 1.57628
2006 1 11.6305 -9.47193 -8.29332 0.554251 -1.29254 -2.41255
2020 1 10.7818 -13.4463 -14.1543 -3.08089 -0.408197 3.81594
3798 1 6.16481 2.56603 -1.24043 3.08607 1.14484 -3.75038
2029 1 17.1086 -7.18973 -2.2285 6.3445 -6.46506 3.8772
2030 1 9.31603 -18.2542 -22.7789 3.06079 -0.169572 -2.82283
2190 1 0.709938 5.01576 -9.68337 2.86859 0.122951 -1.74408
2045 1 8.52337 -17.8742 -15.837 -0.634336 0.077243 1.05815
2325 1 13.7025 -24.1131 -17.1657 1.39167 -1.07342 -3.10382
2058 1 20.994 11.2 -15.189 3.37189 3.81097 0.0452481
3951 1 4.95054 3.304 -14.155 -1.80168 3.29096 -1.17925
2035 1 13.1432 -15.3557 -23.178 0.59932 0.61957 0.221336
557 1 9.33296 -23.0583 -10.0453 4.29561 -0.581275 1.13912
2079 1 9.86276 -12.5495 -17.5525 -2.26348 -3.3042 -3.37172
2083 1 19.615 9.37838 -9.11004 -2.17354 5.70076 1.1838
2102 1 6.91763 6.54662 -7.59669 -2.80864 -1.41915 1.40567
2103 1 9.59019 -17.3379 -13.0326 1.6361 5.6085 3.01242
2105 1 12.2654 8.36877 -12.849 1.29193 1.49623 -2.56704
2115 1 17.2327 -13.4915 -11.1373 -0.392608 3.46271 0.909822
2122 1 14.6078 7.67826 -9.01249 -0.526605 -2.08722 5.28773
2123 1 21.6511 -7.6768 -19.743 -3.86374 3.41952 -0.870785
2124 1 20.4557 -0.995203 -18.7756 4.28049 -1.07483 -1.70379
2126 1 11.477 -6.18164 -3.83322 0.404231 -4.01363 -9.14517
92 1 16.0543 -23.8473 -0.468118 -0.344343 0.435187 0.638043
2131 1 20.0032 -6.31432 -0.836455 -4.93787 2.82639 2.40183
3833 1 18.5999 0.801334 -10.8022 -2.86767 -5.40113 -0.550544
2143 1 18.9625 4.19511 -17.6632 3.61709 -1.05946 -7.23684
2149 1 21.0047 -2.85324 -3.80142 -0.0800287 2.46879 -3.7235
2151 1 8.22677 6.16999 -13.0065 -4.14167 -1.44337 -2.58055
3990 1 10.5589 3.54918 -22.9294 5.15644 -0.0828161 2.43718
2162 1 22.2358 9.30905 -4.82368 -0.297733 4.07786 3.2197
2164 1 17.0902 2.85605 -7.28711 -1.15139 -0.212574 3.30348
2169 1 10.0847 -7.15544 -22.4203 -2.86842 2.00405 -0.0101012
2173 1 19.7713 2.81011 -15.4686 5.35391 2.8584 1.30086
2174 1 2.18999 8.69836 -3.27719 0.817381 -4.4215 1.0744
2178 1 17.7135 -14.9492 -7.35004 -0.765043 1.57401 -0.0305544
2180 1 13.3554 -7.39928 -11.4411 3.46322 2.97268 2.89396
2186 1 4.39096 -8.22345 -18.2732 2.25988 2.06065 4.44223
2193 1 19.3481 -15.4362 -15.0338 0.863886 0.763175 1.07569
2201 1 13.2894 -11.3074 -20.6291 -3.04825 -2.1168 -0.703566
2202 1 17.5309 -19.1138 -17.4139 5.79925 -0.545165 1.80416
2203 1 6.76178 -1.33964 -1.19354 2.56764 -5.31165 0.56851
3666 1 1.35745 -16.9723 -23.852 -5.42017 1.09903 -2.78846
2210 1 20.0335 -18.1382 -0.28161 -3.99529 -4.2042 -1.87817
1962 1 0.990774 -12.5849 -5.33945 -0.206028 -0.674552 6.2457
2216 1 2.04282 3.05315 -14.5301 6.40002 5.59433 2.35143
2225 1 1.76629 -17.7284 -21.2665 4.62194 0.891888 -2.971
2227 1 7.99286 3.70484 -4.00227 3.78361 3.50398 1.38885
1126 1 0.969005 -11.694 -14.6595 0.26017 4.14128 -6.32188
1477 1 19.615 0.669984 -1.15954 -1.38567 0.312546 3.76932
2253 1 7.32403 -19.1179 -4.53378 0.704232 -2.23889 -1.91965
2255 1 3.23069 0.102293 -17.116 4.08866 -2.86705 -0.64638
2261 1 15.7939 -4.69371 -9.32728 -1.89162 -6.87728 -0.265214
2262 1 18.3235 -22.5759 -2.1455 -5.00459 -1.8029 -0.316236
2263 1 2.26067 -14.7406 -4.06886 1.72273 0.0347186 4.30756
2268 1 13.4898 0.320951 -5.86505 0.275397 -2.59014 5.00909
2269 1 17.9347 8.43591 -21.2246 -0.685659 2.29482 2.58831
3248 1 8.8632 1.42374 -2.09725 2.51628 -0.895607 3.69554
2280 1 11.8956 -10.7275 -2.13826 0.970892 1.77678 -2.25715
2288 1 23.4448 -9.39378 -7.24806 2.10323 -1.89419 -0.243537
2297 1 9.26898 5.83036 -21.2535 -0.318612 -0.372522 -4.8378
2299 1 9.68183 -11.7017 -3.97518 2.24027 5.08006 4.17609
2302 1 15.403 10.9538 -15.3469 -0.515389 5.59728 0.157889
2308 1 5.39719 2.93379 -18.6793 1.36084 -3.23473 2.45472
2318 1 22.2088 -6.33669 -4.14236 -0.900953 3.17596 -5.4417
2320 1 21.5213 3.55264 -19.129 -2.34857 2.78036 -3.04736
2323 1 6.2827 -2.5365 -4.0314 0.485531 1.54741 1.98053
2324 1 3.9844 -19.8383 -14.4411 1.57887 -3.82907 0.310728
3443 1 22.8648 3.79259 -0.914575 -0.944155 2.46601 3.47526
2326 1 20.7265 -11.2478 -13.4806 1.14725 -2.72843 -5.85895
2327 1 12.2311 -0.0120486 -18.0198 -1.51056 3.79155 -1.14324
2333 1 11.3058 -21.4324 -13.9526 -1.4379 4.03316 2.89218
2336 1 15.6085 -12.4776 -19.2499 -1.15643 0.735401 1.24344
1310 1 -0.10219 -19.1299 -2.95639 0.206699 -1.46883 -4.60057
2339 1 7.17801 10.4389 -4.40206 1.82797 -1.5691 -1.22193
2341 1 5.09888 -19.84 -19.9612 -1.94249 0.737141 0.294739
2350 1 10.156 7.63773 -11.0659 1.54505 1.59596 -4.9679
2919 1 23.5256 -14.6004 -4.23861 -0.773119 0.27306 5.4135
2354 1 17.5055 -18.5092 -21.6659 -3.9225 3.33396 1.83657
2356 1 13.9543 -23.9198 -10.663 2.385 0.541074 1.45043
2358 1 3.81923 -10.903 -12.6445 4.62818 -0.971066 0.830571
2363 1 16.8585 -10.7059 -0.589869 -3.75813 0.397227 6.03176
2365 1 22.871 -8.40852 -2.14608 -3.30257 -0.330059 -1.04977
2900 1 15.6892 3.7521 -23.5552 -0.174323 -5.41319 1.35674
2381 1 13.3059 -8.39618 -3.32758 -1.503 3.00521 -5.62404
3511 1 14.1054 10.9565 -1.92276 3.0359 -0.614573 -1.74362
3900 1 12.2982 -17.1501 -13.6227 3.26211 1.47507 -6.11065
2410 1 7.71749 -22.3776 -22.1038 -4.53455 5.56455 -3.12046
2414 1 14.2698 -7.59866 -6.26671 -3.36629 2.92542 4.3113
2418 1 12.9882 3.16088 -6.17999 1.16296 3.00573 -0.899072
3947 1 23.6972 11.1718 -23.4112 0.996391 2.53845 2.46742
2440 1 7.45004 -3.93996 -14.7305 -1.63909 -0.793775 2.22323
625 1 0.508954 -7.73322 -6.62197 0.28842 -3.33164 2.2561
2448 1 2.34153 -13.4169 -12.7692 0.143335 0.394739 5.40458
3112 1 0.16218 -12.6524 -20.1462 -4.84733 -3.20667 -2.49352
2466 1 2.35593 4.00387 -4.69868 1.90228 0.202654 -5.25541
3967 1 2.73414 -6.01224 -5.35202 -3.11271 2.63599 3.97855
2470 1 13.1513 -21.4216 -9.28922 1.97971 1.00015 -1.21027
898 1 17.0069 0.461957 -23.6561 -6.04781 0.536046 -5.4406
2477 1 10.1299 9.24432 -1.30951 -3.59126 -0.624013 -2.26237
2482 1 9.61437 -4.79209 -1.77389 -2.65482 -1.03735 2.50231
2484 1 2.5989 -16.0283 -10.0722 0.55586 -0.366278 -1.77286
2491 1 11.6115 -23.5548 -3.81632 -1.24344 -0.607728 -3.93733
2495 1 14.7528 -14.5029 -7.58517 4.41877 1.3816 -5.69238
1376 1 6.8014 10.9595 -7.07821 2.77956 -0.375703 -3.48685
2507 1 9.73622 -1.25842 -17.0622 0.995099 -0.890292 5.337
1894 1 0.458535 -17.0234 -5.01772 -0.797965 1.29041 -1.70948
2530 1 5.45399 -12.1535 -16.0541 3.25801 5.87676 4.19082
3997 1 20.1197 -21.9779 -9.493 -2.36369 -0.647726 0.140685
2548 1 17.025 -7.00347 -7.3515 -5.74829 -1.41182 -1.19933
2557 1 16.8937 -21.8664 -14.8258 2.84645 -0.394571 -3.89213
2563 1 20.1793 -3.14289 -22.4119 0.857801 2.40676 2.99059
2568 1 18.873 -9.09502 -19.4754 4.48752 -3.19993 -1.53765
2420 1 0.655547 -7.11212 -9.54148 2.98649 3.52364 -1.50617
2573 1 18.2549 -22.0423 -5.23273 -1.41529 -1.47233 -1.03768
2588 1 15.5271 1.37553 -17.3909 1.04587 0.908622 4.95479
2590 1 13.1508 2.57871 -8.94757 1.46732 -2.28288 -4.83395
2598 1 19.6351 -0.438218 -3.91482 4.2261 1.47998 1.75017
398 1 23.3183 -22.4215 -6.89098 -1.90854 5.03695 3.99986
3369 1 -0.204802 -0.576728 -9.74708 -5.4454 0.709528 3.57725
2608 1 12.9243 -19.519 -21.5094 -3.72129 -1.99289 1.07513
2610 1 0.898302 5.24169 -17.7564 1.05989 0.605197 -0.662736
3960 1 19.7354 -12.4696 -11.0483 0.260965 -1.36064 4.05338
2628 1 12.703 -7.73549 -22.937 -1.6501 -1.53698 -4.37647
2632 1 17.6635 -1.28795 -19.0424 -0.427886 1.24852 -1.64367
2637 1 12.3627 -13.7201 -16.5409 -2.41399 1.44188 -4.00283
2638 1 13.5363 6.87275 -6.31977 1.92331 -1.45321 -0.208837
3333 1 5.38156 -6.17305 -24.1153 0.0211035 2.40694 -2.82876
2644 1 19.654 -19.7179 -11.1307 1.28012 -3.81784 -2.39118
2654 1 20.3105 -9.21313 -0.984908 -1.37783 -3.49837 -7.00132
2338 1 0.0722881 -3.17458 -19.4127 2.34836 -2.10276 0.603887
2675 1 17.8385 4.51595 -9.42021 1.39829 4.84556 -1.25121
2678 1 2.26737 -21.3687 -13.0837 -0.28388 -1.14909 2.14816
2680 1 8.97086 -3.51252 -7.58995 -3.31466 -1.26175 -3.97546
2686 1 4.78518 -22.8697 -16.5827 3.19837 0.75686 -2.32192
2687 1 20.4453 -15.8146 -12.2872 2.69197 -4.49936 -2.71107
2692 1 4.55091 2.92026 -11.2103 7.40722 -2.28144 -1.1004
2697 1 5.02689 1.88458 -4.07193 -0.701885 1.99432 2.29037
2703 1 16.0317 -6.46023 -11.6024 6.28805 -1.97355 -0.341848
3879 1 18.5516 -14.9445 -23.9336 -3.40992 -0.445393 -2.44051
2039 1 10.3462 -23.132 -21.816 2.16792 -0.378328 -0.944059
2743 1 1.73443 -17.4843 -7.8869 2.91143 -4.62944 -2.13657
2746 1 6.65276 -11.4067 -4.19886 7.83381 3.58753 -3.36949
2765 1 6.74232 -17.9396 -18.2919 0.242195 0.936485 -0.322696
2774 1 21.5695 1.42781 -17.3899 -4.01368 -0.532124 1.08404
2776 1 11.8719 6.97574 -8.72769 1.31872 -0.00664873 0.834354
2783 1 13.453 -10.8045 -15.0226 -4.74762 -1.0438 -0.740168
2785 1 19.9423 -2.11679 -16.1197 2.76293 3.86301 1.13292
2789 1 9.81648 -6.14751 -6.04467 2.03784 -6.36979 -1.09943
3264 1 9.63851 8.06547 -23.0417 -1.16824 0.999983 3.5189
2803 1 21.6632 -4.4113 -16.8708 5.00055 -0.253728 0.961562
2518 1 -0.589055 -2.52522 -2.90371 -6.66053 -1.04646 -1.15544
1309 1 0.250561 -12.7515 -10.7062 0.842448 0.207564 3.78383
3835 1 20.5467 -24.2371 -3.25739 4.75675 -0.0187929 1.6741
2817 1 5.61245 -15.3168 -22.0319 -1.61125 4.59434 -4.20224
2821 1 16.6719 -9.04214 -12.865 -1.56113 0.137163 -0.611343
2826 1 8.42363 -18.9552 -1.98991 2.85309 1.07314 0.0506637
2828 1 2.19464 -2.67821 -17.423 4.14086 -1.80626 -6.83321
2831 1 15.0015 7.74219 -12.0398 1.33567 -3.75921 -2.87499
124 1 22.9102 -19.86 -15.169 1.43385 -4.24242 -1.30702
2841 1 17.1733 -17.2061 -4.14629 6.42277 -0.673332 0.651365
2843 1 14.3004 3.32559 -20.9412 0.25211 -2.05107 -3.69562
2845 1 18.5491 3.95196 -23.4385 -1.3683 7.21554 0.622997
2850 1 2.33064 6.61913 -7.90542 1.10138 -3.45108 0.115103
3295 1 3.5375 -20.7275 -1.34884 5.3544 -1.97603 -1.47093
2854 1 6.7687 -6.91795 -8.60401 0.95073 -5.24512 1.11864
2065 1 14.9353 -18.7031 -23.3729 -2.25497 -0.145313 0.266706
2858 1 10.1851 -2.50876 -23.345 4.42247 2.86497 1.87072
2862 1 13.2282 -2.25562 -16.0686 0.757924 -3.66173 3.46933
2863 1 21.2495 -17.3127 -16.1912 -2.2752 3.27775 1.20012
1227 1 1.67976 -7.9527 -1.37261 -1.69052 0.442168 0.965378
2875 1 22.1566 -4.81601 -7.79772 1.99624 1.34231 -4.58089
2876 1 20.8609 -22.9282 -22.4808 1.49438 -1.85139 3.19633
3813 1 16.4306 3.54143 -0.768406 0.924154 3.9441 -4.70628
2911 1 0.202083 3.50822 -20.2659 0.633329 0.182955 -3.34341
2912 1 9.51603 -15.8664 -7.75338 2.74653 1.12343 -3.37912
2913 1 16.3359 6.75484 -3.63849 -0.154483 0.0912581 -3.34674
2918 1 21.1042 6.79686 -5.80894 2.81947 -0.455839 -2.47961
3139 1 4.87826 10.2244 -13.0117 0.273059 -5.45766 -1.17454
2999 1 11.1722 -19.0534 -1.15432 1.06085 1.96517 0.543031
2934 1 7.65623 3.48193 -22.3794 2.88437 -1.63732 1.09094
483 1 5.42761 -17.3929 -0.53739 0.579074 -2.05247 -3.43717
2947 1 17.0652 -13.8361 -21.5752 2.42965 3.09249 -0.558172
2951 1 10.5798 -18.5226 -10.5246 0.887721 1.66177 -0.892392
2958 1 10.1533 -5.93188 -13.4166 0.0385146 4.58797 3.32302
3260 1 16.7188 -24.1356 -6.77578 -2.51831 1.49416 0.176224
2965 1 18.2336 -1.14567 -13.027 0.251828 0.761893 -0.513263
2970 1 18.6097 -12.702 -14.772 3.08013 3.74619 -0.545343
1693 1 20.6772 8.25445 -22.6995 -1.38324 2.65795 7.02583
2977 1 3.95279 -10.2287 -5.30863 -2.21046 -2.44494 -1.36026
2988 1 0.934365 -21.5643 -4.35146 -0.680618 -5.03024 0.450904
1754 1 23.0199 9.31296 -19.268 1.29831 3.32185 -0.0833435
3005 1 4.50715 5.70135 -5.87986 0.788811 5.95655 4.87157
3006 1 22.5697 6.72007 -20.729 0.747641 2.60819 0.876352
3012 1 1.09151 -23.7431 -17.8777 1.80222 2.82353 -1.04929
3016 1 19.3637 -13.0324 -19.9321 -1.27334 0.761116 -0.921476
3032 1 19.3849 -8.55352 -3.66606 1.1998 2.29647 3.42642
3043 1 7.51344 -10.627 -17.3738 -1.6506 -4.64166 -3.30575
3046 1 17.0687 -8.95385 -16.9952 -0.632187 4.61433 -1.54525
2364 1 1.76782 -2.36426 -1.29691 -0.771011 -0.688575 -3.99811
3065 1 6.84764 -10.8398 -11.6484 -2.11914 -4.59027 0.186132
3069 1 7.82068 -8.05876 -6.50189 1.48283 -0.399284 2.15735
3335 1 22.598 0.330077 -3.91571 2.86786 -2.75431 0.407195
3079 1 13.5774 -4.38438 -4.33851 6.75604 0.866841 -1.27868
3083 1 7.70427 -14.6397 -9.52874 0.344787 -0.8677 -0.168964
3090 1 16.7592 -3.33787 -6.96111 1.8035 -1.8469 -0.838269
905 1 22.2443 -7.16705 -22.4714 6.89827 2.48578 -1.28186
3100 1 16.1519 -10.0208 -21.1225 1.76289 9.6258 -2.33686
3106 1 1.72496 -10.2839 -7.07091 0.28147 -3.50662 2.54907
3108 1 7.3854 -16.9768 -6.31902 -0.0706107 1.52266 -1.53757
3111 1 8.18265 -19.7194 -20.4118 -0.852605 2.79231 5.61265
3935 1 8.27092 -13.2033 -20.0033 1.0123 -1.32726 0.46132
3113 1 11.1641 -10.3886 -16.8351 5.69115 -5.67079 -5.41397
3114 1 4.42764 6.92565 -16.6841 3.44773 -2.28079 0.55443
3117 1 15.8425 -9.744 -3.00192 0.678859 -1.46874 1.9944
3126 1 1.61047 9.51911 -8.56062 1.75271 -0.94873 -1.83158
3128 1 1.14321 10.316 -15.1119 0.536663 1.68312 1.08396
3134 1 19.0007 6.56691 -2.36045 5.63564 0.0830172 1.40295
3137 1 5.88405 -3.71606 -17.1694 0.893832 0.0137404 -4.38439
3975 1 4.28306 0.541906 -19.6348 0.726507 1.05127 -2.93507
2271 1 22.4781 -17.5955 -8.39582 1.51952 -1.02814 -0.802015
3141 1 11.5106 -2.49253 -7.90843 -0.23627 0.730121 -4.67
3149 1 10.5406 8.8562 -18.758 -2.43151 2.24604 0.121107
1410 1 0.252308 -17.31 -16.3612 2.01593 -3.20034 3.85479
3158 1 19.0523 -20.0704 -7.39576 -3.62502 1.65258 3.77771
3159 1 19.7087 4.16935 -6.03236 5.80763 3.9071 -0.113627
3167 1 19.6194 -15.6998 -18.9702 -1.38643 2.3172 3.10766
3169 1 12.4242 -22.182 -18.5337 -5.64372 -4.23271 3.41851
3175 1 19.1655 3.77024 -1.67792 -5.26535 0.574536 -0.914678
199 1 23.3254 -4.76743 -10.3201 -4.1903 2.42283 3.04384
3191 1 8.28603 -5.06932 -10.1653 3.37829 -5.89522 -1.43286
3870 1 14.9492 -19.5442 -10.3472 -0.916125 -4.81593 -7.456
3198 1 8.01144 2.2743 -17.9858 4.75391 2.41885 5.09992
3685 1 6.97702 -4.28911 -1.0873 -2.3123 -1.5641 4.65461
3234 1 13.2145 -6.07202 -13.9202 -4.51126 -0.446346 0.031801
3242 1 21.9062 -9.9113 -16.0348 -1.55879 1.47029 1.94554
3250 1 15.2573 4.87984 -17.0534 2.8657 -2.08717 2.35741
3254 1 20.5766 4.44416 -8.95402 0.166378 -6.09811 0.573394
3954 1 3.78521 4.30683 -16.6527 4.78316 9.4347 -4.82931
3265 1 8.67562 -3.85236 -18.2486 3.60518 3.74442 1.27452
3278 1 0.488977 -5.29673 -22.6112 0.722767 0.685052 -4.37794
3282 1 3.72646 0.624756 -14.126 2.80381 -2.07771 -6.42485
2434 1 0.853049 -23.3409 -2.20426 -0.210385 3.15106 -0.996118
3298 1 8.11162 -8.52681 -15.6105 0.254324 3.58172 1.45881
408 1 -0.175289 -1.37622 -15.592 -1.46779 0.523942 0.457377
3949 1 2.8276 -13.6286 -15.8022 -5.24807 4.66751 0.727792
3305 1 3.51884 8.70935 -5.68932 1.48625 -3.54294 0.177242
3311 1 9.19278 4.70858 -10.6825 -4.65683 -2.51838 2.33683
3315 1 21.3485 -10.7989 -19.6241 3.58099 -0.0622838 4.5359
3316 1 4.70551 -5.55884 -7.43416 0.940575 -2.36234 -3.77111
850 1 17.0376 -20.5818 -23.5776 -3.4893 0.461891 0.592062
3320 1 4.82743 6.31142 -9.71525 -3.52735 -0.539314 -0.481489
3887 1 4.00709 -10.2172 -20.1045 7.63591 -0.812648 -0.767268
3324 1 13.1925 -17.2915 -10.7765 -1.96431 2.19454 2.97728
3327 1 7.50677 -22.4877 -6.81805 -2.41243 -0.652026 -2.48352
3328 1 0.748405 -16.1086 -12.7955 -3.33398 -2.28437 -2.53273
3329 1 14.2052 7.48207 -16.6778 -1.73141 1.18474 1.09302
2641 1 21.5845 6.82944 -14.1279 1.22951 0.00283321 6.02627
3340 1 17.1876 0.791925 -20.7955 -1.31392 -0.12083 0.830645
3363 1 15.2726 -4.02456 -14.7554 -1.18073 -0.589636 -4.51328
3367 1 0.915918 -20.8286 -18.0806 -2.83638 -0.242744 -3.24218
3372 1 7.57448 -1.20952 -8.49909 -3.94224 4.1288 0.0778196
3374 1 21.5548 -14.0304 -21.9161 -0.0235346 3.42084 -2.92672
3384 1 16.2296 -19.1135 -14.8065 -4.58144 -0.939825 -0.663006
3386 1 10.7402 -11.0445 -22.3112 -5.81236 4.41785 -1.16002
3400 1 16.0798 -23.2567 -23.0346 -0.653324 3.38528 -4.14961
3402 1 10.8147 -17.5766 -20.2785 -0.661012 -0.0946712 0.801264
3407 1 10.2863 -1.59999 -12.7751 -3.28002 -0.836622 1.67797
3412 1 8.05084 -2.11763 -11.0839 2.33245 -3.73713 -0.845028
3416 1 20.4771 -20.0913 -4.8604 -1.28247 -1.26841 -0.0838714
3422 1 6.70149 -13.8652 -2.36627 4.70889 -3.54501 0.434112
3441 1 5.69405 -14.8999 -7.35478 -4.42723 -0.559782 -5.83193
3451 1 4.64012 -13.0523 -18.7919 -0.0167884 -4.91337 4.22529
995 1 9.67094 3.84945 -0.227845 1.13822 -0.0675484 0.732499
3458 1 13.127 5.21852 -22.8554 -1.39839 -4.89292 -2.0837
3463 1 21.192 5.3063 -22.9386 7.83356 1.95923 -0.705597
2713 1 22.9234 2.9106 -8.09769 -0.332693 -0.51275 0.966339
3485 1 0.906947 6.07436 -3.03135 -1.9854 3.12202 0.392238
3487 1 12.2123 -9.86033 -12.5143 3.96646 2.06023 5.97704
3489 1 19.1098 0.970514 -6.31528 -1.93874 1.04741 -3.83846
3868 1 4.65494 8.78595 -1.54901 1.38195 -1.3758 -0.121808
3507 1 8.04999 8.8877 -8.43272 2.99934 -1.11716 -0.68503
3860 1 13.355 -16.3741 -16.1642 1.45749 2.75301 0.704987
3535 1 10.1612 -19.4293 -17.9735 -0.197027 0.440168 0.716475
3541 1 11.8359 -0.590316 -22.0647 2.22366 0.176941 -0.438532
3547 1 9.17643 -18.9852 -8.18612 0.783944 -0.628679 -0.613392
3548 1 6.8352 -10.8628 -20.3564 -0.623703 -1.15294 -2.50567
3551 1 11.5385 2.08527 -20.8592 1.53908 -2.23938 2.35001
3557 1 8.17536 6.92386 -18.776 -4.21611 -4.24329 2.60019
3563 1 2.20024 -23.2881 -7.77498 2.00015 2.50583 -2.25396
3992 1 21.5174 9.6141 -1.6811 -3.37719 -0.320578 -0.187069
3565 1 15.8849 -17.2362 -6.91245 2.47054 -0.233628 -0.504374
3573 1 19.1238 -2.24294 -1.39562 -4.237 0.416655 -5.19
3586 1 15.3155 0.757658 -8.11489 4.96882 1.14095 1.34176
3914 1 12.1165 -10.3234 -5.64242 -2.77895 0.401085 0.511969
3590 1 10.8286 2.58433 -4.23999 2.37937 0.91745 -0.240931
3593 1 14.895 -8.34436 -15.2724 -2.79325 -2.10314 -5.23091
3606 1 1.82838 9.43384 -12.5197 -3.30596 -0.232836 -7.1104
681 1 -0.331757 0.649074 -5.6015 -0.879025 2.30429 -4.2337
3617 1 14.0445 0.343748 -20.4996 6.06188 0.266846 -2.38933
2799 1 -0.260676 -15.3341 -7.26067 0.0372884 -1.94386 -3.36323
3630 1 6.1679 -9.54052 -2.23205 -1.05326 0.115488 -0.0491165
3633 1 9.60661 8.95135 -4.14028 1.51627 0.662828 -1.94269
2797 1 16.0171 -11.9178 -23.6038 -0.552698 0.767088 -2.75233
3636 1 6.22341 -16.6766 -14.2066 -3.71921 -2.19619 2.17566
3640 1 17.324 -17.9015 -11.0112 -3.14285 5.31777 -0.535632
3646 1 16.6239 3.19129 -19.2921 -1.43946 0.374474 0.181
1549 1 1.17574 -3.9068 -14.9823 -1.34445 4.19116 -5.9096
3650 1 8.07076 -6.53133 -17.5882 -2.73401 5.18021 2.74814
3659 1 19.8805 5.82772 -19.8186 0.875521 -3.9463 -0.509837
2874 1 0.909057 -10.1093 -12.0376 -2.08791 -2.19323 -4.38218
3884 1 12.1061 -19.4343 -7.36727 2.03818 0.354674 -1.56615
3665 1 10.5669 -7.98062 -18.4484 1.44606 -0.632429 -5.40113
3957 1 17.9799 -22.6408 -19.0704 2.97324 2.4794 -0.723731
3670 1 14.8449 4.79059 -9.99194 -0.891148 -3.59459 2.77011
3679 1 9.58999 -20.643 -5.55418 1.36488 -0.418529 0.0130239
3982 1 8.81842 -3.78324 -4.7347 0.418592 -0.700727 -1.87555
3692 1 8.43449 1.52211 -20.5585 -1.66821 3.12937 3.167
3696 1 7.6059 0.214579 -16.1461 1.8452 -0.00298305 0.454924
3707 1 18.9371 5.15386 -14.1533 -3.16554 0.188376 -2.77365
1852 1 0.0124886 0.610752 -20.6453 0.191816 0.196854 -2.70778
3723 1 9.05817 4.72111 -16.863 -1.7688 0.60479 -1.91576
3727 1 4.22093 -10.8529 -22.9602 -0.237957 -1.48168 0.479992
3731 1 4.54416 -17.9514 -21.9403 -2.7809 0.20663 2.04259
3733 1 4.32908 -14.6182 -0.846309 2.13827 2.29597 -1.60491
3740 1 6.25606 0.0114889 -21.3192 3.86998 -0.539508 5.76004
3746 1 5.61564 -21.4514 -4.85555 2.15128 -4.94325 -1.01202
1295 1 15.2421 8.33782 -1.29535 -3.56362 1.69797 3.1467
3755 1 17.627 7.37311 -8.56376 -0.552415 4.86392 -5.27237
3758 1 21.2641 -7.18366 -17.0136 -2.09484 -1.24495 1.79387
3761 1 19.3886 -10.8446 -17.0261 -5.39257 -1.41696 2.83959
3772 1 14.5359 -14.3783 -2.13139 0.296359 0.510736 -0.408668
3775 1 3.94685 -1.35173 -8.723 2.92964 2.69185 -3.59934
3777 1 14.4795 -6.99842 -1.08869 1.70872 1.75663 3.33915
3782 1 2.01578 -14.322 -18.6149 -3.29974 -2.09848 -7.26161
3790 1 5.07586 -17.453 -3.2906 -5.47448 2.46642 -1.41207
3916 1 21.0818 -11.2535 -22.5753 7.75682 -2.96315 0.076925
3800 1 15.0659 -0.204841 -3.51947 2.8369 0.923715 -2.16674
3856 1 12.8689 -18.6983 -3.49017 -2.9704 0.0703821 -2.75928
353 1 16.3748 -23.4908 -16.8268 -4.43504 -3.14218 -1.56458
3808 1 9.26233 -13.4331 -22.7151 0.92918 -2.26467 -1.07525
2536 1 23.4335 -18.5597 -24.0482 0.028076 -2.83105 -0.975357
677 1 23.2377 -9.55522 -13.2654 1.66773 -7.12791 2.43147
1171 1 22.714 -1.91603 -6.94607 -0.119801 0.516854 1.9496
2342 1 8.84942 -13.3143 -0.168144 0.602696 5.60931 -1.91614
1425 1 0.161557 7.76456 -10.6007 -2.01328 -3.67259 -2.95908
923 1 5.27582 -11.8136 -0.693587 0.894308 -0.671041 -0.621059
2028 1 0.410156 0.429255 -17.7667 2.01615 -3.64359 5.64994
460 1 5.32083 8.18285 -23.2615 3.68024 -3.76696 -2.02059
1558 1 7.85491 -16.0952 -0.744216 -2.85812 -0.97141 -2.15019
2852 1 2.05476 -5.15456 -0.231876 -1.02523 0.223928 -1.80721
2496 1 3.40825 2.79499 -24.3025 -2.34041 1.05251 -8.66831
2204 1 4.51483 0.0786488 -0.0264367 6.47481 -3.84322 -0.619359
471 1 23.5239 -8.96803 -10.3018 1.31746 3.25911 -5.06228
3319 1 -0.189625 2.82914 -16.4396 -2.79044 -0.68618 -1.95773
2127 1 23.4937 -9.72909 -22.3808 0.881906 3.4198 -1.63358
2856 1 15.4879 -16.3472 -0.460742 -1.3748 0.390273 3.43029
3375 1 21.2544 -11.8239 -0.177197 1.95577 -1.82445 1.89456
352 1 14.4532 0.731022 0.0504062 -0.421177 -3.57289 3.4998
1772 1 11.9703 -21.5774 -0.177942 2.17608 -4.27665 1.29113
2659 1 17.0838 -4.99996 -24.114 -1.23328 -2.18368 -0.821488
1185 1 13.1832 5.20818 22.2131 -1.02574 -1.15522 1.57383
1149 1 -0.257558 -14.4646 9.69068 -0.82148 -0.224766 -5.79371
3199 1 13.6475 -24.3328 9.2462 6.76026 -0.996034 0.040408
11 1 7.14347 -12.2926 16.1357 1.87946 1.08902 0.541876
17 1 16.6011 -8.55251 16.9232 1.5893 -0.413257 -3.33242
20 1 21.7174 3.20687 21.5535 1.5334 -0.78712 -5.87951
35 1 19.6396 2.59744 11.5548 -2.54928 2.53322 0.791335
10 1 1.02479 -7.58457 15.1193 -0.0732684 -0.574368 -2.76936
50 1 16.0751 -19.0145 13.5546 -6.83395 2.82307 -2.51147
65 1 18.75 -0.736206 6.97117 2.69237 6.07172 1.62907
82 1 7.00911 -23.8378 4.41168 7.51165 -1.13356 -1.47248
86 1 14.1413 6.15565 18.4161 0.21188 0.633771 0.34386
90 1 9.08865 -4.987 7.63568 -1.95776 -0.908356 2.04241
102 1 4.62205 3.52659 5.08692 -2.20714 -2.1151 -2.95499
106 1 14.6433 3.88729 7.50459 1.81158 -0.828632 0.00380514
107 1 19.6069 -3.80936 18.9718 0.137974 4.59807 -1.38545
2868 1 1.902 -21.8051 23.0488 1.86737 0.509997 4.7748
120 1 2.90769 -2.22117 17.9122 1.7452 -1.42178 3.84811
1213 1 23.7137 -13.4936 21.6522 0.17152 -3.60361 -2.46354
127 1 10.4252 1.98673 10.953 -0.267536 4.30139 -3.4892
129 1 16.043 -11.4952 4.2582 -0.52609 -3.37963 -0.373483
140 1 3.28956 -4.7054 21.2361 0.150887 -0.744144 -3.94476
141 1 10.0545 -16.4495 3.64836 -2.76215 -3.71591 -0.744215
142 1 13.252 1.19635 20.9357 -4.11447 4.20084 0.330967
145 1 16.7814 6.88381 18.8376 -1.84652 -3.61942 -3.2563
150 1 21.8979 10.1442 18.2879 1.4206 -0.816176 2.89865
151 1 20.7189 0.222336 21.9771 0.438878 0.844301 -1.70502
156 1 13.715 9.11582 19.558 -1.46154 -1.39504 0.669621
158 1 9.15209 7.39223 0.823055 2.12624 -5.20182 1.66496
163 1 2.3196 -1.01374 15.3599 -2.27553 -1.55371 5.05603
164 1 19.9004 8.86731 10.5858 -1.88997 4.34906 2.13884
193 1 7.61937 0.153217 4.06233 6.22495 0.401722 -5.44458
205 1 20.0305 -6.93305 10.1788 -2.91148 2.70131 1.2131
208 1 2.1302 -5.64665 17.2068 -1.44 2.06971 -5.75193
211 1 14.9472 1.16539 6.35752 -0.185057 1.39824 5.82291
236 1 16.7496 -9.14108 7.79516 -1.78607 -3.8873 -1.56969
2884 1 9.75598 -8.21327 21.9924 -1.28143 -1.99599 1.68578
240 1 8.50887 2.47363 14.4338 -3.08791 -2.83517 -2.49277
246 1 8.90362 2.7046 20.7874 -2.1201 -2.38307 1.99631
2967 1 0.463436 11.1614 9.67423 0.997718 -0.200113 0.553018
1332 1 13.4798 -24.3724 22.743 -0.213257 -0.860343 -0.35709
272 1 13.8838 -17.8071 11.8748 4.89338 -0.586897 -2.73287
274 1 12.2417 -12.4021 9.35499 1.2939 0.177898 1.2459
278 1 19.6634 9.22801 16.7056 -3.43029 0.417763 -2.08919
3263 1 23.3022 2.82996 19.2359 -1.18731 -1.05479 -2.74724
292 1 14.9772 9.73341 3.64455 6.10553 3.00344 0.618122
293 1 16.2911 2.14495 13.9571 0.745897 -0.215407 -3.78988
1105 1 20.6135 2.76726 0.608059 -4.36667 -1.51348 -3.71605
300 1 16.1237 -2.42261 15.4617 0.643227 1.8733 -2.83826
305 1 2.69627 -19.4284 20.3496 2.36636 -0.959446 2.80206
309 1 6.18498 -18.378 18.144 -0.887138 0.553284 -2.11603
311 1 13.38 -9.81635 1.72855 0.780856 -2.6907 1.56419
1076 1 23.4903 4.68099 23.2765 0.118007 3.29096 3.87664
318 1 21.0645 -18.8694 18.762 0.00815943 3.03477 -3.52476
3342 1 1.89934 3.45628 2.58772 -2.06218 1.11144 -1.72989
331 1 11.4485 7.16647 2.62337 -4.62099 -1.62441 -0.666519
335 1 22.4861 -22.3599 5.24903 4.22687 5.67333 -0.769113
338 1 5.27953 -7.46506 17.5551 -5.62056 6.29717 4.06702
346 1 16.22 3.0697 3.87428 2.74824 -7.16708 -0.199891
347 1 22.1358 -6.47549 8.27444 1.87606 -1.54283 -1.68848
1936 1 19.901 -21.2247 23.7307 -0.297037 5.71194 2.48774
358 1 20.1631 -13.1665 13.1163 0.515041 -6.47566 2.98535
368 1 3.86419 -6.92292 10.3195 -2.74829 -1.53159 0.498126
377 1 16.6611 0.802763 11.373 -2.6838 -5.82429 -5.36043
1151 1 23.381 -24.1733 21.4492 0.0829082 -0.358693 -4.46553
387 1 5.77754 -20.0333 2.4933 -2.74228 -0.541656 3.55869
390 1 11.1051 8.08479 7.72286 -0.253989 -2.35095 -3.54494
391 1 18.4681 2.00755 18.4714 -4.61517 -3.91204 -4.65707
392 1 19.9689 -10.0456 17.8464 -4.18338 -6.02137 2.36066
3584 1 5.99425 3.75502 23.5482 2.67334 0.805117 3.44427
397 1 0.104868 -20.0933 18.9545 0.697007 1.26102 0.681291
3314 1 0.300333 -3.80881 10.0802 -0.570252 0.364369 -0.892631
407 1 5.7207 -9.90268 16.2044 -1.16986 -2.52101 -0.969143
2953 1 17.2546 0.845042 0.632638 -1.95323 -1.01892 -6.18326
432 1 7.12684 -3.8322 11.1833 -4.31228 -4.76592 4.18813
442 1 5.30562 3.94206 15.6754 -3.25955 1.61128 2.38048
450 1 13.3565 -19.6965 7.6593 0.654034 0.088804 -0.984952
455 1 13.4901 -14.5502 14.3176 0.338582 -0.294895 1.32344
827 1 0.0682703 0.567845 3.49777 6.16157 2.42425 -0.723092
482 1 23.6804 -2.72928 19.2003 2.88702 0.765047 -7.38397
479 1 17.5424 -17.0459 15.0798 1.06084 6.17105 4.54013
480 1 0.754352 -10.0866 10.4564 -1.25885 1.72044 0.857724
1722 1 19.4125 -24.2181 18.5233 -2.62527 1.00136 -0.776819
494 1 7.38612 3.2015 4.46694 0.328414 3.75898 -1.7718
502 1 14.7908 -14.0917 18.5875 -0.457545 1.37461 0.416204
510 1 7.7434 -15.8706 14.5703 2.84993 3.29659 -0.868129
511 1 7.9286 -13.37 4.2417 -4.86835 -2.75336 -2.10965
512 1 1.20805 -3.99698 19.3311 0.161556 1.52291 2.27641
1394 1 2.3984 6.74894 1.25391 0.473957 1.46764 4.04762
522 1 4.21658 -17.9367 8.83209 -1.44773 4.54746 4.04017
2908 1 2.21559 11.3214 16.2804 -0.95681 1.19263 -2.99033
1103 1 23.4712 8.47261 15.26 -1.41374 2.34557 2.28622
365 1 0.698863 -16.1539 18.1895 0.191963 -2.69566 2.38126
537 1 10.1028 -4.94404 2.82046 -4.16163 -3.3008 1.60772
2861 1 12.8704 10.1002 22.0978 1.23353 3.72124 -4.77983
548 1 10.631 2.86856 16.6923 0.0981718 1.97151 1.13486
561 1 6.66717 -20.8195 19.5704 0.277998 3.70927 -3.58944
563 1 5.81464 -21.824 9.01816 -4.49549 1.19734 -1.7773
565 1 14.8877 -21.5786 22.3872 5.13473 -5.14609 -2.40177
568 1 7.18065 -7.28917 7.9659 -0.900549 -2.85456 2.75698
3054 1 20.4765 -2.34551 22.9665 1.87815 -1.70616 2.3701
572 1 11.5523 -23.9794 4.52613 -2.65507 -0.479763 -0.653692
573 1 18.7121 -6.23244 5.54405 5.21567 4.58173 -2.04897
576 1 21.2248 1.46898 17.2632 3.04935 -1.7345 0.232137
591 1 20.9602 -19.7255 12.6304 -3.99277 0.936693 2.13256
598 1 15.6987 -14.1958 4.76104 2.5611 -0.326995 0.440758
599 1 9.65773 -14.1989 16.0759 -1.9027 -2.53682 2.56879
2968 1 0.202947 -13.207 1.1401 -4.24772 1.95276 -0.058501
609 1 10.6168 -20.7044 21.8055 -2.40412 -0.0135861 -2.322
610 1 19.1305 -6.10917 14.5806 0.00531975 3.25736 -3.54685
615 1 10.664 0.050828 16.6289 1.90505 6.89955 -3.87406
616 1 14.3955 -3.81724 20.2973 -0.392772 -1.32182 -0.249596
618 1 13.2491 6.37709 8.70113 -3.92509 2.33834 -1.6147
619 1 16.0737 3.49093 10.2049 -3.38593 -0.896872 4.26744
623 1 22.4769 -14.0734 5.03684 -2.77899 -0.474783 -3.69005
640 1 2.79628 1.31589 4.44186 -4.12427 3.99569 -3.21254
643 1 10.481 -19.3904 8.76308 0.152109 0.0308388 -1.70704
649 1 12.221 -15.9313 20.6808 -3.40475 -1.49018 0.0592769
659 1 8.5032 -1.25334 18.5388 0.0236365 3.1312 -3.25737
660 1 8.70153 4.94033 8.06744 -3.84859 0.232409 3.89019
662 1 2.91591 -6.7525 7.7086 -2.03657 -0.144148 7.02377
669 1 8.55328 -16.0519 11.7693 1.2593 2.08445 -2.10397
676 1 7.8305 3.6339 17.1569 2.23602 -4.30493 2.6068
685 1 21.5208 0.239276 8.2386 2.27871 -2.02668 1.01721
2110 1 1.8986 10.5461 0.810646 1.40065 -3.17071 -4.28931
694 1 7.56679 -16.4019 2.14902 -4.30211 -1.69667 0.946418
701 1 16.9132 1.21844 8.28828 -0.49178 -3.4231 -0.32184
706 1 4.70079 1.67741 19.4106 -2.60195 3.20957 2.93624
712 1 4.9718 -10.0624 13.3663 -1.37748 -0.665442 3.07717
713 1 2.80715 5.82089 3.96601 1.41593 -0.741729 -1.48489
719 1 15.6339 -6.34328 10.3248 -2.59389 5.01031 0.430525
735 1 15.3158 9.21696 6.7056 0.162021 -4.15004 -1.0402
737 1 20.4166 -16.2869 5.37155 2.49907 3.78543 -3.11949
747 1 11.1422 -10.9917 3.09641 1.56282 -4.10144 0.806547
752 1 21.7938 -18.6323 5.3973 -6.42244 -0.642862 -2.72412
760 1 1.17974 4.7444 13.2753 0.97467 -2.99558 -0.807029
763 1 18.4271 6.10556 8.78403 0.178872 4.40074 2.422
764 1 21.2396 4.67234 7.35545 6.12433 -1.88287 -5.62425
1188 1 3.4705 2.7173 0.370233 -0.462358 1.16955 3.81138
771 1 10.5918 -14.1237 11.1205 3.10827 -0.494377 -5.61388
772 1 4.89788 7.56183 6.81982 -1.97705 1.59129 -1.60097
773 1 10.9995 -20.2727 12.9975 1.40613 0.804184 0.790663
3037 1 0.347906 -10.3596 5.38537 2.93469 0.175554 0.558354
783 1 6.28481 -16.3812 22.3092 1.19835 3.52942 -3.49063
790 1 3.98724 1.51288 14.3531 1.49808 -3.15304 0.963931
2639 1 1.18971 -8.17645 18.1249 0.387681 -1.3425 1.13595
795 1 19.6437 -8.60441 21.2654 -1.98632 -5.23502 1.45766
816 1 19.8847 -21.6177 19.5267 2.65317 -2.13119 1.35367
817 1 9.1454 -12.1389 13.9702 2.57943 -0.436881 -4.30021
822 1 22.1393 -15.6728 16.1893 -1.94465 -2.30179 -2.53943
823 1 8.5401 -10.0592 2.32149 -0.573969 3.25433 0.69589
3469 1 -0.275995 -8.17331 0.694291 -4.48131 -3.06095 4.41258
836 1 8.40051 -15.451 20.329 3.06509 -2.7765 -4.28841
838 1 21.9638 -20.4501 3.10643 2.95407 -2.17314 0.829736
840 1 4.14821 -18.1669 14.5518 -0.930473 0.185934 -1.59456
841 1 21.7212 2.65349 9.67291 3.03496 2.65511 -3.91897
843 1 21.0952 -7.77248 18.9847 6.29971 -6.53642 3.87148
858 1 17.8082 -12.1974 14.3265 4.25671 -0.0585006 -1.16571
863 1 15.9847 -16.755 5.69372 -1.59147 -0.178054 0.552059
3153 1 15.8352 6.19143 23.0052 0.835997 7.75495 -0.595776
866 1 14.1113 -2.46759 17.5577 2.51068 1.23629 -5.03865
2043 1 17.5854 10.2337 11.5653 1.83677 1.37568 1.67419
877 1 3.67516 -16.9185 17.2696 0.26885 0.0835829 -0.687584
887 1 9.47861 -22.0237 19.3174 -2.49026 1.43676 -2.89159
890 1 13.9557 -19.7948 15.3764 2.99059 -1.93004 0.736584
893 1 21.3986 -4.06268 2.02687 1.74574 -4.23329 -4.58751
895 1 3.16858 -23.7835 5.21362 -0.633826 1.48752 -2.02383
896 1 11.6832 -4.14218 18.1796 4.14967 2.76382 0.562734
899 1 15.3709 -20.0152 17.8801 -2.17865 1.6667 0.92701
901 1 0.58761 -19.0246 9.3749 -0.186736 -4.10023 0.0811784
295 1 -0.0907027 7.33085 9.76768 -4.80922 0.33646 5.51428
909 1 16.6766 -21.4588 12.192 7.37174 -3.24478 2.34052
3039 1 17.2173 -23.7981 20.3612 4.74498 2.40303 0.154651
926 1 1.59426 -17.0267 7.38094 1.74294 1.72947 -1.76531
928 1 8.96859 -18.8707 11.1149 1.78476 -3.31977 0.676825
938 1 18.0333 9.25172 6.00806 -1.33508 1.59953 0.756282
943 1 18.5905 -4.14376 0.848398 2.50359 3.1882 4.01059
945 1 4.86717 -21.6037 17.6091 -3.33343 3.77738 3.31221
953 1 17.3662 -1.72442 1.98071 -3.11638 -4.91666 1.31611
969 1 15.5761 -21.8502 1.60017 -1.92957 0.118411 -1.81301
971 1 15.2496 -5.70848 22.0465 -6.90203 2.00487 -0.666219
977 1 3.31077 -23.6356 14.1534 -3.52242 1.74982 1.453
990 1 13.3782 -8.42351 12.8874 0.975333 -1.35692 -0.964643
3875 1 22.8932 0.462872 5.77528 0.433392 1.92386 0.148027
1003 1 13.1822 -15.4192 10.2762 -2.55331 -5.448 1.03112
1007 1 12.3891 -0.525958 18.9094 1.24588 -0.0500087 2.89993
1008 1 5.0845 -3.74135 13.3318 -2.14591 2.71603 -0.410481
1009 1 8.56194 -15.7821 5.98173 -1.26388 0.657013 3.342
1013 1 4.65971 -17.3599 2.55121 -0.585136 -1.42622 1.36776
1023 1 12.7213 -2.30307 4.94778 0.142745 -0.928224 0.619445
1032 1 11.8304 6.94718 20.1932 -1.2235 -2.87124 0.50229
1036 1 6.41638 -13.251 20.1721 -0.662693 -6.14179 2.55896
1800 1 0.0598838 2.99876 9.82804 -0.559823 -1.05514 -1.37559
2927 1 13.5534 6.48332 0.218407 -1.4342 0.563311 -1.29642
1051 1 5.11361 -0.494875 9.66617 2.12944 -3.20463 0.286495
1064 1 13.0373 -16.5823 5.65152 -0.134371 -2.16342 0.209351
1078 1 10.7567 -7.45862 11.957 1.1623 0.68576 -1.28624
1081 1 8.3338 -8.77035 16.4207 2.54993 -1.82445 0.127106
1093 1 22.6888 8.89445 3.82425 -4.19225 -3.37295 -4.06411
1099 1 15.403 10.1935 15.3507 -1.62239 4.24321 0.842775
1100 1 10.8957 -6.62721 19.6219 1.80821 -2.5885 -2.37159
1101 1 5.44379 -16.1021 11.1178 1.69837 -2.18481 1.24203
1102 1 15.3732 -15.5966 16.1828 -6.47764 2.13712 -1.2264
3926 1 9.17312 -5.88392 23.6212 2.31202 -4.29345 0.675666
1107 1 4.58779 -14.1372 2.00974 1.71123 0.0443719 7.69563
1111 1 14.1528 -8.59386 9.04625 4.15402 0.0605896 1.10449
1119 1 8.31352 -8.63988 5.67995 -6.23992 1.22804 -3.55918
1132 1 22.272 -5.19134 19.9684 3.28256 2.28059 -3.85513
1134 1 14.8428 -22.3952 19.5283 4.34967 1.19251 -1.14262
39 1 2.02066 7.72325 21.3387 -3.35576 -2.06262 2.81966
1137 1 5.66495 3.66968 2.09316 -2.48492 1.65639 -3.54763
3365 1 0.606577 -11.8418 12.5644 4.48587 -5.58151 3.68176
1290 1 1.08938 7.44067 7.26042 -4.8918 -4.64259 1.17776
1155 1 6.93954 -18.4681 15.4245 3.37228 -1.71554 0.851822
1159 1 22.365 -4.16873 14.4527 -0.859423 2.70758 -1.16145
1162 1 9.40959 9.76586 2.44024 -0.223689 1.59282 -4.45489
1169 1 13.2077 -6.61115 15.5725 4.92823 -3.48379 3.02092
1173 1 7.40036 -18.8234 21.5516 -0.385333 0.234423 4.41632
2607 1 12.1734 -0.145573 23.1596 -5.76171 -4.31055 -2.42836
793 1 23.3886 -10.4 2.73803 2.75501 -3.38271 2.66764
1219 1 14.0544 11.2007 10.3538 -1.67359 0.410162 -0.987648
3822 1 9.10995 7.45342 9.3075 -2.15176 -0.949558 3.17757
1193 1 9.49962 -5.01177 12.6948 -3.20641 -1.53639 2.2493
1198 1 20.7608 -22.5582 12.4834 -5.70071 6.33344 1.32759
1200 1 13.6892 -10.6485 11.2453 -2.10663 -0.780463 2.21234
1201 1 23.0783 -17.6125 20.4909 -0.991234 2.69339 1.63474
250 1 -0.118121 -1.06795 6.51074 -0.297532 -1.23826 1.42462
3096 1 4.04032 5.96715 23.948 -1.31484 -0.545138 -0.0133489
3996 1 5.79599 -15.3991 4.56383 -1.74151 -1.6022 -0.5188
1217 1 15.3281 -14.853 2.09705 -2.24843 1.23441 -0.0404056
316 1 23.5915 -6.20574 2.67679 -4.93472 0.220613 -1.2381
1224 1 16.9852 -7.2192 12.7434 0.883511 -2.41178 2.16719
3179 1 1.43505 -0.29818 19.4072 -2.19977 -0.345081 -1.54559
1135 1 6.4425 -2.72919 20.1559 6.10847 4.2606 -2.91372
1248 1 7.27969 6.04834 18.6329 -3.523 -1.50973 0.871655
1250 1 7.31666 1.30473 18.7625 -1.64355 1.75499 -2.08569
1251 1 22.3173 -0.246938 19.6533 -0.985715 1.49019 2.33238
1252 1 18.1025 -18.5628 1.79938 3.51948 0.628227 2.63824
1259 1 19.2974 -10.2902 6.83386 -3.58646 -6.85787 1.43026
1266 1 14.146 -8.38492 4.10691 -2.70782 2.56985 0.496639
2679 1 9.26228 -0.290253 0.298648 1.75213 -5.03489 1.78804
1269 1 8.0155 -6.51637 18.192 0.436961 -4.46313 2.77164
3865 1 2.22384 -24.1237 16.6379 4.66494 0.634286 0.891753
1273 1 21.5302 6.46422 22.1225 1.95081 0.916254 1.07224
1275 1 5.0582 4.55446 10.3657 -0.806135 -0.93663 -5.95653
1281 1 14.4941 -11.2644 17.9115 -2.27881 0.354674 -2.15902
1284 1 6.90148 -12.2833 1.73337 -4.52578 0.930083 1.91078
1287 1 10.5635 -17.6295 18.1132 -1.64068 -0.81662 -1.26376
535 1 4.22638 10.8348 9.37064 0.594227 4.00861 2.37583
1323 1 15.9762 -9.54964 14.1501 -1.52121 1.48852 0.770739
2366 1 10.2286 4.59112 2.64966 -2.8691 -3.19675 0.000595837
776 1 9.36457 -0.903037 22.535 0.00297578 0.0713987 -4.63155
1337 1 8.15648 -23.1787 9.90033 -1.59046 -6.16795 1.54016
1339 1 3.07866 -14.5365 19.015 1.28025 1.80533 2.93537
1341 1 3.1154 9.64729 13.0488 -2.25178 -3.33508 2.85904
1344 1 18.5556 -10.0164 3.73304 -1.58019 -0.555068 0.245616
1349 1 1.97927 -14.2076 7.85671 3.53805 -0.385295 -1.98871
1351 1 17.4607 -18.0636 18.4577 -3.71618 -4.66509 -0.515682
1360 1 18.4526 -13.6617 8.09007 0.563029 -0.723515 0.959086
3680 1 11.0798 2.78891 22.5587 -5.92496 0.258405 4.5683
1370 1 4.28264 -14.2765 21.992 2.18462 -1.15364 -0.957429
1375 1 17.0326 -7.4551 3.49816 -4.65986 -0.727933 1.5844
3075 1 18.3329 8.53287 23.5492 -0.374417 -1.28182 -0.388042
1382 1 15.6467 -14.1523 9.06057 0.840037 1.35102 -2.38043
1388 1 17.675 -0.501778 17.3054 -0.680925 -1.17818 -2.39252
1390 1 6.99259 -0.882107 12.1513 1.72032 1.06094 8.70318
1392 1 20.8067 5.21851 4.24221 2.62229 3.51238 1.10955
3728 1 15.954 -8.69952 22.0565 -0.865062 3.59878 -0.402536
2054 1 13.6512 3.67978 0.356631 2.18443 0.71569 -1.59893
3528 1 23.5687 -23.4817 0.349898 0.854117 0.750232 -2.23558
1404 1 21.4434 -11.5269 8.52211 -2.07753 3.69325 -3.46409
1417 1 12.2693 5.60654 11.2553 -3.80048 -1.66852 -1.40063
1271 1 -0.00458426 3.32264 15.6593 4.15717 -5.80477 -3.67825
1426 1 7.08302 -20.1348 5.17184 -3.12235 2.41966 1.03578
1443 1 19.344 -14.3037 17.9436 -0.174028 -2.34946 -2.12259
1445 1 12.8662 -20.1388 10.6518 -0.715602 -3.53156 -5.5508
1449 1 9.01166 -1.91186 2.64683 2.57701 -0.803122 -3.76323
1463 1 5.27039 -1.11045 14.4394 0.126562 1.69957 3.78652
1464 1 4.54503 -19.6989 6.37571 -2.1789 -0.0394525 0.440799
2718 1 9.71125 -14.939 22.8268 -1.95508 2.23762 -1.12865
874 1 11.1132 1.94052 1.15567 -4.23117 -2.80128 4.06547
1479 1 11.6483 -9.60193 7.93447 2.95617 -1.69385 -0.503802
1366 1 20.6384 -14.6044 0.68561 -3.08203 -1.43474 2.83361
1499 1 15.7423 1.67159 22.2456 -2.98176 2.28793 -0.491657
571 1 1.02498 -11.0884 20.6651 -0.364886 2.84837 -0.0790618
2770 1 20.8928 11.1456 4.13497 -6.91595 0.547074 4.10122
1531 1 8.46979 -9.20381 10.9222 -0.0413767 5.76085 1.53483
1535 1 1.87922 -7.96358 12.1455 1.29156 -4.71008 -0.44261
1543 1 0.961802 -0.187098 13.0816 1.96151 1.82645 2.20417
1566 1 3.91263 -9.41394 7.72385 -3.00556 -0.103653 1.83962
1574 1 18.1042 -17.8101 4.50322 -4.77078 -2.99774 -1.94424
1577 1 12.9295 -21.5039 5.46901 1.73249 0.426292 -5.20805
1592 1 18.3193 7.48662 12.9494 -1.45347 -2.61628 -0.0106238
1597 1 15.7893 -21.8451 5.85499 -3.59512 1.17334 -3.33851
62 1 0.276554 -10.9357 17.2843 -8.25522 1.29124 2.57656
1793 1 18.6778 5.61236 22.6678 -1.89397 -0.15309 -2.62213
1626 1 14.9712 0.498853 17.2275 -1.79258 0.0568706 -2.50067
1628 1 18.8658 3.49292 2.86363 -2.78681 1.26697 3.46402
1630 1 10.598 -9.21955 18.0059 -3.0727 0.420494 0.350136
1636 1 20.6751 -10.8848 11.3438 -0.399344 -2.90083 -7.35028
1641 1 20.9351 -12.7132 20.9609 -2.07592 5.07704 1.38861
1653 1 13.004 -22.3409 2.47614 -2.24155 0.893971 -0.277138
1654 1 5.35234 -18.753 12.1261 1.27968 -0.451654 1.03716
1672 1 4.12014 9.46492 22.4924 4.02326 1.13708 -3.1607
1673 1 2.79236 -19.2263 4.18081 -1.69537 -1.47453 4.37107
1675 1 0.912924 9.34995 14.7517 1.36179 -0.51929 -1.17445
1524 1 0.986058 -19.6932 6.29672 -4.32894 0.105504 -1.19497
3753 1 7.65417 -3.14835 23.0762 0.778269 6.93013 3.36242
1686 1 12.9624 -9.59177 21.6292 -0.0268525 -3.29167 0.529754
238 1 16.7239 -2.20965 21.4757 1.37775 -1.22656 3.49249
1696 1 11.954 -2.66168 2.03357 1.37559 -1.06752 -2.0462
1699 1 13.8386 0.961004 14.7747 -0.68903 -0.477423 -3.7484
1702 1 1.9928 -21.5842 12.7486 1.23372 -2.05785 -3.50348
1472 1 23.1693 3.80571 16.5144 4.95225 -3.73523 3.40171
1721 1 7.51419 1.59485 10.9323 2.69145 -0.325441 0.269329
2150 1 18.1024 -8.77617 1.15482 2.81937 -2.43666 -2.40793
1732 1 14.0667 -12.7335 6.90146 0.4887 -3.45603 -1.22129
1736 1 18.3436 4.95149 11.3841 -3.11321 -7.24597 -7.5207
488 1 -0.0406864 -13.465 19.0118 -0.372344 -0.638362 -2.54984
1743 1 19.5695 -16.3003 8.12895 -0.622369 0.240579 2.04909
1749 1 20.8115 8.795 14.1048 0.926026 0.219968 -0.192494
1751 1 2.30833 -10.3248 14.2185 0.787472 -7.89503 1.08481
1758 1 20.9756 -20.6298 7.07338 -2.39954 2.59399 -0.982517
1924 1 22.734 -16.551 0.263827 -4.39625 -2.70184 -0.610405
1768 1 13.7777 -3.1203 9.30816 -7.53969 -0.447208 1.41291
375 1 23.0087 -8.33274 23.0286 -0.952403 -2.14354 0.684165
1774 1 17.6325 -17.7964 23.53 1.19317 -1.03668 4.83702
1815 1 11.8012 -4.60002 23.8167 -0.101222 4.19482 -0.516502
1806 1 13.9648 -3.53162 13.4019 -0.24135 1.78955 0.334176
1808 1 21.3026 -12.3141 18.2018 0.542699 -2.96503 -3.46421
3891 1 8.0656 -16.1477 17.6856 -1.47833 1.34518 -3.93843
3536 1 23.5367 -15.9509 8.68583 0.554487 -2.12306 0.494834
3964 1 8.79385 10.6864 15.1187 4.07247 0.257837 3.98516
1826 1 19.0367 10.5445 1.65577 0.145906 -2.83272 -0.139878
1837 1 14.1276 -22.6084 11.3711 6.27035 -0.598192 2.5927
1842 1 10.9984 -20.3114 3.50711 -1.02042 -1.75812 -2.72674
1846 1 11.9449 -23.5491 7.30006 -1.51486 3.50165 -2.3895
1847 1 18.8301 -14.8055 20.6856 -4.60134 -3.96178 -0.290639
1853 1 3.81295 -13.4335 5.73271 -1.12045 -0.684705 -4.96446
2042 1 5.87902 -21.5673 23.7551 -8.20789 -2.66409 -0.0562625
2696 1 20.7066 -16.8152 21.8566 1.96044 4.17235 3.0979
1860 1 7.80252 0.0390707 8.34179 2.16655 0.906515 5.49656
1871 1 18.46 -12.6757 5.59281 -0.884225 3.14388 0.950264
1881 1 7.77695 5.32146 21.555 3.14487 0.545826 -0.763693
1887 1 19.395 -6.05686 17.398 -3.53323 1.42585 3.89925
1893 1 4.97463 -0.512421 21.2864 3.35151 0.5138 2.27712
1909 1 11.9507 -12.342 13.1499 2.6776 -1.38146 -1.32037
1914 1 18.5167 6.77186 4.80715 0.914755 -0.701836 2.67443
3580 1 1.66315 -11.1408 7.87075 4.09808 6.07879 0.0305681
134 1 18.2922 -7.9728 23.8104 4.99601 -2.94734 0.259211
601 1 -0.22619 -2.22417 21.202 2.76632 0.5649 -2.92994
1935 1 18.0403 -15.7415 2.10436 1.07505 0.995492 3.35843
2385 1 0.675565 9.58399 3.47467 2.03302 -0.904395 -2.27097
1937 1 1.3514 1.32604 17.1433 5.85498 4.70173 -2.5563
1938 1 1.56176 7.47504 17.0065 -3.1675 0.0803644 5.62298
498 1 22.9473 1.57026 23.7402 -1.05075 2.04367 -1.04531
1954 1 6.39925 6.70506 11.3929 -3.50619 -2.92317 -0.938456
1958 1 15.3155 5.05754 15.8657 -1.51002 1.57466 -1.31962
1965 1 16.5838 -5.84738 17.6782 -0.0635952 -0.390081 -0.697378
3848 1 6.14071 -16.4096 7.61223 1.11948 -3.91259 -1.13723
1973 1 14.3315 -17.9686 19.9901 -5.39316 -3.58823 2.57776
1974 1 18.1641 -11.2208 9.50814 -3.53504 2.39316 -1.51092
1977 1 16.4154 -11.602 12.0312 2.5585 -0.150192 -1.7522
1978 1 8.65419 -4.73907 20.6696 0.00131615 3.83356 -7.41193
1986 1 14.9516 -5.49687 2.81831 -0.527472 -5.27623 4.00699
3962 1 2.8877 -16.197 4.972 -3.16044 -0.363473 6.23218
1995 1 1.88373 2.14709 12.2647 -1.45207 -1.77025 1.69868
2005 1 5.5319 -3.50532 17.4108 0.121748 3.57218 -0.904061
2012 1 18.7562 -19.8643 14.841 -0.62153 -2.0175 -2.2692
2017 1 9.85767 7.17263 22.4446 -2.00039 4.44195 1.61784
2024 1 10.5272 9.68883 12.9037 4.03422 -6.95241 -0.385302
3631 1 8.34383 11.0927 18.5088 -0.763727 -1.47629 2.46578
2840 1 5.24095 -18.623 23.5586 -2.49907 -3.81098 4.20077
2038 1 18.9793 -0.0321776 9.97029 -3.04529 -0.859444 -3.36138
3138 1 18.7614 -4.22029 21.7347 -2.87519 0.0216331 -2.4779
3871 1 18.106 0.354672 20.9209 0.885975 -6.96274 -6.07452
2044 1 2.91708 -5.74627 2.27095 -0.77178 -3.93773 -3.28001
2057 1 17.5656 -3.33418 6.20667 0.76572 0.225961 -0.0831975
2059 1 2.52379 -7.14296 22.0358 -1.47211 -0.0124161 -3.09815
2066 1 21.2852 7.28357 8.41192 -2.64389 4.86462 3.54381
2090 1 17.0393 7.74711 15.8677 -1.70962 1.5652 -3.87738
3827 1 -0.160972 5.4318 17.622 -2.16175 -1.58085 -1.23429
2099 1 14.6748 -10.0647 6.24601 -0.854874 1.28276 1.6953
552 1 2.529 -16.9553 0.418536 3.64951 -3.71747 -0.281466
2111 1 21.2736 -10.5778 22.5944 -5.60575 -3.75855 2.35754
115 1 7.53468 10.2651 4.84139 2.6839 -0.262114 1.05578
2116 1 20.2141 -3.7273 5.00469 2.31848 -5.59872 3.59214
2120 1 16.723 -17.3921 10.951 -1.19286 3.85696 2.07483
3014 1 21.57 10.1804 23.0875 -1.21238 -0.722893 1.08398
2135 1 15.1 8.87288 23.3641 0.223138 1.76087 1.86511
2140 1 12.0581 -14.795 17.8109 -0.376322 2.47147 -2.70592
2144 1 4.88018 -3.10363 6.31227 1.13062 -0.131349 0.0342746
2145 1 18.9338 10.2605 21.2814 -0.0710082 -2.97833 -3.5234
1478 1 0.383344 5.307 5.48733 2.92664 -4.88817 1.63917
2147 1 2.82241 5.39939 15.3275 -1.76355 -2.51409 2.51221
2148 1 12.0812 -23.0227 20.7097 2.57502 4.40495 0.493171
1651 1 12.8221 -19.1132 1.43062 -5.54691 4.37802 3.52182
2155 1 15.8216 3.06623 18.0593 1.30272 -1.36583 -0.159332
2159 1 3.12881 -19.6536 10.8246 3.99926 4.00301 2.04457
2163 1 7.16247 -8.1819 13.2553 -2.63477 0.273376 -3.94283
2175 1 12.0105 -23.0587 13.097 3.14029 -0.530515 3.69011
2176 1 9.86224 -19.3898 15.6723 1.87011 -1.368 -3.22969
2179 1 11.6143 -4.53243 6.42836 0.416892 1.18824 8.09907
2183 1 5.39845 -3.27903 9.09627 1.29132 -0.969744 0.215455
2185 1 5.00681 9.03813 18.9943 6.82087 -2.57375 -6.10493
2187 1 16.7466 -3.97114 9.02064 -2.58584 2.79619 -0.175685
2191 1 11.9858 9.98778 4.22782 -2.70926 -4.73861 -4.40642
2883 1 11.5926 -14.4935 0.506605 5.35197 -2.16667 1.06907
2214 1 8.85834 9.85856 21.2821 -0.459852 2.94332 1.69384
2217 1 12.031 -11.0422 19.519 1.1815 2.7275 -1.55792
2221 1 19.4946 4.28844 20.1161 -0.662497 -0.438113 -3.23551
2222 1 2.81769 8.40974 5.16759 3.53627 -4.82272 1.3793
2226 1 20.4089 -1.95652 14.6501 -2.04817 4.70768 0.241878
2229 1 19.7737 6.19167 15.2547 3.2472 3.00102 0.364215
3716 1 7.04723 5.10964 0.120557 0.161106 -4.33568 0.0236585
2245 1 22.809 -20.4205 9.29058 3.68708 -1.71249 0.33119
125 1 16.6124 9.16522 1.12166 1.19023 3.63827 -1.37341
2250 1 1.44838 0.452884 8.63381 0.713235 -2.35688 -1.26377
2283 1 23.6153 -12.1472 6.83849 4.39287 -1.12815 1.54701
2286 1 6.41965 -8.84187 3.61589 -1.1858 1.74701 2.29309
2290 1 14.887 -8.74966 19.3696 -0.297932 0.285725 2.23359
2293 1 2.81177 6.25272 11.31 3.22929 -0.595013 1.62094
2301 1 4.2959 -21.5778 21.2839 6.88587 -0.801646 -0.590686
3895 1 13.2874 -4.94529 0.643248 -0.874826 4.02879 4.36
2310 1 6.70605 -19.307 9.55796 3.69721 -3.06948 -1.06738
2311 1 6.91147 1.15562 1.25772 -8.1571 1.19634 -1.15187
2319 1 6.38711 -9.90809 9.15793 0.828808 3.12459 2.28888
2329 1 8.29408 5.97303 13.5121 1.21459 -3.57405 -1.14353
2330 1 12.9574 -22.5277 15.9243 -4.40478 -2.70656 -4.08041
2332 1 20.5956 -15.8439 11.6038 -1.58494 3.00537 0.661769
3878 1 9.76267 -21.9452 7.78843 0.721067 4.59305 1.97917
2340 1 8.97806 7.65311 16.0455 0.794931 1.71339 -0.591635
324 1 23.1513 3.49718 5.22831 -1.32435 0.625901 5.75803
2348 1 9.72229 -1.87461 5.50977 4.7217 -6.38785 2.36973
2353 1 14.8771 -1.76478 7.09083 1.72804 4.40886 1.58255
2359 1 8.3889 10.3035 9.53696 4.02664 2.4728 -0.15052
1418 1 16.9105 -6.4342 0.755934 2.06347 -2.92427 -1.04007
3776 1 9.08532 -4.56701 16.2429 1.85502 1.87954 1.70098
2369 1 21.7794 4.21062 14.0214 -0.868237 -0.961546 3.78076
2378 1 7.56954 -2.11962 15.9549 3.26375 0.365196 -4.31358
2380 1 11.3694 -13.2178 21.2297 0.941671 -2.85613 -1.84169
201 1 7.57438 1.17744 22.7315 -1.73191 3.72822 -2.01403
2450 1 6.21164 10.8467 20.8395 -1.19642 -0.192807 -2.30379
2386 1 1.94527 -2.70704 5.49516 4.21632 1.06784 -3.37413
2389 1 8.24388 -12.2332 11.3095 0.39537 0.0799962 -2.13251
2393 1 4.21108 -16.8977 20.3074 -1.09711 2.87117 -5.68375
2400 1 11.4948 -4.40703 14.6791 -0.52145 0.369625 1.21434
3909 1 3.82495 -11.6321 19.44 0.0121345 -3.05563 -1.06263
2427 1 13.6706 3.90783 3.37934 -0.79109 1.30251 2.20067
2428 1 10.8345 -15.3944 13.7066 -2.97015 -0.696796 0.435714
2433 1 21.5109 -21.9854 21.9218 -3.31152 -2.04582 -0.0756853
2753 1 -0.109917 -5.89094 11.6623 -0.736881 -1.12277 -5.21832
2449 1 18.4701 -22.8214 13.9389 3.19996 3.2152 -0.229351
2025 1 3.34387 -11.6517 22.3125 5.26171 -0.497302 -1.37959
2451 1 9.30295 -22.1398 5.04137 -0.163191 -5.03624 -3.91044
2455 1 11.821 8.70397 15.1965 4.68995 -1.51436 1.38535
2467 1 1.01181 -18.2062 12.4172 -0.225399 4.38408 1.38854
2497 1 4.21848 6.38124 18.2164 3.75607 -0.932892 -1.39607
2511 1 3.2733 3.51149 17.6847 3.50015 3.1587 3.62591
2513 1 20.734 8.67523 6.13374 -1.53313 -0.903121 -0.44582
3832 1 21.8805 -1.49425 2.72019 2.25138 1.99122 -1.13074
2515 1 3.16327 -20.8178 1.64117 4.62952 0.662702 4.24789
2521 1 11.4563 5.79846 16.686 -1.05188 2.47462 -0.38207
2527 1 6.73633 3.08694 8.41649 6.8949 -2.63263 6.20457
2535 1 15.9781 -5.39046 14.7294 0.612223 3.25265 -0.59837
2539 1 17.1241 -13.4359 16.7271 -1.25594 1.84876 -0.393874
2540 1 21.8135 -9.72532 15.3316 1.50189 -3.19484 -0.0633901
2541 1 4.40531 7.21076 13.496 0.614321 -0.749494 -0.450047
2544 1 12.0359 3.87494 5.83315 1.1118 -3.97748 3.36362
2560 1 20.6679 -22.3127 9.60225 -0.695468 -1.4523 -0.218168
1613 1 1.0307 -15.6208 2.63421 1.71683 -5.34198 2.57701
2571 1 12.5181 -2.70062 21.9474 -0.320126 -0.500142 -3.30774
2585 1 16.8372 -16.7165 20.9018 0.991661 -2.83735 -2.60941
2587 1 16.4839 -19.7431 7.89469 -1.0412 0.00481374 0.388351
2594 1 23.0485 -7.16347 17.0308 1.4412 4.98654 2.85381
2621 1 5.53447 -22.4179 6.21237 -0.00936119 -1.10016 3.92001
3223 1 22.9062 6.42653 17.3018 -5.98165 3.70844 1.11922
2706 1 2.5595 -19.0365 23.1412 1.52344 5.43005 -0.512324
2645 1 5.58697 -22.1058 15.0881 -4.56289 -2.08872 -1.90905
2648 1 15.9453 0.261749 3.69206 0.54236 -4.49368 -2.82273
2661 1 4.96782 6.62518 21.196 1.29675 1.4654 -4.71081
2666 1 19.5432 -21.0114 1.90139 -6.1963 -2.00204 -6.77768
2669 1 3.70884 -8.70338 19.5282 3.03685 3.53055 -0.422685
2672 1 6.76644 -6.60414 10.6448 2.17069 2.01986 -1.96456
3969 1 17.7113 -21.2215 21.7153 -0.632852 3.55742 -2.11922
3786 1 19.8285 6.433 18.2787 3.93463 1.96309 -0.0410176
2695 1 13.649 6.84661 13.5653 0.953336 2.87572 -2.45194
716 1 1.02807 -23.3671 8.81652 1.31708 -3.0139 -3.91595
2698 1 14.9358 -14.6913 21.3064 0.862416 -3.27582 -0.494259
2704 1 3.33623 -23.732 2.01852 2.31389 0.172049 0.535357
478 1 2.64252 -2.06212 22.2124 -1.99099 1.44603 -0.698186
2709 1 16.7982 -3.06944 18.5194 1.23536 -0.0999884 -1.56862
2719 1 20.6724 -11.6175 2.55682 -0.0778667 1.66783 -0.259494
2721 1 4.15372 -13.9572 9.86727 1.70104 4.4976 0.707342
2728 1 21.8894 -4.63108 10.5539 6.16524 -3.88291 -0.842037
2732 1 1.45701 2.80882 6.91319 -0.00189341 -0.251688 4.19571
2734 1 17.5407 -10.6958 20.9892 -1.48564 5.15568 -5.24869
3932 1 23.4162 5.30233 12.2368 5.33731 1.53468 1.60222
2755 1 3.51348 -14.1723 15.7431 3.62333 -0.12526 -1.62352
2757 1 18.9187 -18.8582 20.7675 2.19921 -2.74841 0.97206
2766 1 9.2881 8.0022 19.0278 -5.24595 0.105408 0.513976
2121 1 8.54153 -20.5409 23.7366 3.18581 -5.59534 5.37085
2782 1 9.90582 -9.38511 13.9061 -5.57405 -2.24848 -4.70974
2786 1 6.79161 -3.49338 1.58261 7.20859 -4.5596 -2.80464
2796 1 18.1005 -15.4587 12.9558 0.236332 1.86553 -0.0485305
3898 1 20.6364 -1.53872 17.4739 -8.06799 -3.90935 4.09553
2816 1 5.78709 -14.3044 17.6148 1.9684 -6.41598 -7.42635
2818 1 0.982226 -1.52727 1.42238 2.71167 -2.48435 -1.82076
3953 1 21.4853 -18.5674 15.1647 -0.924464 -0.211952 0.334965
2823 1 11.8164 -14.0046 5.77986 -6.90686 0.281258 -0.209728
1591 1 14.496 11.1459 1.12049 1.22308 0.775613 1.23079
2829 1 18.1283 -20.8049 10.0815 -7.00834 2.67865 1.80413
2838 1 17.3095 -13.1613 22.208 -0.0422689 4.8712 1.23822
2857 1 17.6957 8.93839 8.94301 -0.386558 -6.18061 1.45383
3817 1 4.35888 8.96928 1.44884 -1.1034 0.0491097 -0.583575
1677 1 22.6836 -17.7803 10.7399 2.05872 1.20192 -5.63621
396 1 8.57925 -19.1181 2.71688 3.35227 -0.978959 1.17212
2872 1 6.1723 8.50671 9.19569 -0.698443 -3.06462 -1.64104
2877 1 12.3137 -6.1705 4.18022 1.06154 2.10407 -1.42679
3866 1 11.8581 -16.7715 8.21188 -0.0126996 1.38889 -4.87657
1403 1 15.0137 -24.1294 17.2017 3.68321 0.598541 -2.07681
2889 1 5.11125 -5.9337 6.00324 2.02342 4.61556 -1.30087
2891 1 7.2146 -5.60877 14.3397 -0.00731493 -1.02467 -0.851311
2906 1 10.6726 4.30595 19.3005 1.93593 -1.98712 1.57218
3346 1 10.114 -23.643 0.462644 2.62804 1.13025 4.37981
2914 1 2.15098 -1.53832 10.7051 3.2771 -1.86411 -1.22735
2925 1 19.9112 -8.44906 12.7377 -0.954705 3.0234 -0.122745
3784 1 13.1075 0.110359 2.35889 1.47393 3.67534 -2.78038
2929 1 5.83738 -12.6821 7.77585 -0.941917 1.42452 3.06435
2931 1 -0.201623 -6.8684 23.4111 2.32101 -1.71468 0.206943
2384 1 7.23709 -11.9415 22.7988 -2.8987 -2.32411 1.29591
536 1 0.975778 -7.65214 3.16646 -1.28291 3.67777 4.7953
2944 1 8.13606 -23.4489 15.0895 1.93315 1.94007 -6.79056
2946 1 15.3538 -1.79222 11.3889 6.29079 1.92178 -0.360294
3899 1 6.45489 9.9197 16.7546 -0.454851 -0.693059 -1.87344
1485 1 10.329 -10.9425 22.7379 2.27591 -0.202662 -1.37233
2955 1 12.1718 -9.36739 15.4422 -3.39411 -0.957265 -2.27483
2957 1 1.66843 -19.8847 14.6813 -1.23913 -0.548194 -3.22572
3773 1 1.28552 -3.60328 15.3396 -3.69709 2.66528 -1.13671
2373 1 13.0745 10.4791 17.1523 -2.4076 -2.1062 1.20066
2979 1 6.05852 7.15901 15.9714 3.0553 3.99672 1.6106
2990 1 13.4854 -17.5846 17.1429 -1.7474 -1.54969 -2.612
2991 1 4.66557 1.80864 11.4712 -4.96621 -4.48482 0.275177
2994 1 20.138 1.79695 14.5085 3.49236 -2.53989 -6.5187
2996 1 11.4929 6.43213 5.60432 -2.53551 2.1022 1.09383
2998 1 2.1203 -15.9061 13.6233 -1.75376 -2.29993 0.740715
3013 1 13.0815 -19.3146 22.597 -2.58848 1.84953 3.5746
3022 1 15.2057 -12.0889 1.41405 -3.45024 0.709696 -1.58472
3024 1 21.6635 6.94042 2.12558 3.26312 -2.53195 1.99436
3025 1 3.33435 -22.4707 10.2761 -1.88669 -3.14772 -0.639693
3026 1 1.00664 -22.4563 6.0957 -1.84574 -0.176701 5.65609
3027 1 13.0111 3.10504 10.034 -5.06603 -0.857554 -2.39885
3029 1 6.65724 3.79551 12.7223 1.39449 -1.29632 -4.14936
3839 1 17.0209 5.85518 2.73986 -1.07563 -0.61045 -0.158681
3040 1 7.27307 -20.3524 13.2712 -3.31138 1.49044 -0.961225
3048 1 7.92074 -10.8799 18.7838 1.85136 0.288522 -1.35302
3050 1 2.82624 -22.8372 19.1595 -7.83069 1.51902 3.38721
2067 1 23.4579 8.50065 21.7233 -5.31044 1.85815 3.1151
3055 1 18.892 3.01803 7.16997 -0.559646 -2.12019 3.65818
3057 1 16.4898 4.27722 20.7833 -4.53522 -3.8404 1.048
3058 1 12.735 -5.85328 9.00028 -1.64959 -2.30806 0.831649
2827 1 4.64481 -9.01165 22.9705 -3.27643 4.87051 0.611914
3764 1 17.3549 -10.9705 18.1529 1.5311 1.84717 -2.55862
3072 1 0.65002 8.99056 19.3103 -5.89659 -4.2341 1.00009
3088 1 12.8293 3.91922 14.6492 3.16455 -1.66417 -2.00163
3089 1 12.0229 -17.8938 14.4344 -0.471126 4.55495 0.821938
3094 1 13.4844 3.54878 19.7071 -1.24843 -3.09533 -4.96989
3102 1 2.6841 3.01215 21.0528 5.32349 -3.36497 -2.89405
3107 1 21.109 -14.3468 23.2649 4.07792 5.16391 5.75566
3109 1 3.37671 -0.578486 2.49702 -0.690556 0.437955 -1.29416
3110 1 6.32301 6.80201 2.43057 -2.11079 -1.9159 -1.87218
3118 1 4.43915 4.97573 7.54994 -4.25152 -1.63688 -0.16962
3127 1 14.2825 6.94099 3.24844 -0.940025 0.466423 -4.02746
3130 1 23.3665 -10.2326 10.3421 -0.899983 -0.0827301 -0.473396
2677 1 0.84724 -22.8072 0.471619 -5.63823 -0.402805 4.48609
3145 1 19.3939 -18.304 10.3274 2.37793 -2.30976 0.29064
3148 1 8.34986 -5.98891 4.78965 0.590185 -6.45849 2.13166
3156 1 22.1701 -4.24206 6.90911 3.24219 1.76487 -3.15672
3157 1 10.1707 2.15572 4.03325 2.79465 -0.00321046 0.186548
1719 1 19.9003 8.13498 0.120563 -5.18993 3.05201 -4.12095
3166 1 18.8542 -9.66742 15.0095 4.80975 -2.15325 -1.50983
3176 1 22.4288 0.0880304 14.2016 -1.23072 -0.134052 6.75909
633 1 7.6639 9.57494 23.8073 -0.412347 -3.01894 -0.084625
3184 1 15.5604 -2.8342 4.07471 5.36028 -1.03079 -5.98434
403 1 14.7859 -1.35078 23.2452 5.29206 -5.55032 -1.3003
3858 1 14.358 6.62451 6.12128 -1.41277 3.53025 3.46834
2447 1 3.08208 -11.3062 16.6585 2.48437 0.209254 -0.233802
3203 1 16.2892 9.17676 20.6323 -0.907761 -0.302317 -0.51047
3208 1 4.84225 -7.62197 1.35061 -2.3468 -0.099036 1.54723
3209 1 11.3389 -17.2368 23.6245 -2.4486 1.90611 -0.329467
3215 1 13.6823 0.772096 11.6327 -2.2245 -7.74988 2.33189
3216 1 22.8331 -2.22653 8.87262 -1.69825 2.46284 4.52024
3217 1 10.7067 2.92211 8.33502 0.770708 2.89591 0.370633
3825 1 21.2524 -14.188 9.22147 -5.84259 0.35545 -0.50891
3246 1 16.9056 4.98968 6.30248 -0.371072 0.580378 -1.11591
3942 1 10.1032 -22.2522 16.4942 1.02485 1.15736 -0.300155
3249 1 11.3121 -0.377959 12.4332 0.835959 2.32707 -2.76817
3252 1 17.5399 -23.2743 16.4641 0.478916 -1.00606 2.67969
3262 1 10.1596 7.1967 11.9575 1.5636 -5.50494 4.3136
197 1 22.9899 -3.067 22.0253 2.58136 -3.22689 2.09425
302 1 0.149701 8.30539 0.19781 2.80949 -0.756975 -7.77659
3266 1 10.6168 -2.42271 20.1415 0.591819 1.04855 -1.84869
3268 1 9.01731 -22.3059 12.451 -1.65027 -4.82832 -3.71913
3270 1 19.7038 -17.0841 17.0429 4.02295 -0.171736 0.736947
3271 1 7.32712 -9.65487 21.2766 0.177341 2.1358 -7.67619
3274 1 10.8604 -18.4222 5.63299 -1.43002 3.56786 -3.08436
3275 1 22.524 7.84071 11.7562 -3.98813 -4.71703 -1.1569
3276 1 10.3912 3.93277 13.1691 5.57595 -4.70782 -1.96585
3279 1 8.97764 -0.270906 14.3452 -1.514 2.69264 2.76696
3915 1 7.52214 -2.57097 7.30666 0.947197 -1.62046 -0.945328
3309 1 3.26534 -4.18756 10.7814 0.0626757 7.4616 -3.56701
3313 1 15.44 8.70734 12.532 -0.786727 -2.75668 -0.47695
3821 1 13.8368 -11.6379 15.1686 -2.1892 -1.41162 -1.39358
3317 1 3.65804 -0.305241 6.86307 -0.734369 -0.202646 -1.21823
3814 1 2.35552 8.99569 10.253 0.554113 -3.68154 2.62424
3336 1 12.8519 -16.5469 2.45009 4.86118 -3.536 -4.23795
3424 1 3.0035 -9.81923 0.565037 2.76572 -1.19099 0.545877
3344 1 18.1545 -20.7791 17.2909 1.34138 2.21839 -0.0587063
3905 1 2.51994 -10.0542 3.39814 3.75198 -2.88367 -5.06089
3357 1 6.78808 -6.93252 21.8154 2.2621 3.43796 -2.64177
3853 1 19.8604 -14.1114 3.55856 -3.2431 3.52913 -2.24002
3368 1 22.3542 -20.5575 16.8136 -2.02247 -0.697949 -6.09821
3373 1 13.7538 -6.06895 18.4603 -1.29947 -2.01039 2.16359
3919 1 9.94238 -12.963 18.8961 -0.273523 -0.730554 2.00949
3377 1 5.38506 -12.5521 12.1089 -2.46384 3.3085 -2.47743
3379 1 10.209 -7.26157 8.93621 -2.77201 0.817752 5.51423
3995 1 5.94095 -23.0629 1.78359 -5.61872 2.06967 -2.55304
3395 1 15.4569 -14.2362 12.2243 -3.7863 3.17587 0.941144
3399 1 1.02925 -3.66187 2.90427 -3.16762 0.0646548 -1.57547
3405 1 15.8369 4.8033 12.9016 -7.55003 -1.57486 -2.1189
3406 1 5.96325 -5.96096 3.32942 -4.28042 2.03073 -0.777447
3682 1 23.5222 -22.8646 17.8955 -3.20746 -1.69306 4.19166
3429 1 2.7711 -19.6589 17.4025 -4.72892 1.38384 -1.62539
3439 1 1.87411 -14.3406 11.5089 0.295073 1.64677 1.70893
1627 1 17.5764 -6.5105 20.5893 4.37638 -3.29198 1.07896
3465 1 2.44602 -5.36527 13.3437 -0.801089 1.27548 1.27879
3474 1 21.8895 -7.03191 14.2737 2.45253 -0.791213 -1.48281
3478 1 10.6906 -13.6606 3.23036 4.655 -0.495033 0.683447
3479 1 17.8506 -6.5408 8.28916 1.82658 6.27537 -0.790234
3492 1 19.3107 -1.18557 3.9297 -0.949315 -1.16206 1.50742
3763 1 11.4611 10.518 6.79681 -0.378095 -3.1948 0.567184
3503 1 17.5117 -22.1626 3.47353 -6.57293 3.05797 1.88393
3505 1 2.23841 -13.0482 3.4833 -2.38289 0.135301 -0.688819
3515 1 16.8544 -16.7929 8.29776 4.25457 1.10079 0.674896
3531 1 1.8599 5.34267 19.9584 4.11005 1.18738 -0.143894
3834 1 6.8899 7.58202 4.99326 1.84663 -1.74809 0.0513615
3534 1 5.63291 -5.3749 19.4429 2.37717 -5.79878 -3.81005
2146 1 2.83302 10.8802 19.3186 0.659057 1.91255 -1.45953
3538 1 4.62105 -5.5508 15.6031 -3.41049 3.37983 0.0457112
3542 1 19.2964 1.40523 4.93344 4.56726 -5.06426 -2.66918
3559 1 9.60092 -3.91069 10.0616 -2.36708 -3.13609 3.21236
282 1 13.3112 10.7982 13.3561 2.88359 1.72097 -1.29139
3567 1 4.64557 -10.603 5.16886 -1.54949 -1.18474 -2.78981
3568 1 17.8414 -0.262289 14.212 -2.34369 2.07187 0.491517
3576 1 18.0525 4.00287 15.5283 2.95458 -4.01044 -3.74577
3578 1 20.7834 8.32859 20.1853 2.3082 2.36221 -0.91699
3981 1 11.2258 -8.87555 5.22446 3.30464 3.17613 -4.12781
700 1 1.33918 7.30177 24.1165 1.97872 -4.26606 5.48395
3585 1 11.384 -1.62426 9.91286 2.66339 0.729258 -0.370813
3594 1 12.1225 0.598949 5.09436 0.869704 -5.5542 2.34289
3609 1 7.52421 -11.2205 5.98543 1.90098 -2.60593 5.10036
3622 1 7.54121 -14.5659 9.38903 -0.106474 2.9934 2.00424
3623 1 12.4606 -1.69806 15.1213 1.01368 0.722108 -9.07949
3624 1 22.9512 -8.22286 4.53877 -2.32757 -1.38762 -0.189403
3625 1 10.0729 -17.9237 20.9482 -1.63946 2.8511 0.353117
3628 1 10.5214 -0.0667879 7.778 -0.693976 -3.06109 2.46435
3811 1 13.4974 -13.3204 23.2888 0.0142653 1.74793 -4.06136
3638 1 21.0227 -6.31998 22.4272 -1.10511 -0.626007 -2.36138
3639 1 8.14926 -18.489 7.21276 -7.81404 -2.64065 0.826856
3643 1 1.80791 5.01325 8.99008 2.6425 -3.21707 -3.18422
3647 1 18.5061 -20.4312 5.66641 3.17212 0.969389 5.78014
3652 1 22.0976 -12.7973 15.4124 3.85832 -0.460076 -1.77505
3660 1 14.9102 8.37169 9.81586 1.72058 4.687 -0.692566
3762 1 9.28289 -11.2391 8.46669 -5.01704 3.34577 -0.878694
2114 1 0.378077 -22.5058 20.573 -3.36559 0.80041 -5.6206
2445 1 0.169765 1.54976 21.1328 -9.01731 -0.303856 -0.462317
3867 1 21.7698 1.48434 3.29226 3.05514 1.74354 -2.13978
3687 1 9.99436 -14.2393 8.01627 1.12618 -3.55182 0.804078
3697 1 8.68701 5.45673 5.31927 2.29957 0.301045 1.50433
3701 1 18.1627 -2.5717 11.1747 -0.206064 -1.54011 -2.1771
3704 1 20.018 -4.02036 12.6675 -5.17947 0.210795 2.69667
3705 1 5.59005 -1.79111 3.69589 -0.782314 -7.72289 0.168305
3708 1 6.05136 1.13477 6.29074 0.848857 0.897809 -3.70627
3722 1 20.8245 -8.03684 6.27024 -0.781776 1.76706 -0.365078
2371 1 15.5911 -19.111 0.533247 -2.38618 -3.31369 2.02104
3730 1 13.3469 -5.66821 11.7951 -2.40678 -1.80646 -4.80256
1042 1 12.4495 -6.81788 22.3307 3.20235 1.71118 -0.756098
3739 1 0.868776 -4.76827 7.33007 -3.08658 -3.4283 -3.80474
3743 1 5.50463 -14.6615 13.8377 -4.02818 -2.70833 5.54192
3745 1 3.7687 -9.73595 10.5727 5.90447 3.29445 2.06154
3610 1 12.3298 7.78877 23.866 -3.51641 5.61401 1.73692
2096 1 10.6251 -6.24731 0.452049 -1.90535 2.82145 3.86411
3908 1 23.277 -16.4938 13.2594 -0.788501 1.92457 -0.594209
3737 1 -0.213825 6.82535 3.03032 1.63691 1.8566 0.0445719
2125 1 0.0424351 -16.2167 15.5892 1.54428 4.06596 0.61192
1928 1 23.5716 -2.38025 5.20647 -0.759714 2.99939 5.29796
3936 1 -0.284526 -23.2803 23.561 -3.35236 0.782898 -6.49774
1 1 23.5616 -22.4735 12.5953 -0.841546 -0.733393 1.14612
3177 1 0.497633 -11.2105 23.6054 1.12071 -0.116638 -8.1843
3066 1 21.7831 -0.571374 0.043052 -0.929936 -0.437526 3.18103
1378 1 8.57689 -8.13685 0.21794 -1.69086 -1.92902 -3.26734
2192 1 0.456828 2.08294 23.9254 -0.691135 2.13022 -2.50554
2593 1 23.3947 -5.13724 23.9602 0.217998 -2.31433 -3.41778
1182 1 17.237 6.46687 0.136469 1.70035 -8.08325 -5.67243
2337 1 7.56497 10.0438 -0.167695 1.54954 -6.06999 -0.517167
24 1 10.8295 20.5112 -3.95534 3.40937 2.13055 1.77206
85 1 5.45614 14.5436 -1.48495 -0.374511 1.89931 -2.54521
4175 1 0.36042 36.9274 -9.32226 -2.86663 2.0525 4.47555
91 1 17.667 19.064 -19.947 0.203991 -0.565796 2.87727
105 1 4.07657 18.1793 -19.4152 1.87119 -0.945398 3.60412
117 1 19.5503 15.5381 -20.0636 4.12366 -2.96854 -2.09046
166 1 8.34113 17.8227 -20.0177 5.63605 1.67019 7.35307
226 1 23.6801 16.8732 -13.8869 -2.57749 -5.71584 1.08793
169 1 4.89169 24.6767 -12.8812 -2.19305 3.35282 4.44724
183 1 20.0153 14.9181 -2.40619 -3.8203 -0.154147 -1.79196
186 1 14.9161 25.1802 -12.0119 1.02462 3.58693 0.468656
194 1 0.528579 24.1852 -20.5258 -3.84862 0.313426 0.323071
722 1 7.54355 46.4816 -13.4664 3.63745 -2.69153 1.21657
252 1 19.2951 15.4224 -13.1323 3.44612 1.16514 2.3534
271 1 2.61062 23.2211 -13.3918 -3.18318 0.692339 1.62746
275 1 12.0228 22.8266 -20.4526 -1.35124 -0.952085 -0.821619
2094 1 21.6808 12.6684 -1.62341 2.73823 0.542811 -0.493973
306 1 13.4584 21.2764 -13.1855 1.20595 -0.0575289 -3.21915
1855 1 -0.241918 21.3679 -16.4397 2.91638 -2.47839 -2.54325
336 1 18.3667 15.4447 -22.6279 1.31068 -4.23216 -0.893265
354 1 9.53562 20.564 -6.67529 -1.90752 3.17154 -3.0708
367 1 6.63159 18.1786 -17.6637 0.321943 -0.158944 4.11228
380 1 12.6064 15.8683 -21.3135 0.7773 1.61601 3.15128
382 1 16.117 16.8039 -4.158 3.73864 -1.5434 -0.498134
414 1 4.3027 18.5814 -15.7754 -0.475783 0.990562 -0.821579
428 1 9.75385 12.3586 -5.67644 -3.73479 -2.96273 -1.87318
437 1 18.0867 17.1149 -11.1347 -1.40613 2.23986 -2.79964
466 1 14.428 12.3963 -22.9386 -0.608513 -0.143418 -1.89627
2411 1 8.01314 11.3604 -17.7134 -0.72988 0.998385 -3.24739
4199 1 0.565186 41.4639 -9.30339 -0.826946 0.0635371 -3.74184
1318 1 22.7334 21.1359 -1.96485 -2.48917 -1.19936 0.382912
507 1 12.5005 20.0543 -15.8316 3.45917 -0.67904 -3.68714
509 1 22.2808 14.1439 -19.6271 0.923141 0.379946 -0.343324
554 1 2.92696 15.743 -18.3102 -0.3263 3.53553 -0.648198
3689 1 23.4827 14.9879 -16.9793 1.34586 -2.33825 3.82436
586 1 16.1417 22.7098 -19.9903 0.821382 2.01106 2.62525
635 1 8.26646 13.0737 -3.1349 0.725772 -1.43258 1.72102
638 1 13.8413 18.4154 -5.19688 -0.381089 -1.68937 -3.70595
2487 1 3.47057 18.4669 -0.611084 1.95215 -0.306542 3.48312
680 1 6.53235 23.6425 -10.4813 -0.975865 4.43665 5.03879
3703 1 18.8829 12.746 -23.7583 -1.23162 -1.72964 3.0842
703 1 4.14641 25.704 -22.0395 -2.7314 4.31075 5.08563
705 1 4.90987 21.5184 -15.4462 -4.67434 0.872756 -0.31646
736 1 5.0102 20.4695 -7.39889 -5.78399 -2.00097 0.301954
784 1 12.17 14.8042 -2.09395 -0.0959408 2.81369 -0.0754738
787 1 8.31442 13.4324 -13.2377 2.18771 -1.9162 -3.2188
468 1 22.4086 17.4439 -9.78254 -3.35091 -3.20955 -4.34983
978 1 2.12699 13.2002 -24.1382 4.81846 -1.13999 0.637048
807 1 15.6985 21.4188 -22.3195 1.07905 -1.42074 -3.10057
862 1 1.74241 14.985 -7.28503 -2.75009 2.78585 1.80684
475 1 18.8632 11.4817 -21.1624 -4.24202 -2.84619 4.23245
4127 1 0.208508 28.3364 -9.67234 -2.37591 -4.0846 2.15631
883 1 15.5244 20.1765 -6.7243 1.01945 1.32261 -0.34721
1611 1 5.90306 11.3849 -2.08833 -1.13674 2.02173 2.65688
2935 1 8.72126 22.9844 0.0414131 2.55942 -1.81642 -1.21134
1781 1 6.26073 19.6769 -22.8343 6.03132 0.333798 2.27146
1670 1 2.86061 15.5813 -0.89038 -4.81798 -0.880468 1.21461
979 1 4.68017 24.6014 -19.4882 0.690667 -2.98403 1.26767
1000 1 17.4132 19.8872 -10.7506 -2.12861 4.08043 -1.88693
307 1 11.4159 12.9577 -23.5557 3.29024 -2.19351 4.9383
1035 1 13.171 21.2838 -5.48949 -2.90169 -0.215259 -5.88403
1039 1 19.9033 22.9699 -10.0101 -0.407325 2.0203 5.09849
1046 1 17.1961 13.6385 -17.3749 -1.72617 -0.647826 7.96779
1065 1 13.9768 18.7869 -18.8584 1.53603 -0.0254302 -2.4035
4339 1 7.65445 46.811 -5.36766 -4.56055 0.134916 -4.69651
1096 1 7.33707 18.0971 -11.8962 -1.98117 2.35435 -6.16139
1127 1 11.7592 21.4801 -8.10245 -1.87449 1.74637 -1.68608
1165 1 18.5609 22.2367 -1.17415 3.16623 4.63318 3.58208
1181 1 7.43843 19.3182 -8.65417 -4.6206 -0.589453 4.22467
1194 1 7.95771 15.8797 -6.74198 3.54029 -2.8817 -0.509846
1196 1 4.2199 16.4208 -13.858 -4.08622 1.98112 1.40886
1221 1 0.880944 21.4649 -21.099 -1.71813 0.736803 2.87328
1241 1 12.4984 12.4983 -18.1547 0.334907 -0.0804236 1.30464
1243 1 7.54424 17.0859 -22.6827 0.978335 -0.205514 -3.96465
1249 1 6.71196 14.6969 -21.3666 -0.54641 2.19269 2.33592
1253 1 13.534 24.6519 -2.33675 2.37211 -2.16182 -1.11475
1274 1 21.8638 19.6249 -20.5667 0.00468771 4.88641 3.58147
1301 1 9.45775 14.8353 -10.3649 -5.16038 1.02951 1.33264
4151 1 0.408271 32.7447 -9.65207 3.9578 3.44815 -0.19298
1336 1 1.41717 20.3119 -5.99308 -1.3066 -3.46738 3.2226
60 1 0.858163 18.7172 -22.1808 -6.61284 0.106816 1.68813
690 1 -0.343338 22.9803 -6.08531 2.7112 -3.6385 -0.114795
1380 1 16.2 19.761 -13.459 2.68521 2.07881 -0.758808
1384 1 2.69921 20.8102 -12.036 0.870285 -0.919517 -2.92784
1397 1 4.3511 24.17 -8.53894 -0.187124 -2.42427 -5.23979
1398 1 3.60603 20.4725 -4.0124 3.06796 0.148799 -0.521187
539 1 19.3492 14.5749 -8.66962 -1.82041 0.836838 0.000349153
1419 1 9.31305 22.9021 -2.98085 1.07214 0.507828 -4.38683
1423 1 5.3836 21.8553 -19.8216 -3.36526 4.8287 1.6738
2137 1 15.4539 16.7956 -23.4505 6.25077 1.78454 2.62177
1435 1 19.6403 24.6945 -7.44265 4.55084 -3.63477 7.3832
1437 1 2.88743 15.1542 -22.1244 -1.63754 -1.4769 1.32625
3882 1 21.9819 17.1159 -3.2763 0.0730132 1.24468 1.53031
1451 1 9.70796 20.8951 -12.4487 -5.65173 0.604335 -1.01618
3140 1 0.833391 15.4942 -20.4813 2.63617 2.84933 -0.641867
1480 1 0.640709 13.646 -3.21851 -3.81681 -0.57816 -7.36276
3978 1 0.265433 20.0083 -12.5397 -0.749611 0.421653 -1.15602
1501 1 8.64601 17.1408 -15.7599 3.78324 1.1878 -4.47512
1503 1 8.00193 24.2167 -22.9978 -1.62811 0.806295 5.15935
1506 1 14.5404 13.5961 -0.56054 -3.22478 -1.43737 4.19393
1509 1 9.71092 17.6079 -9.64645 0.549571 -1.44834 -0.383646
1561 1 19.8111 20.2354 -9.01135 0.831619 1.33356 1.66245
1564 1 8.16137 13.4484 -7.78086 5.73596 -0.960151 -2.58604
1568 1 19.1703 20.5091 -13.2955 2.58664 5.37835 1.23205
1576 1 11.6455 20.7934 -18.7582 3.00787 0.902513 4.41228
1588 1 3.69241 17.9021 -22.5865 2.19921 -2.64545 0.335299
1593 1 2.23403 24.4977 -18.3373 -2.23669 -1.6542 -3.86519
1595 1 6.67694 15.098 -4.18689 0.473251 1.2495 2.15972
1601 1 6.07552 15.3432 -17.5713 -1.66588 -3.15886 4.15544
1624 1 3.71082 20.9989 -22.3002 2.51742 -0.588228 2.22634
1625 1 12.7267 12.2307 -9.60282 -0.144757 -0.715875 3.59011
1633 1 19.3907 18.0925 -21.9499 -1.52675 5.52466 0.426758
1809 1 10.0639 20.2041 -0.0439162 1.19327 -0.417286 -5.13979
4350 1 6.22701 45.5225 -0.693298 3.24101 0.28315 1.34656
1678 1 2.70468 20.8245 -18.8238 -0.219237 2.10264 0.588281
1683 1 13.1426 22.9935 -17.0789 -2.32652 6.16408 -0.890116
1701 1 11.8266 25.1006 -6.45103 2.61675 1.18223 1.59235
1709 1 18.3043 18.7347 -3.5602 -0.0675666 6.21008 3.59556
1712 1 10.7548 13.8081 -19.803 -5.01476 -4.39245 2.16865
1820 1 15.2958 12.3748 -10.5073 -1.30016 0.828655 4.58293
1744 1 15.5074 23.7663 -9.74398 0.204392 -3.6442 -1.55974
1745 1 5.18172 14.0841 -8.3513 -2.10083 -2.17696 6.55484
1746 1 16.3909 23.7538 -14.0352 -6.18842 -5.47284 1.98121
1752 1 22.0246 16.7404 -21.2652 -1.89416 -1.50604 -0.987023
1775 1 7.58372 12.5438 -10.6323 1.9069 -3.78051 -0.0778307
1776 1 10.0667 13.2734 -1.09481 1.84578 1.04198 0.763521
3604 1 9.98051 11.5548 -21.3636 -1.22413 2.84708 -0.0497801
1787 1 4.99184 19.9078 -13.2755 1.75303 -1.15141 -0.499576
87 1 1.59497 17.8266 -7.63385 0.976272 -0.968639 1.27128
878 1 7.43435 12.3998 -22.8182 -2.12166 7.27338 -1.63623
801 1 20.0744 16.5817 -0.201548 6.4513 -5.08811 -2.71132
3765 1 22.6953 46.3059 -1.52584 0.920773 -0.596171 -0.609223
1482 1 5.27806 23.4192 -23.109 0.461114 0.559615 2.18894
2352 1 -0.049104 22.0534 -23.8019 1.49374 -2.68716 -4.38105
3902 1 11.8958 11.253 -7.06378 -4.26595 -3.37825 3.05703
1921 1 16.1732 14.168 -5.5201 2.57548 2.19785 -0.282797
1943 1 2.02408 16.0996 -3.50553 -0.75744 -1.53541 -3.82072
1950 1 21.9501 23.5094 -6.26058 0.466354 -0.218482 5.97075
1964 1 20.1903 24.8977 -17.5395 0.317167 0.994215 1.32303
1981 1 15.5004 22.4169 -2.30847 0.892099 3.20333 1.13559
1993 1 2.3127 14.0754 -14.288 1.59739 2.30737 -0.418894
2027 1 4.81848 16.927 -11.0818 -5.77852 1.06028 5.79473
3272 1 2.43905 12.547 -5.40395 -1.07221 0.365454 0.802386
2048 1 1.50134 13.5942 -16.9807 -4.81638 -2.20448 5.51885
2049 1 15.8854 20.6707 -18.2354 -1.93367 1.59159 -6.83697
2089 1 8.01797 13.9635 -18.8712 0.0345061 4.35563 -2.33455
3073 1 2.71081 22.4265 -0.479142 0.827262 -1.74686 2.17097
2138 1 15.2007 21.6738 -15.4757 -4.78143 -3.76522 -0.967257
2152 1 8.11642 22.8089 -5.48943 3.50979 1.86065 0.956895
2165 1 18.9875 18.722 -15.5003 5.60989 1.29694 1.23119
2480 1 0.259469 21.3995 -8.53559 3.0115 1.4617 -2.14758
2184 1 14.6791 16.025 -19.3549 -2.53556 -1.52618 0.653346
2189 1 3.34776 18.9947 -9.58587 2.69081 -2.41932 -4.04408
2198 1 4.07479 14.9196 -5.3761 1.45305 -0.623505 3.35705
2208 1 16.5982 22.3887 -4.88829 -0.104203 4.00462 1.36286
2215 1 9.89428 18.3565 -2.26283 4.5609 -4.52322 0.892299
2220 1 0.0753876 18.6532 -15.131 0.99209 -0.585427 -10.1883
2230 1 1.77406 20.2337 -1.8971 -2.83276 2.93979 -2.71538
2238 1 14.4709 13.7535 -16.0475 3.2321 1.06925 1.98162
2243 1 10.5485 23.3781 -10.937 -0.906811 5.15506 -0.384765
2808 1 4.2817 46.6107 -11.2493 4.18122 1.23824 0.553924
2246 1 2.00846 18.4544 -17.3093 2.41568 5.89004 1.13535
2256 1 15.3731 18.8372 -21.5173 2.92373 7.58095 0.190191
2260 1 20.2424 17.382 -17.7091 -2.50721 3.61649 2.46026
2345 1 6.54448 14.9268 -14.9441 -3.95319 -1.23695 -1.46123
2394 1 17.4801 17.9557 -6.76005 0.00930962 -3.97167 0.462499
2402 1 15.8668 14.4144 -21.4577 1.36139 -1.57598 0.291648
4352 1 10.4082 44.0952 -1.21158 -1.20211 0.051184 2.38105
2432 1 16.4127 12.0572 -19.4845 3.18649 0.886978 -1.63197
2452 1 11.8282 17.1785 -13.8952 -0.401323 -1.78909 2.88611
2464 1 9.95586 19.2909 -14.7304 -2.69449 -1.62386 3.01628
2963 1 22.299 12.2141 -4.48958 -5.25046 0.862427 -3.97528
2489 1 7.13382 20.6874 -11.0925 5.54971 2.65256 1.51516
2493 1 18.6091 24.1733 -19.5936 2.95214 1.49635 0.0432002
2503 1 14.974 17.133 -1.30898 4.17855 1.13543 -2.43245
2508 1 12.6105 24.1618 -8.92644 0.623436 -1.71473 -1.81908
2524 1 7.8366 20.5259 -20.7552 0.478201 0.321566 -2.93588
2549 1 5.02052 12.7453 -14.6365 -3.02344 1.28708 -5.71878
2554 1 16.821 24.5662 -7.08959 -0.653375 4.61013 -2.62755
2555 1 4.27782 17.7112 -6.24271 -0.699731 -1.39001 0.417221
2577 1 13.1644 20.6487 -2.39634 1.59248 -0.861037 3.64595
2640 1 4.3592 13.9266 -19.9317 -0.543338 -0.512918 -0.158855
1348 1 3.35562 11.4702 -16.5124 0.750749 -5.26021 -7.66754
2676 1 19.422 21.4869 -19.9261 0.92766 -0.274944 1.9892
2693 1 6.7333 20.9609 -17.4408 0.230793 -3.16141 1.32675
168 1 21.4379 23.1935 -3.3175 -1.13541 2.14 0.651787
3473 1 22.3558 23.3838 -21.2147 3.69823 -2.00598 3.14742
2764 1 8.96619 22.9692 -14.3452 -4.81378 -0.163134 -2.97134
2791 1 19.2687 13.9646 -5.08062 0.138021 3.41655 -3.51209
2794 1 6.00143 16.9356 -8.44168 0.821284 1.14726 -0.899314
2795 1 19.7062 12.9808 -18.6965 -2.85105 -1.66393 -0.112343
3482 1 15.9686 19.6365 -1.90184 0.30693 -0.539988 -2.28463
2810 1 6.41005 23.936 -15.2038 -3.63847 1.05943 1.1286
2825 1 12.3537 20.2624 -10.7316 4.67174 1.1176 1.04994
794 1 5.16484 15.643 -23.74 2.29017 -2.89386 1.36862
2916 1 14.8408 20.9839 -9.21358 -0.346675 -2.54989 2.02662
2074 1 -0.0703205 12.3347 -13.3975 1.03653 -2.08994 2.27147
1424 1 21.3288 11.6708 -8.84717 -4.67538 0.372812 0.890629
2978 1 13.7906 17.6325 -16.0435 5.89759 -3.91767 3.18159
2989 1 20.7673 17.9816 -13.3605 1.3808 0.63257 0.83371
119 1 16.8477 13.4844 -8.32686 -3.97738 -2.42047 1.16668
3004 1 17.3679 16.5348 -18.238 1.2417 1.46971 -1.38632
3023 1 4.37141 17.8767 -3.3902 1.50472 1.69255 0.512215
3063 1 9.53675 23.9994 -18.0633 -0.258821 -0.216254 -5.78195
3067 1 16.3204 14.9037 -14.0345 -1.1763 -2.89378 -2.41064
3068 1 20.8169 19.2025 -1.34583 -5.07363 2.09991 2.19807
4252 1 9.68769 25.8321 -0.00180632 -1.45463 0.990477 3.5382
1526 1 20.6738 24.019 -0.529255 -2.1782 -0.115634 2.78183
3142 1 1.28131 25.7927 -22.7733 2.85153 -1.9969 2.59339
3143 1 19.9236 24.8286 -21.967 5.5012 -6.10644 -0.541572
3183 1 19.8639 16.8095 -5.46004 -0.499155 0.443577 -1.08774
3206 1 14.1089 12.2061 -4.52926 0.783958 -2.68922 -2.34164
3227 1 5.42806 22.4663 -5.23438 1.41539 -1.00671 -4.31212
3238 1 20.7332 20.6797 -6.24382 2.8868 1.45089 -0.58834
3244 1 21.3083 16.0767 -15.4263 -2.87523 -2.50295 6.54753
3269 1 7.23249 17.4954 -2.40887 0.974028 4.35731 -5.24589
1405 1 19.1911 20.8165 -23.0068 0.146023 1.28399 -1.34084
3284 1 14.0135 24.6013 -19.5907 -2.84527 2.67782 -1.42967
3285 1 2.30557 22.5063 -16.4367 -3.18131 1.36611 4.06556
3291 1 20.833 22.7593 -13.8268 -2.34965 1.61867 1.34531
3339 1 11.1665 18.0776 -20.0652 1.3727 -4.74773 -4.70532
3341 1 21.2928 20.269 -17.7367 -1.9569 2.24829 4.47029
3345 1 12.9816 22.1751 -22.7955 -2.01154 -1.15081 2.00773
3349 1 12.4493 17.4476 -11.0966 3.74131 1.08321 3.43809
3421 1 9.22194 16.1637 -12.9288 0.702683 1.55818 -3.81194
868 1 0.0395854 18.0467 -2.83033 1.26641 7.50503 -0.4455
3434 1 12.1776 15.0674 -9.37128 0.489057 0.609495 3.06557
3437 1 12.6049 16.2144 -6.69054 0.00596402 1.63827 1.11602
3440 1 2.98679 21.8595 -9.06796 0.335448 -4.15554 -0.208847
3449 1 6.87661 24.9366 -17.8426 3.66755 -3.2673 4.21721
3456 1 9.331 23.069 -20.8506 2.93973 -3.77947 -0.279737
2670 1 21.9407 23.2012 -18.4786 -0.988562 -1.0631 1.8828
3483 1 11.5194 22.5821 -0.891036 2.31872 -4.87897 2.6374
3488 1 14.6887 14.7105 -12.0757 2.72401 2.34682 -2.08799
3500 1 19.5479 17.3918 -8.66952 3.31093 0.288616 2.44868
3521 1 1.23257 16.6769 -13.292 2.20485 2.08931 -3.30943
3820 1 21.5802 13.7372 -6.82637 -0.491357 3.4478 -2.10344
3526 1 10.2096 17.548 -6.68676 1.02063 2.14894 0.519646
3539 1 12.492 24.1682 -13.0707 0.0710603 -3.73956 -1.46513
3546 1 20.5623 13.6159 -11.1091 1.41778 -1.9432 3.00159
3554 1 12.5759 14.3841 -13.9884 3.27486 1.71765 -6.83703
3599 1 11.9284 14.1887 -4.87311 -2.6884 -1.47041 9.45895
4342 1 5.80629 46.5603 -8.87064 -4.87002 0.752202 5.18613
3608 1 18.585 21.1101 -17.0336 -1.1205 2.58149 5.6027
3644 1 19.1207 21.4962 -3.91737 0.594059 -4.69897 1.55034
1816 1 0.886505 17.7375 -10.6706 -2.1363 2.24569 1.25365
3657 1 22.7984 22.7195 -11.3323 -0.472543 -1.42349 3.10881
3667 1 12.7342 15.4902 -17.545 2.17995 2.93367 0.992605
3676 1 15.3033 16.7145 -10.3635 -0.532242 2.22846 -3.70878
3894 1 10.7814 12.2769 -13.9293 -8.12204 0.338899 0.519733
2421 1 22.5713 16.5812 -6.98676 1.88849 3.1416 -6.1308
3693 1 4.91656 22.7568 -2.36138 -0.0898989 -1.08129 0.838313
4351 1 10.0003 46.6499 -1.92035 2.3058 -0.62823 4.0222
3712 1 14.1628 24.089 -5.33441 0.318713 -0.70596 1.05754
3734 1 15.2586 16.2063 -7.66607 0.453839 3.05504 -0.432771
3750 1 11.0771 24.4805 -15.6647 -2.52673 -1.33595 -2.40879
3778 1 2.84284 13.0748 -11.6202 0.540216 2.69099 1.74755
4223 1 0.894401 45.8655 -8.13559 -4.54105 2.01348 -3.47274
3787 1 9.24155 21.4201 -16.7833 0.511502 -1.35268 -4.88235
3789 1 18.7467 23.3361 -15.4722 -3.37805 -2.753 4.8188
3799 1 17.5718 22.9317 -11.5296 1.34331 3.10868 -1.22703
3801 1 2.70441 15.4265 -10.0506 2.89536 -0.413237 -1.56825
578 1 23.0247 21.0442 -22.922 1.27987 0.307843 -1.3153
2892 1 21.7226 19.8885 -11.404 3.06617 1.99296 0.0523814
3854 1 17.1061 14.9879 -1.4488 0.478593 -2.28697 -2.89177
3883 1 22.822 15.4598 -11.4961 -2.23521 2.31023 -2.17468
3564 1 19.7995 13.8149 -15.777 -1.76657 4.82277 1.09632
2392 1 9.27759 47.0366 -15.2711 -3.46917 -1.25459 -3.97417
3927 1 12.6195 17.7761 -2.74257 -4.31518 -2.26092 -3.8317
1444 1 12.4732 19.4167 -22.5041 -1.95344 -0.714029 -0.225026
3948 1 9.90054 16.15 -18.0266 0.16966 -2.46162 1.4818
3986 1 16.5297 17.3719 -15.5385 1.39768 0.731064 -0.885025
4123 1 0.601263 28.0241 -4.95447 -0.494778 -0.285044 -3.20527
4124 1 1.37888 25.3903 -6.36725 -5.17074 -0.731661 1.34901
2928 1 22.5355 46.4865 -10.0231 6.32837 -0.878634 -0.716917
4128 1 0.990566 25.8122 -9.17682 -1.58671 2.17655 -4.04052
4135 1 0.825905 27.5973 -2.2754 -1.61034 7.68254 -0.0557486
4136 1 1.9241 25.0499 -1.3768 -4.11201 5.72081 1.79629
4147 1 0.756094 32.3623 -5.32707 -4.95713 1.68439 0.416115
4148 1 1.97108 29.9243 -6.29353 2.7332 2.8621 2.59367
2865 1 3.48453 12.8409 -0.148684 -6.51763 1.99096 4.21091
4152 1 1.91166 30.5655 -8.92389 -1.70195 -1.25823 -1.51417
4159 1 0.966206 32.2231 -2.47923 -1.74513 -1.57833 -1.39499
4160 1 2.29122 29.9432 -1.46905 3.2448 1.55372 -1.17234
4171 1 0.778551 36.7069 -4.80378 4.5135 -2.31052 -2.47338
4172 1 2.24368 34.6422 -6.16311 0.772968 -1.82685 -0.683195
1849 1 12.0139 46.8333 -12.5486 -3.49438 -3.68408 -5.6715
4176 1 1.92527 34.8044 -8.93171 0.812998 -5.10093 3.60564
4183 1 1.10665 36.8512 -2.1695 0.936813 3.6764 2.35523
4184 1 2.30761 34.5167 -1.45817 -9.0197 -0.443205 -2.22676
4195 1 0.640153 41.1144 -4.82418 1.6485 -0.830885 -1.82663
4196 1 2.11226 39.2008 -5.95922 -0.404983 3.43913 -1.48811
759 1 -0.0602983 14.0562 -9.43443 2.04969 2.28181 -1.56814
4200 1 1.88598 39.1814 -8.81145 0.265763 -2.88714 0.724871
4207 1 1.22869 41.3961 -2.06097 -6.9345 -6.50044 -4.83489
4208 1 2.55888 38.9992 -1.39112 -5.33138 -0.0144025 -1.50896
4219 1 1.0352 45.5058 -5.03568 0.904222 -1.34587 -1.62203
4220 1 2.27658 43.2863 -5.67425 -3.72947 2.07141 0.94653
1353 1 6.10882 21.4838 -0.22609 0.191247 2.83012 2.34605
4224 1 2.04437 43.4428 -8.62182 4.42585 -1.43879 -7.40183
4231 1 1.64567 45.6501 -2.01075 0.75573 3.92453 1.31449
4232 1 2.82839 43.3426 -1.02121 0.428353 -1.96971 2.43817
4241 1 4.21654 25.1543 -5.85086 4.39002 2.60064 2.09083
4242 1 5.69043 27.7783 -6.44054 1.66194 5.86379 2.76024
4243 1 8.43559 27.6004 -5.6519 0.422969 -3.71468 0.208445
4244 1 8.99229 24.9617 -6.74804 0.92443 -1.46272 -3.74539
4245 1 3.51454 26.0529 -10.4519 -2.08249 1.1644 0.348274
4246 1 5.41933 27.9263 -9.27508 -1.52506 1.59055 0.811502
4247 1 8.10524 28.0499 -10.2645 2.90823 -2.72751 0.435736
4248 1 8.54268 25.4373 -9.57431 -0.35711 -3.83724 3.66002
4253 1 4.52294 25.5011 -2.9737 -2.71727 3.08977 2.03663
4254 1 6.20421 27.5019 -1.73452 2.72318 1.7616 -3.58729
4255 1 9.2882 27.201 -2.54716 -0.568983 -3.21682 -0.00659866
4256 1 10.9093 25.3089 -3.81395 -1.19665 -1.51753 4.46431
4265 1 4.57109 30.0476 -5.46553 1.71192 -3.4641 -1.249
4266 1 6.28047 32.317 -6.46212 -4.253 1.8842 1.89875
4267 1 8.68743 32.4168 -5.41044 -2.0413 -0.624573 1.30424
4268 1 9.81967 29.9497 -6.44645 -3.0002 -1.17053 -0.215949
4269 1 4.36201 30.5569 -10.0793 -1.20293 -4.20042 0.872127
4270 1 6.17867 32.5007 -9.19036 -2.90118 -2.83181 -2.55867
4271 1 8.67781 32.555 -9.90538 -5.15766 -4.3809 1.64288
4272 1 9.55951 30.0129 -9.2468 -2.51208 0.698036 3.30567
4277 1 4.94371 29.8441 -2.47548 3.16803 -1.14439 -0.49539
4278 1 6.42947 32.0115 -1.47551 -2.11594 -6.87892 8.4998
4279 1 8.94908 31.9615 -2.69955 0.0973045 1.16122 3.44453
4280 1 10.2677 29.6732 -2.09243 -1.26169 -2.58778 2.70384
4289 1 4.85782 34.2069 -5.32661 6.0084 3.60731 -2.46256
4290 1 5.80609 36.6201 -6.36666 7.32407 -2.43453 0.165104
4291 1 8.38672 37.0612 -5.52458 1.85962 0.223463 1.36116
4292 1 9.58852 34.7315 -6.44418 9.12575 -2.09897 -2.61014
4293 1 4.48244 34.6114 -9.93598 5.3171 -2.03294 5.92183
4294 1 5.89677 36.9943 -9.18788 -1.42899 -4.29214 -2.03012
4295 1 8.65336 37.2673 -9.63396 -5.09181 2.97974 -1.40996
4296 1 9.96914 34.9943 -9.35005 -0.944869 1.1254 2.30469
4301 1 4.9789 34.0747 -2.46949 -2.18871 1.73239 2.6254
4302 1 6.08079 36.4295 -1.52122 0.980489 4.42849 -1.6518
4303 1 8.61276 36.933 -2.7425 -2.58554 -2.21284 -0.378358
4304 1 9.44744 34.4753 -1.84553 -0.939634 3.73834 -3.2281
4313 1 4.70336 38.9995 -5.27949 -2.42303 -3.36087 -1.83222
4314 1 6.05844 41.1525 -6.30492 -4.46054 -6.3074 1.87065
4315 1 8.46393 42.4418 -5.11698 -3.67481 4.07028 -3.56317
4316 1 8.65076 39.6116 -6.27499 5.10577 3.43673 -0.0936828
4317 1 4.41909 39.2424 -9.4398 -0.986948 0.062668 -1.19413
4318 1 5.72327 41.6936 -8.99926 -1.3623 -1.27579 7.04417
4319 1 8.23163 42.1314 -9.95182 1.83979 -5.09625 -2.74799
4320 1 9.33398 39.7767 -9.07917 1.42262 -1.42457 -2.76658
4325 1 5.02998 38.7217 -2.60977 0.4033 -0.272931 1.75942
4326 1 6.52583 40.8018 -1.13746 1.54978 -5.49457 -0.914908
4327 1 8.95869 41.7902 -2.29946 3.6996 3.9292 -0.619456
4328 1 9.27213 39.247 -1.1701 3.87763 3.21806 1.76858
4337 1 5.15924 43.5264 -4.8921 1.23426 3.71593 -3.5433
4338 1 5.06399 46.2188 -6.13498 -1.97484 8.14406 -0.531374
2802 1 4.99327 11.6357 -10.348 0.487539 -6.60497 3.30489
4340 1 9.16639 44.7204 -6.43897 3.03411 -3.76733 4.23958
4341 1 4.43261 44.0608 -9.7893 3.07623 1.93182 0.449412
1689 1 3.8342 46.9079 -0.570388 2.15036 -0.280905 -3.13782
4343 1 9.24684 46.366 -11.3492 -6.1969 -3.33188 -3.0157
4344 1 8.13855 45.0451 -8.99572 -2.78792 1.27053 1.52509
4349 1 5.31483 43.151 -2.10118 1.30946 -3.53373 0.500422
1735 1 -0.0555662 18.2286 -19.3518 1.92238 1.42695 -6.09961
2351 1 17.5079 12.4105 -14.3968 -1.58923 -1.8471 0.125194
2244 1 22.7449 21.2914 -15.2822 0.668301 -4.61284 -1.73572
1810 1 11.7129 46.2801 -6.08206 3.09898 1.53864 -0.625417
3691 1 19.6212 47.2233 -6.0735 5.02169 2.03092 -2.54791
925 1 2.72926 11.6811 -2.668 0.534374 4.73063 -1.07473
2603 1 22.6568 19.0388 -5.32663 1.24201 0.980151 0.983171
974 1 -0.176574 22.6471 -12.7941 -0.655798 1.84979 -0.269934
1026 1 0.662386 11.5142 -10.7551 -2.85699 -0.289765 -0.894198
656 1 -0.513052 23.5383 -10.0384 -5.22743 1.13793 -2.87627
2992 1 19.9576 11.3681 -12.7426 -1.39187 -1.48393 -1.22217
2033 1 10.2682 15.9679 -0.480452 0.791461 -1.91737 -2.46952
1069 1 23.3657 16.0578 -23.9654 -3.33474 3.42413 2.67735
6 1 1.94121 17.9779 17.8709 0.874003 0.466424 -1.46475
7 1 6.26793 22.981 8.52797 -4.64006 2.06244 0.634176
18 1 20.9676 23.5832 2.40771 2.80635 -1.29646 -1.89572
25 1 6.91399 24.5213 15.9243 0.354676 2.28901 -2.93226
473 1 4.03246 12.3002 12.0007 -1.7851 -2.11978 -3.60616
49 1 22.8486 14.1899 3.15208 1.26842 0.40319 0.0203892
3938 1 18.1122 11.639 16.2142 -4.32962 1.18406 -0.795917
103 1 17.9453 24.2072 22.0435 0.957392 0.404196 -4.31503
123 1 11.0555 14.9952 6.95826 1.93434 -4.27002 -5.99845
138 1 11.7361 16.92 4.78805 -1.73235 2.13615 -2.67604
147 1 8.03377 20.5014 6.14919 4.78147 -5.53857 -4.15699
175 1 8.84939 17.7106 5.4331 -3.14762 2.23168 0.157442
185 1 20.1084 22.3872 16.325 -1.99295 -4.92652 -1.8854
202 1 12.5128 13.4137 11.7605 2.49893 2.56862 -0.629887
215 1 9.42526 23.0803 16.4886 2.89625 -2.98854 3.07186
217 1 3.64004 22.8722 9.47998 -2.12082 -1.09902 1.2485
220 1 5.24191 21.0491 17.3693 1.9516 0.122479 -1.73836
227 1 16.1035 18.4928 3.75223 0.83954 2.07738 -2.20527
262 1 18.501 17.824 9.45708 2.12071 -1.19421 2.20043
281 1 15.1483 19.7694 12.5202 -0.174506 4.23055 1.83437
4348 1 10.5199 43.3572 1.42705 3.95857 1.48421 1.64904
288 1 19.0466 24.6882 3.94406 3.23048 4.41056 6.55572
310 1 0.701295 13.243 14.6498 -0.869157 1.51013 -3.18573
328 1 16.0583 18.5341 15.1609 -3.42057 1.4159 -2.03458
2756 1 21.4826 12.0246 20.6255 1.30899 -1.10856 -3.21803
3930 1 12.9636 20.2843 0.585872 3.1571 1.93194 -3.32215
418 1 19.9631 20.572 5.38304 -0.808992 5.74624 -2.48494
435 1 1.56126 23.3354 7.25407 0.133108 -1.38224 -0.75651
443 1 18.2335 24.0452 15.0269 -0.429661 0.430982 -1.77496
447 1 7.43747 19.6066 13.3764 2.34952 3.39373 -1.36263
3911 1 21.2496 18.6556 1.65468 3.04048 2.25905 0.371104
457 1 8.00817 21.1969 17.9672 -4.18728 0.892453 -0.633603
4324 1 10.4617 38.949 1.17956 -4.21275 2.35964 -0.996577
463 1 5.86578 15.5222 10.864 -0.958243 0.731137 -1.48676
4300 1 10.0038 34.3395 0.799919 0.77618 2.27996 2.08734
487 1 1.90048 24.0029 18.3147 -4.14195 4.52867 0.306742
566 1 19.5521 15.0582 13.9175 -0.296658 6.56839 0.544169
1716 1 16.2033 46.8526 22.667 -6.60103 1.2428 -0.951863
627 1 20.1683 13.9688 10.1595 -8.61984 0.464338 -0.0403577
646 1 14.5087 22.935 15.7066 -3.13282 -0.436008 -1.11469
2751 1 10.5703 45.6666 8.09759 0.996353 -1.18642 -4.72837
671 1 20.0351 15.0912 3.45962 0.659469 0.919919 1.05978
715 1 1.88495 17.6628 10.9204 1.64439 -1.5754 -0.884135
725 1 3.19022 18.6572 22.7501 2.259 -4.49443 -3.60342
1108 1 14.4218 12.3554 22.344 2.85328 -0.725433 -0.240968
4360 1 11.1056 42.9164 6.80147 1.08806 -5.08078 -3.2029
762 1 4.77169 17.1209 20.7483 0.425385 -1.37748 2.19981
769 1 13.8751 23.9143 18.3988 2.3519 -0.902419 1.24319
774 1 17.385 16.679 13.3715 -1.73719 1.09995 -1.8047
805 1 9.90149 25.0477 23.3139 3.73576 0.531591 2.81828
1474 1 2.60474 22.9843 23.7972 -2.28855 -3.22451 1.80387
820 1 1.9446 14.8949 9.09179 2.98639 -1.80795 -3.0241
829 1 16.6814 15.3529 20.7927 -4.94168 -1.07986 1.59489
870 1 16.4095 20.8529 19.1558 0.534341 0.294248 1.06744
875 1 20.7651 14.6758 7.34517 -0.169422 1.24431 0.773103
880 1 3.52434 14.798 22.036 -0.0457529 -0.112708 4.47639
3683 1 5.5772 12.0448 4.05519 1.25871 3.97391 -1.55138
927 1 7.21738 14.0843 18.5565 0.0638446 -1.31243 0.0752816
936 1 8.18779 13.9523 12.3198 1.86938 -1.48947 0.670942
937 1 0.634682 14.1482 20.7812 -5.54129 -1.07804 -4.61936
958 1 1.57413 15.1422 18.2531 -1.75538 -0.529822 -3.09767
980 1 4.12117 20.4303 11.1572 1.09922 1.30196 -4.28396
1726 1 16.9316 20.5905 23.5553 0.919757 -1.8336 1.70933
1019 1 6.12582 17.2721 5.60383 -0.0441963 -1.37704 3.03347
1050 1 18.7507 19.3103 18.033 0.144074 1.70259 3.05296
1063 1 -0.16491 19.697 9.80458 -3.14923 1.48774 -1.2158
1097 1 16.5139 22.2119 13.7744 -4.09065 -1.60522 4.21423
4357 1 5.78276 42.9386 5.10288 1.21669 2.68048 -5.24922
3230 1 23.0647 13.3483 22.9344 3.18537 0.604817 -2.29339
2940 1 14.3763 17.849 1.25614 -1.56283 -5.3883 -1.48234
2416 1 6.46172 12.4885 10.3132 -0.389823 2.66533 -0.0951419
1142 1 7.08884 13.8121 7.85053 -3.62019 2.3093 -2.29109
1145 1 2.42186 21.1563 21.4077 -0.512362 -3.84589 1.25438
1146 1 9.91536 17.577 19.6817 -1.14012 -6.87013 1.46413
1170 1 3.31944 15.2115 11.731 0.0746972 5.5161 4.69095
1184 1 6.18287 20.4804 22.491 -4.7979 -1.24832 -2.05905
1189 1 12.4472 14.3714 3.64569 -0.094187 3.90123 -2.0605
1222 1 21.4731 21.3309 11.31 2.62531 3.26989 3.56538
1234 1 14.6535 12.5927 4.49917 7.28499 2.34007 2.47353
1235 1 10.9609 20.2307 2.64372 2.64305 -3.9374 1.23655
1297 1 15.2734 13.8027 15.2929 -4.20255 1.57986 -4.16339
1313 1 16.053 18.001 22.0821 2.99536 2.57671 -0.87088
658 1 19.2198 12.6709 12.4697 -3.64824 -3.49672 1.49068
284 1 0.698505 14.9642 1.1422 -2.72702 -1.23951 -0.574862
1352 1 6.71056 23.3802 20.0247 1.26927 0.853342 2.72273
1362 1 19.2368 21.8739 7.89947 2.09896 7.09491 2.24418
1381 1 17.5348 15.0764 9.65187 3.07365 5.01351 -5.11845
1414 1 6.7023 23.7645 5.82284 0.866818 -4.94129 5.46628
1759 1 21.4665 11.2425 9.76269 4.53366 -1.25801 -2.27659
1468 1 18.8225 24.1456 19.4402 5.61712 1.95184 -2.51287
360 1 5.90742 16.5809 2.61066 -0.330868 -0.395506 3.91204
452 1 22.7847 16.3691 0.930023 0.350395 -0.890692 1.47653
1528 1 9.16982 14.6429 16.4504 0.660679 -0.0699966 -1.63824
1530 1 15.7323 15.0057 5.39333 2.57838 2.92195 1.35405
1533 1 12.6753 20.6291 11.6498 -2.08076 1.34258 1.00308
1538 1 7.10892 16.6538 16.9887 4.51841 -3.96808 -1.43639
1559 1 21.1616 17.7639 4.43354 -2.31278 3.21718 -2.81434
1569 1 7.30408 14.3372 3.68461 4.46398 -1.43054 2.51907
570 1 22.0968 12.565 16.3388 -3.49034 -2.17446 -0.588014
1598 1 2.48426 13.0006 2.607 -7.44519 -3.53026 6.25728
1618 1 11.3397 15.8946 14.921 5.98464 -0.420534 4.21373
1619 1 14.6935 12.8593 17.897 2.73111 -2.79674 3.71154
4359 1 9.87871 45.177 5.32738 -2.60299 7.133 0.107276
1639 1 11.2382 13.3521 19.6489 6.07595 -0.0838346 4.53883
1684 1 5.73998 14.9693 15.3179 -0.913797 -2.6712 2.40875
1713 1 21.8976 16.0185 11.3204 -3.7643 0.49677 -0.703343
1715 1 13.6188 20.2593 16.332 -0.470574 3.14294 3.52703
740 1 16.915 11.5205 18.9929 3.2999 0.836606 -3.8541
1740 1 2.20132 21.1378 18.5235 2.18698 -1.38806 8.64863
1741 1 8.90551 13.7779 23.03 -1.32228 5.73657 -2.23654
1750 1 16.8554 23.7826 11.2037 1.32994 -8.14847 4.39721
1762 1 2.74325 20.9679 3.36237 -0.0689718 -1.09712 -5.76671
1767 1 10.7709 23.7238 18.9746 3.57258 -0.529023 -1.08494
4234 1 -0.303121 45.9258 9.52001 -1.92506 -0.531199 3.27336
1773 1 18.0252 15.5129 6.94563 4.31267 1.45486 0.856921
1797 1 1.58604 17.7089 15.083 -1.68986 -0.662556 -2.32455
3818 1 11.3366 17.7385 23.6766 1.50872 -1.50895 1.42428
1821 1 19.1756 24.9764 12.473 0.0309338 -1.88927 3.84016
1829 1 2.26933 17.6974 5.57817 -0.629396 3.42011 1.10764
1835 1 4.75187 23.8171 17.7744 -2.65263 -1.44337 -0.357721
3460 1 0.470259 21.2502 16.174 2.54146 2.61555 3.59859
1839 1 20.8222 25.6936 5.7066 4.30404 2.75732 2.71241
1866 1 8.39697 22.1418 12.5212 1.64876 -0.617261 -3.42128
1884 1 15.2366 14.516 8.17359 -6.98984 3.13722 2.60842
1886 1 20.382 24.3969 8.04152 0.247604 -1.03519 0.853972
1922 1 9.11945 14.919 20.492 -0.204493 1.59138 -3.69125
1929 1 7.88704 19.094 2.85103 3.87489 -1.19204 0.84155
1957 1 13.1409 16.3183 8.5624 3.97195 3.34612 2.93893
1984 1 -0.134694 19.215 19.5008 -4.0433 -0.45919 -2.82408
1988 1 5.80015 20.2002 7.96694 -2.00852 2.09408 -0.279293
1992 1 12.4432 23.8898 3.77986 0.330357 1.88524 -1.71621
1997 1 21.241 24.1624 10.769 0.135143 0.733749 4.45087
1682 1 5.6512 11.572 1.37983 0.149548 1.70274 -1.70424
2022 1 17.6652 25.1085 8.85153 -3.03746 4.71191 3.13567
2026 1 8.66299 21.7708 9.66049 1.0411 -7.55471 1.8026
2055 1 3.36477 17.489 8.28884 -2.38566 -2.15217 0.439026
2084 1 14.3497 18.7316 20.0263 -0.979816 0.94017 1.92563
2088 1 8.48035 21.0771 20.5656 -0.991627 1.90642 0.231614
2886 1 12.0937 24.6666 0.957408 2.28148 -0.309368 2.37952
2134 1 12.8646 21.1187 8.01062 0.354469 -2.28212 -0.424713
1430 1 -0.437839 18.6237 6.89161 0.342279 3.16808 7.44278
2177 1 18.6023 16.4514 18.0862 3.71348 -1.62065 -1.71903
2197 1 15.6795 22.2708 21.5731 4.47963 0.655254 4.58107
2240 1 13.2916 17.4512 16.7096 5.98796 -2.07822 -1.61172
2254 1 5.25887 20.6959 14.677 -3.31838 -4.28241 -6.25078
2281 1 17.3039 12.7165 21.9531 -1.53404 3.21056 1.12564
2287 1 21.4857 17.1857 13.9907 -0.317218 6.36308 1.24248
4356 1 12.432 42.5674 9.39127 -0.0606207 0.966452 -4.33181
2300 1 8.12994 13.0053 1.13563 -2.22819 -1.02159 4.42963
2304 1 8.76085 16.1952 7.86903 3.23618 -3.89135 0.150583
2309 1 19.5054 15.9621 20.8374 -2.12595 1.51715 -0.274234
2343 1 8.7203 22.0067 2.61437 4.37709 0.574463 2.22988
2344 1 14.6721 25.4354 4.55541 1.15162 -2.06188 -0.48159
2360 1 13.6305 18.8323 5.01732 0.0669179 -4.19972 4.68028
2367 1 6.93395 19.206 10.5865 1.00289 -3.60162 -1.20997
4355 1 12.1198 45.18 10.3832 3.67266 0.557031 -2.68302
2375 1 10.7215 22.6734 14.0822 4.49727 -0.369983 -0.976018
2388 1 9.03819 24.89 20.7106 1.48174 1.0051 -0.595062
2395 1 4.67197 18.1717 18.149 0.406405 5.18446 5.00827
2272 1 1.04964 13.3805 11.4881 1.1252 2.19816 -3.49235
2412 1 9.59047 18.3192 14.5278 -1.70007 0.625811 1.64277
72 1 23.2272 13.7342 19.051 -2.11241 -1.21712 0.726302
2423 1 12.0047 21.2605 5.0783 -0.190285 -4.18918 2.82943
2444 1 13.5023 21.207 19.022 3.51046 2.51262 -2.55105
2456 1 18.8054 18.6549 21.9454 -3.5724 -1.77313 3.47426
4354 1 7.83226 45.8981 8.63774 -0.96834 3.72742 -2.64007
1004 1 23.4945 23.9199 8.94258 -1.36676 -2.03074 3.82575
2500 1 10.0624 22.1395 7.09385 0.311098 4.15973 0.221627
2501 1 5.14955 14.4495 5.96397 0.867718 0.399531 0.637992
2993 1 21.4206 16.6734 17.021 3.18178 1.5784 -0.035966
2553 1 0.413478 24.134 15.7637 0.861799 -3.13355 -3.9475
2565 1 13.4081 17.6621 13.6768 -0.58136 1.94104 5.22213
2575 1 0.52601 17.0055 3.37404 -1.17371 -0.358557 -2.77726
2576 1 22.1112 21.5097 14.1769 0.543738 0.559701 -1.24959
2582 1 13.6049 23.6849 8.68739 2.78363 -1.06196 3.59664
4358 1 7.03889 45.4482 6.00324 0.918535 1.95813 2.32218
2600 1 4.70713 22.5117 1.92275 2.11304 -1.42628 0.913245
2606 1 14.506 15.8009 19.1713 -4.08757 -0.495989 -1.93658
2627 1 15.8089 24.0474 6.75504 -0.156477 -3.26277 -1.06094
2631 1 17.1704 17.027 0.442695 -2.73389 0.597017 1.12084
2671 1 11.2196 21.7394 21.0955 -0.139341 -2.61942 -0.458058
2712 1 17.3574 15.9063 2.90126 -4.5648 7.25129 5.18977
2716 1 16.2164 13.4489 2.15864 0.483836 4.71841 1.23716
2717 1 10.8471 20.0751 9.90345 -3.73045 -1.934 1.76991
2736 1 13.0815 14.7303 21.6289 6.8888 2.09047 3.57971
379 1 22.8969 24.7099 4.12428 4.15048 -1.94427 -0.355706
2773 1 9.51796 23.8888 4.55545 1.28463 2.15426 5.81183
2779 1 19.665 14.1407 16.5699 -2.84118 4.37544 2.69071
2781 1 14.1764 23.3211 11.3845 2.91928 1.78343 -3.08015
2801 1 2.63956 20.1818 8.81361 1.29016 -1.12946 1.05953
2824 1 7.4598 12.9439 14.766 -2.83533 -3.6399 1.66182
2844 1 22.4181 17.1801 7.19227 1.18343 -1.67234 1.18718
4353 1 6.32026 43.5309 10.0129 -2.3092 -0.438194 5.32811
2879 1 2.07786 18.8312 1.72566 4.47706 2.74794 -2.63035
3836 1 20.9167 14.1115 0.891568 -2.96881 1.42912 1.33112
1333 1 0.763175 11.7503 7.09055 1.48299 0.322524 -3.57034
2932 1 8.77783 18.8019 17.3838 1.79608 -1.54628 -0.808216
3641 1 4.41832 13.1262 19.714 -5.18364 -1.41317 -4.54353
3001 1 11.6412 12.6012 8.83089 1.26532 -0.904946 -0.0199647
3003 1 16.0227 13.1826 10.9985 0.173386 -1.38476 -0.0444602
3035 1 18.3762 17.8494 5.57998 0.746877 0.823907 -0.70571
3036 1 11.8933 18.868 21.1942 -2.36962 -2.85381 -2.24031
3047 1 4.53363 19.6486 5.49332 2.53535 -2.43107 -1.78935
3086 1 14.29 22.127 2.2648 3.61306 -0.878259 -2.62306
3123 1 14.9661 15.1521 12.8169 2.7797 -2.42937 -0.725857
3154 1 6.35326 21.3814 4.04278 5.76045 3.49122 2.06236
3170 1 4.83046 22.9796 22.0109 1.00976 -3.14819 2.55675
3173 1 9.36482 17.6986 10.1111 -2.79167 3.03453 -2.86051
3178 1 17.8733 19.0843 11.9199 -1.60888 -3.47909 -5.1283
3236 1 18.6883 21.6444 10.6448 -0.852945 3.36442 2.1275
3243 1 7.62677 18.2904 21.1839 -5.29068 3.8711 -5.37828
458 1 22.4162 18.9211 18.4046 1.11069 1.37569 1.3741
3253 1 10.1268 17.4023 2.36968 2.6342 -0.158783 2.28451
3259 1 16.9834 21.0134 2.74793 1.46169 1.15252 -5.16533
3280 1 9.88532 16.1319 12.3478 -0.359092 -3.61546 0.89958
1854 1 4.31038 47.0025 11.8154 1.22481 -1.05945 -4.38342
3310 1 17.7172 22.3804 5.15944 -0.647105 -0.414132 -4.1784
3338 1 11.881 19.9783 14.2688 -1.1169 -3.43085 0.611215
3352 1 3.08795 15.4988 3.97323 3.21812 4.78225 3.98431
3380 1 0.530192 17.6321 21.6739 -1.54714 0.238951 -1.98798
3418 1 20.2734 19.5474 13.4366 -2.74926 -4.52959 0.672253
3457 1 19.2307 13.297 19.53 3.44072 -0.391817 0.401679
3467 1 12.5247 13.2768 14.7504 1.41988 -3.81432 -3.17048
3476 1 2.84985 15.1502 14.4798 0.985372 -0.566195 6.0742
383 1 11.0532 46.2556 12.8413 1.93107 0.861337 1.84712
3189 1 14.3216 11.8041 7.49024 -0.866405 6.46465 1.2492
3486 1 16.7425 23.218 17.7495 3.18154 0.219195 1.49117
3493 1 3.69895 13.5619 16.8416 0.0184908 -0.521619 0.757577
3537 1 21.2198 22.8401 19.1624 -3.38118 -4.08898 -1.53232
3545 1 3.46502 18.6375 13.3575 1.5412 -3.95724 -3.47848
3552 1 14.322 18.7895 7.71644 1.67688 2.16549 3.34266
3570 1 12.0866 23.4453 23.0607 0.899152 -0.315695 1.74226
3571 1 1.41462 23.3491 11.244 1.32496 -1.91682 -0.355072
3602 1 1.12062 25.167 22.4451 0.934363 -6.06207 -0.501761
3605 1 18.1975 20.4359 15.3846 -0.107626 1.42671 1.89374
3613 1 2.18775 24.8344 13.6134 0.0358143 3.02083 -3.83807
3615 1 0.759301 22.9408 2.61625 -5.53218 4.18865 1.29498
497 1 8.86663 16.6872 23.1176 -1.38044 3.78584 -3.04718
3684 1 12.8358 15.4693 24.2343 4.44249 -0.106862 4.39177
3522 1 20.6666 14.9123 23.5476 0.781928 0.809003 -1.17613
3664 1 5.89738 17.2468 13.382 -6.65309 -1.66209 -1.66163
1469 1 19.1305 13.022 5.39134 1.36254 -1.98062 2.04518
3713 1 1.50144 20.701 6.16236 -0.519158 -3.46102 0.0909469
3715 1 20.4582 20.1888 20.1488 2.98621 1.97953 -0.0162806
3720 1 16.0487 16.0008 16.7945 -1.45232 1.75907 3.96767
3732 1 17.3674 19.5533 7.66342 -6.19373 3.5449 -3.80696
1115 1 22.3628 19.9349 22.5995 -2.33393 0.30079 -1.14486
3760 1 16.5689 25.2454 2.3531 4.72331 -0.437234 9.20378
3783 1 19.789 21.0241 2.41669 -3.98769 4.56212 -0.61942
3788 1 6.00499 17.4477 8.65324 0.19342 -1.56579 1.57995
3795 1 13.954 24.576 21.2886 1.78249 0.718684 3.8549
3804 1 12.5881 16.1138 11.2934 3.08198 3.99263 -0.677156
1133 1 10.8735 12.232 16.9914 0.210591 1.58552 -1.03523
3819 1 4.30587 22.7374 13.1595 -3.20129 5.40322 -0.303724
819 1 10.66 11.7403 21.9025 0.662737 -0.0440763 3.24249
3837 1 9.73568 13.5077 4.958 2.5463 -1.49866 -6.38167
3859 1 21.2556 17.9975 9.57609 5.18607 -2.11759 0.182432
3885 1 13.0132 24.0086 13.7019 -0.204928 0.594961 1.75177
1939 1 10.8546 12.1492 2.55496 0.533995 4.51728 1.28441
3897 1 5.99742 12.9623 22.8614 -2.10831 1.15369 2.08491
399 1 12.7758 15.4998 1.02227 -6.79449 1.14661 -0.0293427
3974 1 6.71332 24.3286 13.0134 2.77052 -0.00136599 -0.229613
3987 1 11.6626 15.8193 18.1522 3.54871 -2.81381 -4.42999
4131 1 1.24916 27.9472 2.14375 0.455185 -1.51949 0.131973
4132 1 2.22985 25.5016 1.34508 -0.62064 -3.11439 3.27258
4139 1 2.3687 27.1932 8.88051 2.59817 1.19019 0.0751082
4140 1 3.06035 26.5012 11.537 -0.968676 -0.510153 -1.03321
4143 1 0.996008 27.6353 4.87629 0.379522 3.94353 1.10926
4144 1 2.36656 25.8433 6.42929 -1.83959 -2.94329 4.27533
4155 1 1.31612 32.427 2.22453 -0.369583 0.383955 -1.27655
4156 1 2.70127 30.1964 1.54727 0.103707 -1.37095 2.09582
4163 1 1.80291 31.9655 9.69968 -0.0353664 3.83951 -0.278537
4164 1 3.33305 29.8051 8.43031 2.35253 -0.0236447 2.41292
4167 1 1.40155 32.4012 4.90008 5.22706 -2.04638 0.0711627
4168 1 2.79532 30.0016 5.60032 -1.03048 0.219749 -2.40116
4179 1 1.4861 36.5982 2.26422 -0.339973 -1.6632 2.62516
4180 1 2.90237 34.4157 1.37506 -1.79632 1.80473 -0.71717
4187 1 2.21912 36.6417 10.0196 -1.406 -1.91702 2.59392
4188 1 3.18688 34.3106 9.0019 0.708323 -2.097 1.25813
4191 1 1.67864 36.4638 5.07451 -3.11897 -0.286047 1.44369
4192 1 2.99801 34.2033 6.20723 -1.02352 -1.37278 -4.0631
4203 1 1.62791 41.0552 2.37303 1.2768 2.16001 -2.08938
4204 1 2.76933 38.7733 1.35764 -5.68589 -2.89766 5.01327
4211 1 2.01244 41.0839 9.54397 0.447488 -2.94896 -1.97437
4212 1 3.4813 38.7762 8.90629 -5.5618 -1.04651 0.206674
4215 1 1.8137 41.1428 5.34232 0.372631 -3.43917 0.379422
4216 1 3.00726 38.6795 6.26927 4.47432 -3.0471 4.56572
4227 1 1.75853 45.6183 2.73738 0.882329 2.73413 0.969056
4228 1 2.85453 43.3406 1.50864 6.3424 -2.43579 2.02278
4235 1 2.42792 45.0777 10.8441 -3.42837 4.44476 1.52513
4236 1 3.74588 43.336 8.96752 -1.44146 0.806725 1.1611
4239 1 2.11134 45.4258 5.4925 -5.04392 -0.571115 -5.56329
4240 1 3.42534 43.1223 6.25979 0.0697988 0.780939 -2.64839
4249 1 4.9053 25.2411 2.15492 -0.183904 1.18314 3.39208
4250 1 6.51363 27.3471 1.02495 -0.279451 4.69735 -1.37046
4251 1 8.97159 27.4854 2.12876 6.55844 1.62093 -0.582229
3484 1 3.25489 12.8295 7.49193 4.22746 -0.965407 0.972329
4257 1 5.48594 25.078 10.5702 -4.14373 -0.0297265 4.09896
4258 1 6.94298 27.0758 9.1488 -2.67745 1.05373 -1.6442
4259 1 9.52326 26.8218 9.61175 3.11746 -2.27486 3.91325
4260 1 11.1209 24.7928 8.03741 -3.90229 3.01155 -1.95559
4261 1 4.76443 25.6573 5.22533 -4.97751 6.91633 -2.569
4262 1 6.75775 27.3854 6.36392 2.77776 0.0881875 -3.35995
4263 1 9.1351 26.7961 4.91385 -0.117183 1.81977 -0.194608
4264 1 11.9418 26.262 5.60641 -2.44115 0.624153 -1.45851
4273 1 5.28673 29.5974 2.35064 0.088566 0.552939 0.376997
4274 1 6.59859 31.8076 1.39247 -3.45796 4.10841 1.06265
4275 1 9.28845 32.0508 1.99901 -5.86949 -0.383216 2.79965
2887 1 22.121 16.3864 19.6895 -1.52284 1.9832 -1.28042
4281 1 5.89669 29.4313 9.52805 -1.31312 -1.7876 3.0805
4282 1 7.27661 31.8332 8.89703 -3.8033 1.99792 3.14343
4283 1 9.96158 31.6205 9.47503 -1.41774 -2.51619 0.641721
4284 1 10.6211 29.2052 8.72955 4.42511 -1.2938 -0.929701
4285 1 5.54268 29.6082 5.05864 1.27923 -2.28582 1.84321
4286 1 7.02025 31.7642 6.05664 -2.68919 -2.67038 -5.18849
4287 1 9.57027 31.237 4.66905 -2.29998 3.71317 -1.25747
4288 1 11.0159 29.1391 5.94832 0.387546 4.43942 -3.45245
4297 1 5.63393 34.3628 2.42434 -2.59821 -2.82048 -0.353319
4298 1 6.63817 36.7431 1.29473 1.03998 -3.71967 -6.33486
4299 1 9.44406 36.5662 2.31311 -3.80324 1.57573 -2.31135
2209 1 22.2355 22.9468 21.9366 -4.90269 -6.89036 6.10574
4305 1 6.03642 34.2487 9.25448 -2.282 -1.19769 3.51425
4306 1 7.65516 36.4014 8.97119 0.0945838 -1.24547 -1.32795
4307 1 10.2562 35.852 9.15737 0.168079 -0.278605 3.37824
4308 1 11.3216 33.5783 8.30651 0.609858 -0.0645681 5.18588
4309 1 5.75409 34.1088 5.24414 3.0712 2.92858 3.10465
4310 1 7.04352 36.5333 6.31433 3.60238 3.05507 0.314908
4311 1 9.50652 36.1055 5.0989 0.17508 -1.28412 1.56799
4312 1 10.8402 33.7065 5.51065 -5.08468 -2.68226 1.58605
4321 1 5.3254 38.8683 2.64695 -6.60153 -6.24977 4.34033
4322 1 6.73927 41.211 1.60339 2.41921 -1.80295 2.27804
4323 1 9.45391 41.0373 2.61945 1.32379 -5.90117 -3.92081
2847 1 7.38583 15.8252 0.208322 1.93659 2.18337 0.211084
4329 1 6.21491 38.7403 9.29754 2.67848 0.717086 1.79613
4330 1 7.60681 41.2571 9.09053 -2.73144 -3.67854 2.08514
4331 1 10.3309 40.6088 9.29331 -3.13794 -5.07635 1.23841
4332 1 11.5776 38.1735 8.37407 0.998701 -0.12024 -1.93056
4333 1 5.61718 38.6606 5.45828 -2.61424 3.60804 -1.09032
4334 1 7.16878 40.927 6.39662 -0.356797 -1.48103 3.55461
4335 1 9.761 40.9543 5.40657 -0.0991437 -3.96542 -2.85623
4336 1 10.955 38.4616 5.63518 3.99914 1.49263 2.83587
4345 1 5.73708 43.7564 2.43907 3.05074 -0.0202641 1.41641
4346 1 7.15244 46.077 2.09577 0.955641 0.691314 6.82174
4347 1 10.049 46.0092 2.33682 -0.906755 -0.98512 3.20616
203 1 22.984 19.8089 5.98647 2.5308 -0.499267 -4.05516
1823 1 7.03547 46.0056 11.4332 3.6845 5.25246 0.832746
1838 1 18.3338 19.7922 0.053808 1.24967 -0.36446 1.92737
1845 1 20.9122 18.0864 23.7809 2.14124 0.19359 0.590868
2819 1 16.7889 11.9994 13.5457 0.955117 -1.32213 -2.09281
4276 1 10.0605 29.5652 0.801667 3.90581 1.32012 1.84216
2583 1 6.16441 18.6758 0.344417 -2.78921 0.189882 -3.10521
1913 1 0.110506 19.8579 0.254104 3.97761 -1.53263 -1.77331
2409 1 4.71196 11.578 14.811 0.128895 3.76551 -3.86256
2920 1 23.2374 14.3164 6.08189 0.922497 -2.76591 -2.26467
2504 1 9.86534 11.9241 11.3045 1.91632 -0.387696 1.49379
2019 1 -0.0817939 24.0623 20.3739 3.23553 -1.14067 0.118369
1328 1 8.85786 11.8239 7.01417 -0.268958 1.00073 0.031381
84 1 20.0179 23.2893 23.7352 -7.80299 1.76142 4.27482
3192 1 21.9783 11.2778 0.737715 -2.32719 -7.43863 7.24985
180 1 21.9582 20.6251 8.44287 -0.569365 -0.379907 -0.780876
4238 1 -0.317139 45.4299 6.57967 -1.07035 -4.40467 2.54368
894 1 1.99501 11.4369 21.8864 2.53519 0.728166 1.65695
1979 1 -0.172694 21.3158 12.0434 -2.07135 -1.07782 2.87657
3334 1 22.7746 21.2894 17.0662 -5.44081 1.15615 3.31485
1896 1 16.2068 23.0762 0.403509 4.98055 -5.74593 0.324735
2235 1 8.38425 45.7017 14.0545 1.95538 2.64176 -0.0317706
3533 1 17.3863 11.342 4.02071 0.880594 0.54943 1.24412
38 1 21.3675 11.5131 6.99916 -3.51198 -1.50874 3.16421
3132 1 2.87699 11.134 5.087 -1.78716 -0.632392 4.04758
1925 1 22.0022 46.9167 19.0261 0.434887 1.46951 0.982955
3658 1 21.5623 11.6303 13.7081 1.72923 0.386269 -2.60835
4138 1 -0.353836 26.6165 9.67459 -2.48359 -1.61397 -1.09653
2276 1 -0.20798 12.1157 2.45952 1.9974 3.41318 -1.70497
3562 1 18.1167 12.8355 0.160588 -3.8237 8.2673 0.0149439
1029 1 11.6753 11.3342 -0.0149306 -0.74011 -1.39852 -3.12565
1319 1 14.532 25.5101 0.163343 -2.03475 -6.07719 1.13642
1878 1 23.2789 22.9389 0.364424 1.36489 1.50207 2.59311
