ITEM: TIMESTEP
2500
ITEM: NUMBER OF ATOMS
4360
ITEM: BOX BOUNDS pp pp pp
-2.4517116544847468e+01 2.3707952444864979e+01
-2.4664537529453526e+01 4.7180973129453520e+01
-2.4116634354109259e+01 2.4108432754126895e+01
ITEM: ATOMS id type x y z vx vy vz
1 1 22.2448 -21.9194 12.7485 4.90455 -0.315315 -5.14762
3 1 5.03278 -8.23094 23.8407 1.06272 2.69573 -1.68395
4 1 1.47888 -2.48948 -6.23178 -1.58936 -0.041982 -1.61382
5 1 -19.1534 -21.6409 21.9139 -2.55117 1.74074 2.18505
8 1 -22.8956 -13.4659 -14.052 1.84363 0.902918 -0.130719
10 1 -1.81384 -9.00011 16.0145 -3.90331 -2.85045 2.69663
11 1 5.60035 -11.1585 16.2999 -3.04858 -3.54337 -0.096985
12 1 19.8966 -6.22177 -21.8441 -1.94392 -1.77479 -2.1405
13 1 -20.751 -15.1611 14.5089 0.354185 -0.861414 -4.96627
17 1 16.4455 -8.03839 15.525 -3.59287 1.70889 1.67401
371 1 -10.8827 -24.4388 18.0688 0.156666 -0.664196 2.43201
29 1 -8.83752 -12.1397 -9.26574 -5.53755 -2.17013 -0.207708
30 1 22.0737 -2.09651 -22.0167 -4.8396 1.09704 0.854947
31 1 2.63807 -16.4857 -19.3767 8.40565 -0.0739708 0.572753
34 1 -20.5799 -24.1168 16.4958 4.04572 3.90273 -3.24044
37 1 -12.2354 -7.61907 -3.21128 2.08988 2.44913 -1.49282
41 1 6.8191 -5.81987 -10.8804 2.09619 5.32333 -2.68828
42 1 -17.6851 -16.3264 2.12284 2.48981 1.33977 5.9104
43 1 -16.1732 -5.88655 2.22949 3.64978 -1.9711 5.21494
44 1 -5.14288 -17.2344 -8.90512 0.299012 -2.55554 -0.254696
46 1 -23.2517 -20.8849 18.8819 -1.60804 -6.16585 -4.80233
50 1 14.8422 -21.1736 11.947 -1.50484 -4.89781 4.38697
51 1 -7.93575 -3.55037 16.8355 -0.0692113 3.50816 -0.452371
54 1 -17.0153 -11.0009 -8.94592 -1.73388 -4.1419 -0.856133
55 1 -6.31665 -1.92514 -15.8368 1.78996 -4.24387 -0.696157
57 1 -17.0911 -10.6108 -2.24411 -0.711008 2.07586 4.49188
58 1 2.49883 -21.4356 -4.35611 -2.31181 2.28527 -0.746475
62 1 -2.39978 -10.8947 19.3285 1.2204 2.76988 -1.36377
64 1 -10.3269 -2.76255 3.61074 2.09302 -2.85794 -3.84703
65 1 18.5549 -2.12995 7.63098 0.101195 -5.06947 4.93147
66 1 -13.9077 -16.987 -12.9853 -3.20495 1.75562 0.328342
73 1 -12.1664 -16.9334 14.5663 -3.79181 0.381429 -4.2854
76 1 22.7467 -4.88639 2.63728 4.60277 -0.583312 -2.47969
77 1 13.7249 -23.1899 -1.58751 2.39894 -3.0958 -3.33135
427 1 -16.479 -24.4649 22.0102 6.92461 -1.76957 -1.16491
81 1 -0.78583 -11.184 -15.0334 -1.05437 0.47845 0.343358
82 1 5.42762 -23.5236 4.0263 -5.35229 0.399971 -0.465502
89 1 -11.4216 -2.64323 20.4016 0.0107072 2.9977 0.132187
90 1 9.04844 -3.77639 6.03884 -3.11142 -1.88843 3.2068
2080 1 -22.532 -24.6783 -14.7791 -0.916606 -2.49388 -4.28656
93 1 -20.8417 -22.1203 18.2799 -2.21646 4.02881 -4.28723
95 1 1.87993 -5.3426 -12.652 -5.30412 -1.08732 3.33192
96 1 -23.8221 -15.2722 22.3966 1.35123 0.304379 0.717099
97 1 -7.87146 -15.0083 -23.318 4.54485 -2.7147 -2.13515
99 1 17.1196 -22.4273 -5.40293 1.6861 -3.67241 -4.34369
100 1 -24.2233 -14.0611 -23.4596 0.131994 5.94088 -4.32079
101 1 0.653291 -20.9582 -10.5726 -5.3563 -3.55699 -3.15823
3407 1 12.2985 -0.972235 -14.6272 1.13446 -2.51183 -4.97029
107 1 20.664 -2.02294 16.3895 0.678764 -1.63975 5.27268
110 1 9.08705 -12.0439 -8.38517 0.697132 4.09773 2.52405
111 1 23.6499 -3.75871 -13.2912 2.47863 0.565708 1.55177
113 1 -4.89943 -6.87001 20.7608 5.66273 -0.171054 2.39158
114 1 -22.498 -18.3168 20.3816 -1.27256 2.36524 -1.78125
116 1 2.51288 -15.5211 -16.659 0.427063 0.518969 1.29889
118 1 5.06922 -18.5308 -9.8887 -2.50178 -3.54422 2.10423
3989 1 -16.0925 -10.9632 -12.6583 -2.22727 -0.287701 1.61288
121 1 -4.67147 -19.5267 22.9926 1.02216 1.27295 1.7271
124 1 22.1092 -21.7183 -15.9096 2.22177 1.60394 -0.0331063
129 1 17.5605 -10.336 3.59229 -0.756265 2.30089 -2.95657
131 1 1.90413 -8.51608 -21.9928 1.6489 -5.23226 6.70521
132 1 -7.67433 -5.33419 -22.8365 -0.841702 3.16602 -2.58761
134 1 19.4727 -7.37656 23.8642 3.07993 4.64388 2.35781
135 1 -14.1257 -5.94433 -21.2178 -0.546086 -4.52143 -4.63013
139 1 -18.8489 -19.2445 -14.9849 -1.08768 2.69279 1.71811
140 1 2.58523 -5.01543 19.1912 0.0117849 1.23562 0.765561
141 1 9.65364 -17.8212 4.36053 1.9919 -1.79652 -2.26254
143 1 -3.91472 -4.15085 -3.68297 -2.19601 -1.8789 3.75414
144 1 -23.2691 -10.3498 -14.1002 2.00454 -2.45483 -1.36891
146 1 -12.181 -10.5381 15.1073 -1.48428 -2.79406 0.177647
149 1 -17.5943 -23.6896 -18.9111 6.08426 -2.09633 6.98774
152 1 -5.24184 -1.95902 17.5819 1.69435 4.37106 -2.06553
153 1 7.87733 -14.78 -3.42806 -0.436075 2.12408 -3.51616
155 1 -24.4171 -22.3432 -18.2791 0.0052883 -3.39224 -5.03506
157 1 10.7083 -14.002 -14.1205 -0.635313 3.72838 -0.897154
159 1 -22.652 -12.0044 13.125 1.01042 4.82941 0.689677
160 1 -3.9814 -16.1712 -4.45209 2.57315 -0.251568 -2.89097
162 1 -16.1355 -10.3834 20.966 -4.34921 -3.62438 0.112921
170 1 -6.48474 -20.2479 -12.7244 -1.21068 3.34848 -1.17803
177 1 -5.92241 -21.19 12.1233 3.16229 3.31286 3.0602
179 1 -6.44778 -6.7148 -12.5247 -1.26949 -4.40464 1.20689
181 1 -3.32395 -4.16909 -20.7702 -0.97118 4.70409 -1.43406
182 1 -23.5606 -2.60776 16.2825 -1.77195 -1.32277 -5.23647
184 1 4.48968 -23.4967 -23.0787 1.57929 -3.54233 6.23358
188 1 6.89132 -22.0757 -4.65181 1.41702 1.11609 1.51072
189 1 -3.63518 -7.19509 4.88212 3.30823 2.01901 -0.204016
191 1 2.55843 -3.89684 -22.123 4.70528 2.75162 -0.595301
197 1 23.1784 -3.23003 21.8678 -2.73082 0.647098 4.96085
198 1 -11.992 -21.3745 -17.7612 2.59885 2.37391 -0.94161
199 1 -22.6586 -4.86416 -10.3491 -2.78137 -5.69615 -0.0174172
204 1 -7.4004 -14.0038 -10.8421 -0.732511 5.16413 3.63235
205 1 20.413 -7.97522 12.8524 0.818041 -6.32788 4.62759
206 1 -3.57584 -16.347 -19.7989 2.76028 6.09293 -3.46182
208 1 4.41794 -5.6774 16.9136 2.26863 -2.56339 -2.5227
213 1 -21.3136 -18.6783 -2.66921 4.65088 6.53007 -0.579436
214 1 17.335 -6.03899 -20.3558 0.499541 -7.35523 2.21623
1359 1 -21.7045 -23.3289 -23.1966 1.57553 -3.55791 -5.81647
222 1 -12.8502 -9.47284 -0.846165 -0.349918 1.88459 7.17615
223 1 -24.3795 -5.38598 -1.62336 -2.78754 0.276485 -2.71702
224 1 -12.5994 -2.59226 -23.5004 -3.00795 -0.507718 -3.05546
225 1 3.93637 -12.6822 -6.81241 -6.71579 -1.86574 5.9198
231 1 -23.9947 -3.84393 -21.6169 -6.41394 -0.439714 -0.203989
232 1 -4.11409 -13.8823 9.65707 -1.06853 -8.14675 -3.02196
279 1 -24.1968 -3.41443 0.460076 1.78019 2.26868 -4.98867
236 1 16.6749 -10.0756 7.90493 -0.551116 4.84396 -1.13554
3240 1 -14.1147 -22.9438 -16.6128 0.811134 -0.433137 3.64139
241 1 -23.044 -16.0496 11.8551 -0.754122 1.08123 4.36499
242 1 -8.89486 -5.03112 -12.5023 4.10896 -3.13112 0.257402
243 1 -7.94512 -9.24468 13.5053 -5.82572 -5.05879 1.34815
247 1 -24.1918 -6.90799 13.9575 -5.39656 5.62562 1.00258
249 1 -2.86319 -18.7966 10.9031 -4.16081 -1.76068 1.21158
897 1 -14.2283 -24.3847 11.3783 2.71709 6.03885 -3.64378
251 1 -22.4496 -1.62044 -22.4674 1.03436 1.7854 -1.36904
253 1 -1.55736 -1.52113 -23.9429 0.0935158 4.18097 1.58595
254 1 5.2109 -11.9932 -10.229 0.742646 -1.25675 -1.65086
255 1 23.1053 -22.1515 10.1505 -3.84416 -2.31506 10.4422
256 1 -12.4744 -6.07305 -10.2367 3.25144 3.24634 3.55488
258 1 -4.70805 -3.70175 -8.52425 1.46644 6.07862 -2.70803
259 1 17.8141 -16.6836 -17.2581 -4.19763 -0.26359 -2.25934
1161 1 -7.89069 -23.8976 -19.2444 -0.0352501 -0.421619 2.26614
265 1 12.7572 -16.9289 -5.59312 0.378866 3.47076 -0.168726
269 1 -19.2445 -8.15508 -13.7582 1.9409 -0.948204 -4.00794
270 1 -21.4181 -16.7064 18.1136 -1.19305 0.801846 -2.66547
272 1 12.5797 -18.382 12.8825 3.2413 2.75813 -4.21517
273 1 -17.6192 -10.5393 14.8243 6.85356 -5.90173 3.1278
274 1 11.2508 -12.3537 9.30931 1.09875 -1.82994 8.69651
277 1 11.0035 -12.6153 -18.7617 -4.17368 -0.341523 -0.955948
280 1 -4.30655 -22.0962 -13.4382 -0.22423 -3.47787 0.31832
283 1 -4.36511 -21.6902 -20.7237 2.75212 -2.05401 -3.77234
287 1 4.47349 -9.13616 -6.98621 0.744547 3.06475 -2.1042
289 1 -6.45021 -22.6225 8.60204 1.20188 0.0560653 -2.13906
290 1 -5.83386 -10.9075 -15.9281 3.81609 2.1725 -0.298913
291 1 -11.4756 -17.2168 11.7869 -2.16091 4.75803 -5.58869
297 1 19.9736 -8.36217 -7.1118 -2.2217 2.13257 -0.910498
298 1 15.5812 -17.8406 -21.2574 -1.05769 -1.65693 -0.439336
299 1 5.63816 -22.7172 -13.1819 -0.482172 -1.55431 4.64068
300 1 13.9153 -4.77757 16.4019 1.84744 3.87232 -0.878426
303 1 -23.1721 -16.7553 -7.61949 0.399626 3.78797 -1.24534
304 1 -20.122 -18.0007 15.1004 3.59928 -5.9548 0.468307
305 1 3.56174 -20.7291 21.0524 5.56324 1.65621 7.65726
308 1 -17.0684 -21.9907 2.49299 -2.64547 4.20983 0.14886
309 1 6.17793 -19.1196 18.3651 -3.03045 0.472205 0.497752
311 1 12.847 -10.5587 1.27662 0.49448 -0.550334 1.01606
313 1 -16.6075 -16.8558 -7.82194 -3.9769 -3.53107 -1.28312
315 1 -14.6368 -22.7771 3.49374 2.46364 0.872654 -1.33976
316 1 21.5661 -5.1776 5.38595 2.75175 0.807774 -0.486605
317 1 -9.70514 -11.3243 -22.293 6.04256 -1.83916 -0.40763
318 1 19.8403 -14.0447 19.9762 0.0381838 -3.49241 0.37058
3673 1 -5.02082 -23.882 22.3674 3.07641 -1.73291 -2.14017
321 1 -18.6145 -11.9863 -12.1893 3.91983 1.19857 -0.730702
325 1 0.196359 -20.1492 19.0357 1.55033 -1.07069 -4.18047
327 1 -7.07213 -10.4248 19.4197 0.4715 -3.75124 0.416251
330 1 -15.6674 -23.8843 -23.7452 -0.242169 4.2421 4.59556
333 1 9.0409 -10.6816 -15.5745 -4.49647 0.60643 -2.94842
334 1 4.77496 -20.543 -2.88723 2.60985 1.1324 -1.49961
335 1 22.216 -23.69 5.54141 1.81895 3.29881 -4.22568
338 1 5.64332 -8.24725 17.7114 2.78376 -0.191472 -3.08981
339 1 -5.91578 -17.2705 -24.0488 2.31812 -1.19804 0.90106
342 1 -0.656401 -14.2227 -10.1053 -2.47602 -1.19162 -4.1039
343 1 -1.97343 -12.3823 -5.80147 -0.0484441 7.43637 -0.349327
344 1 6.73806 -15.2402 -12.669 0.927534 -0.0672923 -0.583883
345 1 -10.5122 -5.10212 16.4313 -6.71718 4.06794 -2.72752
347 1 19.2864 -6.08448 10.9488 0.64206 6.3584 -5.85085
348 1 -11.8157 -3.04 10.7556 3.10813 -2.65986 2.73555
353 1 17.1754 -22.4469 -15.5542 -1.97332 -1.82031 2.56628
355 1 -6.46671 -1.68694 6.32884 2.69719 -6.5392 0.148932
356 1 -2.58287 -19.7537 -21.6159 2.31548 -5.13027 3.41041
357 1 -7.20741 -13.7646 1.9961 -0.565142 -0.189333 3.4607
358 1 17.8135 -13.4222 13.7068 -6.32756 -2.72634 1.50929
359 1 -14.0285 -20.7525 -9.96181 1.40598 0.932218 2.29277
361 1 -24.1499 -22.1797 -3.64552 -2.62073 -0.149513 -1.39369
363 1 -19.1054 -19.947 10.2066 -4.32624 -0.773726 -0.0602908
365 1 -1.11823 -16.2679 18.2645 -5.60713 5.70392 -2.61948
368 1 5.11969 -4.74361 11.9399 0.703238 -1.63769 2.7433
370 1 4.10685 -15.1629 -21.5336 0.00612355 4.50397 5.76353
1906 1 -19.0562 -23.8549 12.6767 -0.846898 -1.93675 -1.43439
375 1 -21.4822 -5.13396 20.475 1.8351 2.33009 2.67782
376 1 -3.99912 -13.0003 -16.7378 -0.39376 4.46975 2.80539
378 1 17.2244 -15.321 -2.96927 -0.598512 2.95216 1.18523
381 1 -21.9769 -12.8584 15.956 -2.50193 -3.2438 1.05924
383 1 9.41131 -23.3454 6.45977 0.785315 -3.40444 3.93963
386 1 17.2714 -3.06559 -20.9191 -1.48514 0.997468 0.480142
387 1 4.22226 -19.5739 0.423941 5.03179 0.301571 4.37118
3756 1 -11.342 -23.2004 -21.3983 4.77401 -0.994043 -2.39899
392 1 18.711 -9.14819 19.6091 -0.981327 3.72957 3.53679
393 1 -15.2864 -18.0362 -10.3851 -2.7296 -0.920488 3.40304
587 1 -19.1405 -24.5657 -9.89394 3.90883 1.68805 -0.115949
396 1 9.98483 -20.7811 1.44562 4.8058 5.14554 1.38453
397 1 2.79821 -20.2578 18.3087 8.72624 1.70103 1.31152
398 1 -24.3366 -24.0666 -5.95462 1.31775 0.374263 0.200398
400 1 -24.0194 -18.2299 -2.34313 0.510893 0.926361 0.343075
401 1 22.0578 -17.0591 -5.17482 -2.36807 2.1325 1.639
1836 1 -10.7317 -23.7195 -18.8161 0.798846 -5.30699 2.64271
1925 1 19.6058 -24.2215 17.962 1.6577 0.410732 1.20664
405 1 6.62447 -22.9982 -7.15658 -1.55273 1.60534 5.07463
406 1 -6.37068 -21.4155 22.0474 3.00357 0.0275786 -0.928616
407 1 2.72042 -10.9705 15.8598 -0.491009 5.66023 -3.56448
408 1 -2.43563 -1.84447 -17.9935 -0.212843 -1.57006 1.1564
411 1 -1.1755 -4.81123 -7.5764 1.29649 -0.788283 -0.584978
412 1 -17.2349 -8.6581 6.48952 -5.44063 2.46138 1.61856
420 1 -1.71733 -1.26196 10.5619 -0.780694 0.81465 4.80556
421 1 -14.7466 -22.1236 -14.0157 -2.41136 -0.0882165 6.48407
424 1 4.89061 -4.8763 -0.823487 4.22972 -0.759937 2.20763
426 1 -15.7332 -2.52445 -7.95234 -1.30616 2.5282 0.884686
1383 1 -8.07163 -24.0238 -14.2263 0.612652 0.96676 2.67522
430 1 -21.2905 -1.81052 23.2422 5.09596 0.195415 -4.3873
431 1 11.154 -6.60882 -15.2322 -3.97885 -0.303639 3.81248
432 1 7.81753 -3.36362 12.91 1.44227 1.60796 1.49706
434 1 -12.8989 -3.10522 -10.5248 -2.8119 2.11613 -0.935079
436 1 -16.0523 -12.1138 -6.47418 -4.71524 4.88777 3.30228
445 1 20.4912 -8.08787 -10.8539 -1.08073 1.16728 2.52614
446 1 21.1727 -14.7451 -7.04998 -3.50462 -3.8919 -1.41175
449 1 14.0794 -3.90893 -1.87088 3.245 -0.902512 1.33089
450 1 15.6042 -19.7013 5.2918 6.03671 -0.508357 1.89254
451 1 -23.339 -13.2566 -17.7051 -3.63836 -2.91813 1.13549
455 1 12.8532 -10.5884 16.1795 4.48535 2.48074 4.07595
462 1 -6.98148 -20.3922 19.2958 3.42662 -5.77563 0.559346
464 1 -14.4935 -23.888 6.19593 0.776764 -2.1728 -5.78138
465 1 -3.16666 -12.7395 2.78536 -0.0417387 1.9186 -1.85153
467 1 -5.29956 -11.5986 14.2057 -4.96046 2.36759 4.21293
469 1 -24.1552 -14.5335 13.8775 1.59253 0.846547 -3.74328
471 1 23.476 -6.93138 -9.82879 2.00982 3.15986 3.96656
472 1 -14.7464 -7.13231 16.8997 0.32577 -5.03238 -0.3396
474 1 4.2683 -7.68855 -11.268 -1.2073 2.59881 4.85717
476 1 -14.2949 -5.65133 -2.39917 -0.62156 -6.24894 -1.58968
477 1 -11.2036 -10.1864 -15.2136 2.66602 0.178154 -1.84921
479 1 13.5738 -16.4775 16.3896 3.36633 -2.49894 1.43398
480 1 3.21412 -9.43467 9.13042 -1.24739 2.74963 -0.273505
482 1 -23.1367 -1.4014 21.2164 4.83949 1.16242 -1.83029
483 1 4.99914 -16.63 0.612623 0.937746 2.01596 -0.876433
484 1 -24.302 -15.8205 -14.0026 -5.36415 -3.50477 -0.588565
485 1 20.8454 -22.1045 -18.637 1.21466 1.41865 3.2097
488 1 0.260079 -15.0539 20.6571 3.93868 3.14438 -0.649787
490 1 16.3464 -16.0633 -10.8604 -3.95124 -0.595701 -1.10531
491 1 -20.6265 -12.704 11.1983 4.00677 0.899844 -0.743557
492 1 -16.4587 -15.3868 -10.6095 -6.37975 -0.327688 -1.74217
495 1 -1.38572 -9.99374 -4.365 3.7734 -3.41594 1.34644
500 1 -6.51365 -16.2446 7.71623 -3.80324 -1.25286 6.21795
501 1 -14.8058 -14.6249 -7.50256 0.133739 0.188144 1.95904
502 1 10.3728 -13.5211 20.444 -3.20814 -2.39789 1.86095
506 1 -2.80392 -22.2458 -16.1335 -1.6918 0.763041 -4.62585
510 1 6.38086 -17.4185 14.9925 -1.6362 3.24019 0.756213
511 1 7.53494 -14.2525 5.79043 0.544353 1.94686 -1.51974
512 1 -0.0668986 -4.69718 17.9893 -6.30579 0.748398 -1.92346
513 1 -19.1053 -13.1315 19.6632 0.903852 8.8285 -1.47041
516 1 9.2825 -23.0989 -3.35798 -2.53387 2.49574 -1.11274
23 1 -11.2761 -23.9938 22.1903 1.97457 0.615463 0.0125838
518 1 22.4584 -22.8789 2.78602 -3.64955 3.81799 -4.67624
519 1 -21.0418 -13.1476 -8.30691 0.874537 -3.30056 4.6375
1452 1 -6.82787 -23.7319 -16.8587 -0.96778 -1.69733 3.35732
522 1 1.36772 -17.2567 7.73893 0.421819 -0.712947 5.25135
523 1 -8.98232 -16.1189 -10.0593 0.281821 -0.930584 -4.666
524 1 0.0555918 -1.96368 16.8608 1.92257 -0.445728 0.475002
3066 1 21.9207 -2.09488 -0.66235 1.32862 4.83425 -3.47581
529 1 -9.34781 -13.3745 9.47184 7.13545 -1.02605 -1.84732
531 1 22.879 -9.77268 13.5804 7.24014 -3.87883 -0.928793
532 1 -11.6993 -4.6311 -3.10075 2.06657 -2.58121 0.97925
533 1 -9.65144 -18.1916 15.3772 1.0377 -3.26007 1.58472
536 1 -0.524444 -7.59035 5.82547 -1.52624 2.14869 2.28489
537 1 7.76522 -3.21255 3.55743 -0.644681 3.12395 -0.309377
538 1 -21.9011 -6.84793 12.3115 2.5776 -0.243262 1.42916
540 1 -13.8229 -10.6661 3.95075 0.527945 -2.87711 5.74479
543 1 20.8981 -17.7867 -15.3274 -0.530187 -0.164872 0.693915
544 1 -3.03743 -19.5124 -17.0438 -0.71862 7.54875 -3.60892
545 1 22.8872 -18.1099 16.9728 1.16805 4.74442 -1.31918
546 1 -5.79235 -14.9913 -15.7224 2.06139 -4.94691 4.62504
547 1 16.8698 -15.0465 -21.7787 3.40538 -2.63293 4.12738
549 1 -21.517 -5.22864 8.00195 -0.983299 -1.82786 1.53948
550 1 -0.365531 -22.1352 -15.2401 -0.887125 0.341375 -4.17988
552 1 0.737604 -16.8902 0.406663 -0.658382 0.0908179 -0.883274
555 1 -15.3621 -15.1121 1.34157 3.84829 1.68394 1.88409
557 1 11.8408 -23.6472 -9.40424 -1.90947 -5.15906 -4.69053
558 1 -1.40355 -12.7718 13.5679 0.29359 -0.629278 0.415299
559 1 -9.14599 -17.8251 7.21423 -2.56895 3.11944 1.33363
2928 1 -21.8168 -23.5565 -10.5047 1.04719 -2.40104 0.0512327
1862 1 -11.922 -2.20599 -8.15589 -1.995 -1.1721 2.41241
563 1 4.63559 -20.3244 6.86529 -0.890738 2.62303 -4.49911
564 1 -12.1833 -19.7799 12.0951 -1.87489 1.43434 -0.973295
565 1 16.2494 -20.2038 22.6531 0.529962 -4.42387 0.70754
568 1 6.45023 -6.84688 6.89392 0.162189 -0.8455 -2.00415
571 1 -0.576563 -14.6469 23.3215 -1.6102 3.98321 4.88392
572 1 9.82907 -23.0746 2.90461 0.416125 -4.61947 -3.74092
573 1 16.7717 -6.1075 4.50877 -7.0654 -2.45506 0.780292
574 1 13.8977 -23.3498 -4.70409 0.463134 -6.10997 1.61987
579 1 0.95205 -20.4213 -13.4559 3.60457 -5.17768 5.47793
581 1 -14.9699 -9.88776 15.7994 -2.29973 2.03982 5.75654
582 1 -2.73344 -13.7054 -19.1214 -3.12888 1.02241 1.43022
640 1 0.370183 -1.50247 5.28215 0.418793 0.283919 -2.3516
591 1 18.8198 -20.2343 13.9114 1.3646 -0.222759 -1.75152
592 1 -16.8962 -13.6183 12.4829 2.57478 -1.14271 -0.388481
593 1 -12.9606 -21.1723 17.7198 -2.49961 0.669391 -2.03032
595 1 8.23883 -17.2851 -23.9938 4.56994 2.19855 -0.139776
596 1 -12.8119 -20.1322 7.0219 -0.0412025 1.79759 3.56712
597 1 23.6458 -23.7651 -11.7235 1.17242 -0.0609854 2.24515
598 1 15.358 -14.5996 6.09328 -3.06556 -3.67193 -1.33823
599 1 9.85574 -15.3082 14.1039 2.10496 -4.97084 4.89487
601 1 -0.2837 -2.74888 20.5483 6.42086 -5.03156 -1.22883
605 1 -21.1216 -1.68997 17.0655 2.7114 -1.80862 -0.253889
931 1 17.6032 -1.65016 -7.701 4.47795 1.15006 -0.148137
607 1 1.47975 -2.97273 13.2946 -1.40554 3.39674 -0.822938
609 1 9.3915 -19.4951 21.2724 -3.07788 -0.203523 -0.238053
610 1 15.5226 -2.54703 15.0094 -5.71769 2.15075 4.44299
611 1 -2.6401 -7.03134 -4.34388 0.384452 -3.49621 -5.77888
614 1 -17.6853 -10.3177 -5.12986 -1.94632 0.917435 -0.35818
615 1 12.3083 -2.03696 18.4392 0.866889 -4.21629 -2.91817
616 1 17.8702 -3.15506 18.8955 -1.39729 -1.4127 1.65968
620 1 20.9167 -12.1255 -8.4968 1.94425 0.726193 3.33951
622 1 -22.5409 -9.39293 2.21873 -2.62861 -2.91728 1.60022
623 1 21.6563 -14.1528 5.40799 0.566474 5.88388 -5.88572
625 1 -0.122853 -6.10805 -5.27822 -0.801927 5.6296 -3.05464
628 1 -22.6805 -15.4831 1.01827 2.93517 -0.226592 2.69873
631 1 -7.0746 -19.5303 16.3252 0.843293 -0.294101 3.43116
632 1 -14.0049 -20.1955 4.25534 0.701969 5.06966 3.88115
634 1 -11.3638 -2.06402 15.5601 2.59611 -1.59338 -1.42062
637 1 -8.97278 -22.6201 -22.691 -2.64017 5.11277 -0.662708
639 1 -10.5352 -16.6086 -23.1648 1.60054 1.82488 1.48591
642 1 -9.28541 -5.55546 7.24208 -0.627039 -4.95526 1.3549
643 1 9.05902 -18.9444 8.46142 -1.21323 0.539225 -0.733577
645 1 -8.64172 -7.90154 -18.8555 -4.23577 -3.53303 -2.68835
648 1 20.949 -15.9922 -20.9453 1.94636 0.0346563 1.91188
649 1 10.7811 -15.4008 18.33 0.117279 -0.416095 1.49646
652 1 -7.21079 -3.91724 -20.326 2.81829 0.341515 2.33231
653 1 -21.6047 -22.3946 -13.1816 3.16162 0.732894 -2.90159
3050 1 -1.98433 -24.2463 18.0716 0.906259 2.88082 1.1344
655 1 -3.79602 -11.8017 -12.9829 -1.72892 -2.21265 0.226397
657 1 -0.943893 -4.82743 -13.2646 -2.72105 0.463615 -3.64135
661 1 -17.3497 -7.56512 -16.9413 -0.773786 -0.653019 -2.44913
662 1 2.42314 -5.47172 11.6424 -0.305076 1.19066 -1.95215
663 1 -12.3027 -17.736 -6.31849 0.790179 2.7652 -3.34163
664 1 -15.3895 -21.0855 14.0515 -1.85859 -3.06213 -1.92885
665 1 -2.18865 -6.35939 19.7402 -5.60771 -2.96054 3.02983
666 1 -10.4074 -7.3546 -11.4065 -0.534338 -1.51645 0.80158
667 1 -21.3484 -18.8606 -23.2573 -0.0782599 -1.69245 0.375485
669 1 6.86336 -15.4435 16.9732 -3.66551 0.39621 -1.12604
670 1 0.292426 -13.9681 0.31018 4.16702 0.842576 -2.52774
675 1 -20.7051 -10.399 -7.19384 -3.79369 -1.12725 -3.78928
677 1 -22.2211 -12.6724 -11.3916 6.21485 3.1481 -0.333045
678 1 -21.4863 -4.89902 0.953493 1.33604 0.283747 -5.45206
684 1 10.7344 -18.9361 -10.0716 -0.873298 0.211945 4.42192
261 1 -1.59986 -23.9803 11.1524 2.52203 -3.62805 4.9934
688 1 -9.23371 -11.6057 -13.5218 -1.54183 0.736417 -7.14504
692 1 -11.7476 -6.73481 5.44771 0.77914 0.401863 -4.53039
694 1 8.33649 -18.7059 1.98226 -3.52807 1.37256 2.20821
695 1 6.40099 -11.2707 -7.67098 0.388485 -2.90472 -1.14776
696 1 -8.34651 -20.3429 8.39596 5.27697 3.52858 5.21934
698 1 22.4974 -12.2666 -5.8225 2.92456 1.00895 -2.22743
699 1 -14.861 -11.5138 18.1297 -0.749293 -1.2112 4.10682
702 1 -16.1083 -4.49242 12.5848 -3.74602 -2.22473 1.06622
704 1 -10.76 -9.98593 12.7699 6.68868 4.55064 -3.73644
708 1 9.17497 -6.71057 -17.1681 0.712167 3.01225 -3.05108
709 1 -9.35661 -2.49604 -6.81823 0.117975 3.59767 3.53945
710 1 -4.9368 -8.80051 13.8682 2.39718 -5.88038 2.27847
711 1 -15.1188 -7.07339 -13.523 1.88455 4.73133 2.29279
712 1 3.02201 -7.31218 13.7075 4.92422 -1.98877 5.29997
714 1 18.1568 -6.22931 -11.3836 -5.12027 -1.57581 -1.8826
716 1 -2.37539 -22.4287 8.63451 0.831919 -1.54539 0.736367
717 1 -12.5872 -5.81535 -13.2351 -2.02773 8.62945 0.946987
718 1 -13.187 -6.2365 2.92668 -0.789019 -1.62131 1.44442
719 1 14.1233 -8.59839 8.95276 3.08832 4.65471 -0.149433
720 1 3.33624 -6.08981 -20.4119 -0.790668 -1.76235 1.17717
721 1 -8.86359 -8.44856 -15.8091 -0.931322 -3.15172 -1.19786
722 1 8.44801 -22.3897 -13.5257 2.5106 -0.474804 -4.59878
726 1 -6.60018 -6.86319 23.0932 -2.6076 -0.371666 -2.80895
727 1 7.60217 -3.93733 -12.9735 0.858711 1.2501 0.621401
730 1 14.5955 -18.7467 -18.4942 2.34565 -2.32644 -2.66204
2403 1 -8.99724 -1.14048 23.4206 1.39853 2.76123 -1.61218
733 1 -14.9719 -18.3217 6.1253 -0.320544 -0.000269887 2.45274
737 1 20.3284 -16.1781 7.10616 -2.08517 2.37775 4.43991
739 1 -17.6781 -19.115 2.88287 -2.61712 2.74943 -3.35184
741 1 -17.0025 -18.7389 -12.8812 -0.516701 3.80207 0.906057
2235 1 6.98338 -24.6542 13.225 0.00149948 -5.63063 5.7468
744 1 9.12299 -12.6524 -11.1245 4.82939 -2.17435 -0.488389
746 1 -17.5223 -8.25236 22.5571 1.40746 3.82807 1.00497
747 1 10.954 -10.2535 3.19485 2.87558 -6.04519 3.10317
748 1 -9.98701 -21.5552 21.2953 1.9714 2.37888 -1.1365
750 1 18.9232 -3.32521 -14.1664 3.65287 4.42699 5.73399
752 1 20.3951 -19.9942 5.23553 3.74489 5.41764 -7.52409
753 1 -15.6529 -18.3444 23.65 -0.440388 5.60543 1.26223
756 1 -7.75704 -4.95198 -2.44044 1.82416 -0.253339 1.82765
758 1 -15.0697 -19.2515 21.097 1.45656 -0.502336 2.40759
761 1 -8.75182 -10.2042 -7.15664 -7.21027 -3.14301 -0.886918
767 1 -1.57284 -11.7354 -0.0271452 -0.428341 -3.39318 0.0289889
771 1 9.29121 -17.4393 12.1124 0.808957 -3.27567 0.251386
773 1 10.2162 -21.3057 12.1278 -3.1314 -0.178239 3.71943
775 1 22.2154 -19.9202 -8.69776 3.6096 -4.80177 -1.09149
777 1 23.2094 -13.0314 -10.5345 -1.58023 -2.57399 -1.44573
778 1 2.4871 -18.3233 -16.8469 7.55179 -2.24542 -0.740799
780 1 -6.7385 -11.1841 -20.2067 -0.0509271 1.96148 1.83018
782 1 20.3297 -8.09915 -13.9794 -1.75007 -1.76306 -0.197064
783 1 5.61546 -16.8125 22.4456 -1.08884 4.74241 -3.99919
793 1 23.254 -7.69942 1.87251 -3.04044 -2.60849 -2.88192
795 1 19.3111 -6.7677 20.8668 6.25331 0.0729884 -1.30158
796 1 -9.73207 -16.6298 -14.1562 3.75509 5.70643 -3.89499
797 1 -18.1603 -13.9149 14.8996 -0.321414 -5.37927 -2.36477
800 1 -19.0903 -11.7957 16.8623 0.946775 2.58863 1.71289
802 1 -20.9049 -20.8557 14.7025 -2.33973 -1.03737 -0.529881
803 1 18.8387 -9.94948 -9.13009 -2.94689 0.877915 -7.36895
804 1 8.0025 -19.5518 -10.6286 -1.67631 -0.867572 2.24621
806 1 -1.59783 -12.998 10.5819 -0.613205 -4.726 1.8582
808 1 -2.17473 -16.8951 -9.57016 1.91786 -0.691863 -4.47085
810 1 -21.7102 -14.8725 -5.78785 0.0970042 1.90474 5.19747
811 1 -14.3288 -9.46428 -4.52476 -4.67264 1.7083 -2.9557
812 1 2.01186 -10.3681 -7.00258 -3.46977 3.99853 -2.10733
814 1 -22.1694 -1.80079 -1.17485 3.03021 -2.0512 -6.16537
816 1 17.7273 -20.6404 17.4765 1.4334 -0.974652 0.143122
817 1 8.62175 -11.3768 15.9261 -2.23822 -0.073651 -4.3099
821 1 -23.3572 -21.9522 -20.9375 2.52958 -2.37191 4.59103
822 1 21.15 -15.7561 16.5943 -1.23098 -1.53503 1.82132
823 1 6.69717 -9.80989 2.79022 0.486929 1.18743 -0.887159
824 1 3.42139 -19.195 -7.70006 -4.15239 0.984992 5.71006
828 1 -8.5208 -20.3394 12.0904 -0.757893 -1.4824 -1.95698
830 1 -12.0751 -8.75868 21.5794 3.38008 1.91395 -2.981
831 1 2.21093 -15.1837 -23.9058 1.15455 0.67522 3.3309
832 1 -3.21772 -2.52784 12.8018 1.43905 -3.8041 -1.65872
833 1 -12.6142 -4.80631 -7.51031 -3.23217 -2.30594 8.26476
836 1 6.58047 -14.0306 22.2264 -3.4673 -4.43267 -2.96986
837 1 -20.2971 -17.1397 -4.85815 -0.935308 3.91042 -1.40974
838 1 22.1105 -19.8627 2.95254 -1.88182 0.00118148 1.96942
840 1 2.93556 -14.4888 12.231 -0.994263 -1.13054 4.47717
842 1 -6.25954 -21.771 -2.9466 -4.0906 0.125714 3.05149
843 1 18.1938 -6.48581 17.1784 -0.801391 0.801163 3.2106
844 1 18.6683 -17.5269 -22.0272 1.56075 -3.08853 6.76174
847 1 -11.9198 -23.0068 -13.1151 -3.58681 2.18126 0.814009
849 1 20.4134 -14.1115 -12.3647 -0.782015 1.37633 1.47541
850 1 18.8716 -19.3205 23.7662 -3.55304 -1.18082 -4.26781
2301 1 5.17832 -24.0934 22.4264 0.331312 2.36616 3.20219
854 1 -23.7172 -13.3675 5.48049 1.4856 -1.02639 -2.78989
856 1 -20.4819 -3.21795 -9.4336 3.83078 -2.54691 0.417291
857 1 -23.7529 -4.88512 9.49185 5.99044 0.713891 -1.08238
858 1 15.3925 -12.2996 14.4904 -6.38583 -0.620456 1.55884
859 1 -15.3358 -9.00843 0.216178 1.05182 -0.478371 -0.441518
860 1 11.5761 -10.5098 -16.4266 1.01715 -1.15902 -0.741659
863 1 16.0395 -17.35 6.79571 -3.37272 -0.434144 1.29203
865 1 -1.06994 -20.2541 12.6781 3.49858 -0.372718 -1.92203
866 1 13.6086 -4.26316 23.2347 -0.792937 -1.71901 0.483218
872 1 -4.7218 -7.85107 -20.7701 -4.25291 4.23105 2.52737
876 1 13.0999 -15.3725 -7.78137 -4.29364 -5.00235 2.79765
877 1 0.982219 -17.9991 17.0035 -1.3384 -0.0144307 -1.02421
881 1 -2.92485 -3.83229 20.4352 6.77787 3.2164 2.90674
882 1 -14.591 -4.2403 0.252403 1.4407 -2.30491 0.244782
884 1 18.0474 -18.0462 -14.7242 -4.80864 2.01221 -0.595404
885 1 -4.04833 -18.298 -2.57106 -1.29265 -3.34323 3.56621
887 1 6.1859 -23.5695 18.5568 -1.73843 3.22074 -1.47699
889 1 -16.4293 -2.26078 16.0754 -1.89582 0.518434 -0.0647216
890 1 12.5548 -21.1643 13.8897 -2.06354 -2.25186 -3.00758
891 1 -23.4505 -1.59181 4.73092 -1.97504 5.01116 -3.63811
892 1 3.90626 -9.21704 -3.97765 -2.27955 1.4627 0.125766
893 1 20.4135 -4.44339 0.761069 0.532868 1.27077 7.09257
895 1 0.841365 -22.835 5.54766 -3.91598 0.157634 2.02595
896 1 11.0152 -4.67232 20.6344 -3.98253 -0.859322 -4.92487
3249 1 9.24021 -0.944482 12.3544 3.2058 0.53131 -3.70216
899 1 13.7944 -19.7857 18.2866 0.649301 -3.3664 -0.385465
900 1 -14.6238 -13.6169 -11.7131 -2.60843 -2.54802 -3.24219
901 1 2.51958 -18.573 10.3183 2.63886 1.3223 1.85183
904 1 -10.6245 -6.93238 -7.21608 2.01429 5.21819 -1.08653
905 1 22.178 -7.40791 23.9229 0.742985 -3.35815 4.10674
2962 1 -8.8841 -1.16865 -16.8129 -0.960712 -0.770973 1.26797
908 1 -8.84332 -17.6312 12.8236 4.92569 0.43763 5.89028
909 1 15.8834 -21.0795 8.01495 -0.0967033 0.523643 0.275315
915 1 16.8589 -5.51177 -13.9228 1.45418 7.27043 -1.77754
916 1 -18.0346 -17.3332 22.5954 3.58336 2.26394 -3.45544
921 1 9.50869 -10.6442 -21.8285 -5.33864 -2.49335 -2.70369
923 1 2.16947 -9.88936 0.83311 -6.28591 0.849896 0.173774
926 1 0.0212567 -14.4543 8.29767 1.37749 2.30344 2.03979
928 1 6.51608 -18.2649 11.3722 1.54448 -2.55943 2.45556
929 1 -7.77595 -14.4106 -6.18869 -7.59855 -1.559 -0.731093
930 1 -20.5938 -18.2607 -12.6089 -0.0162937 2.62416 5.53082
933 1 -19.7374 -21.3492 -23.5812 -0.86274 -0.843757 2.68364
935 1 21.9091 -9.61369 -0.0391243 -5.48805 1.54729 -5.03087
939 1 -8.3718 -11.9341 -16.5485 -2.7465 0.867278 1.77792
942 1 -6.27628 -17.5233 -19.9717 -0.638738 -2.55511 0.00463887
943 1 16.5212 -4.99944 0.502926 -0.295211 -4.00839 4.53319
944 1 -15.3714 -3.44213 23.8405 -3.05765 -0.319723 -2.8066
945 1 3.20471 -23.0312 18.0306 1.37417 0.0660939 -2.61909
946 1 -14.8265 -9.89324 6.511 0.304445 -0.269548 2.10769
1583 1 6.82591 -1.75101 -2.667 0.312068 -3.16532 -2.97103
952 1 12.0034 -16.1605 -10.2905 5.15635 5.56317 -2.57648
953 1 16.3537 -2.29441 1.51447 -3.02333 -0.942655 -1.3556
956 1 -13.6004 -8.31851 -9.10865 -0.567335 2.53646 0.927501
957 1 -3.20156 -3.11892 15.6464 -1.81113 -1.17836 2.36169
959 1 -13.3941 -16.6072 -23.7223 -0.360239 2.01085 -3.74578
960 1 -2.60643 -21.9263 3.59547 2.61255 -0.83529 -4.42498
964 1 14.0825 -15.4022 -23.4175 -1.1119 -2.81689 1.17899
966 1 -17.7129 -7.86636 12.9651 3.10318 -0.670218 -0.568283
967 1 21.0787 -5.47507 -13.8787 1.35219 1.27133 2.14294
969 1 14.9082 -22.8587 2.6064 3.26265 -0.640657 -1.89914
970 1 -3.42494 -23.7192 -9.29757 -2.16602 3.47463 -1.07305
971 1 15.0201 -6.77242 23.7599 2.32335 -0.811527 1.70444
972 1 -8.87158 -18.0983 -0.677585 0.26536 4.20547 -3.21159
973 1 -14.5764 -4.1986 15.8218 -1.52357 -5.22852 1.87007
975 1 -11.1671 -11.4377 8.2882 -1.71504 -1.28566 1.90098
976 1 -19.1917 -6.21268 11.2712 -2.15833 2.9517 2.86488
977 1 1.34311 -23.9633 14.0279 -0.997907 5.74824 1.73548
981 1 4.33254 -1.96056 -6.57866 0.955746 -0.0731984 4.28844
982 1 -7.60446 -7.83167 6.21257 1.48924 0.557799 -5.16473
987 1 -22.9926 -18.4011 13.8053 1.35747 -4.05026 -4.2837
988 1 -11.6908 -23.5228 10.4169 -0.411401 3.75462 -1.2081
990 1 14.4273 -6.38041 11.7342 -0.678527 2.65442 -0.519277
991 1 -5.79854 -8.07932 8.37788 -1.89075 -2.70867 -2.65703
994 1 22.8791 -17.744 19.692 0.138135 3.13938 -0.109734
1001 1 -19.5747 -3.46788 -5.49563 4.55093 -1.89844 -3.5779
1002 1 -14.013 -15.9108 5.04897 -3.41106 0.00521198 -0.0218924
1003 1 11.4229 -14.3256 11.6342 1.29202 0.260823 1.2797
1008 1 4.63834 -2.21157 15.4832 -3.32754 1.84743 -0.523083
1009 1 7.40377 -17.0272 5.69989 5.9597 -1.24029 4.38619
1013 1 3.89598 -16.4314 3.18183 -2.26246 -1.55002 1.45013
1014 1 -19.325 -23.2157 3.8454 1.50816 0.510509 -1.84907
1018 1 -22.4461 -20.8391 7.15666 -2.13557 5.84151 -6.68814
1020 1 -20.2432 -24.2074 9.95703 0.266171 -0.208687 -0.59159
1021 1 19.9686 -18.9604 -5.26167 1.77676 1.6074 -5.32568
1022 1 -8.91016 -20.3773 -10.5548 -2.18621 3.32182 -0.906153
1027 1 -21.8148 -4.24306 12.8828 -0.889476 4.25043 0.425215
1028 1 -6.62595 -12.6387 -13.6089 0.547983 0.980069 5.04251
1030 1 -18.0249 -15.3693 -22.0174 1.362 -0.867898 -1.7813
1031 1 -4.84111 -9.21099 -4.04748 3.87663 0.621866 -7.62784
1033 1 -5.60089 -15.9521 2.35024 1.35931 0.0740309 3.9771
1036 1 1.12757 -12.4836 19.8839 3.87252 -5.09732 1.94418
1037 1 -12.3078 -17.4354 19.0848 7.69566 -0.945787 0.0458986
1040 1 7.21538 -3.95464 -22.7305 3.28105 2.29487 -0.84015
1042 1 9.60864 -6.05429 22.5375 0.7445 3.98777 0.256558
1045 1 -7.29357 -3.45301 22.0174 2.41244 -2.45591 -0.798733
3446 1 -4.16263 -24.4099 -17.0916 -2.30075 -1.94049 1.63942
1052 1 -20.9609 -3.6802 -21.096 0.494489 2.94075 -1.66043
1057 1 -6.25929 -18.4629 -16.1072 -4.40478 -3.08634 2.93925
1058 1 1.32778 -3.55472 -8.89492 -0.088098 -0.200766 -0.965304
1059 1 4.91102 -22.6117 -15.9451 -1.39539 0.0754058 3.61842
1060 1 -19.3436 -11.8788 7.39036 1.73716 1.43874 2.44749
3997 1 19.0584 -22.7556 -10.1548 -1.84823 1.08324 -0.48894
1064 1 12.9432 -17.2158 6.58093 0.161551 1.09789 1.51673
1066 1 14.8417 -2.92285 -22.7744 -1.74236 -1.7597 4.15091
1073 1 -1.84315 -22.3299 -11.6149 3.94368 1.63302 -1.27753
1077 1 16.2742 -9.19312 -7.87196 0.0820253 -4.21982 5.02889
1078 1 10.7182 -5.94234 14.248 -1.07075 2.53131 -1.09875
1080 1 -19.1138 -8.0766 -6.45187 -0.731404 2.6102 0.964235
1081 1 7.82252 -8.42116 15.7676 2.65146 1.76867 -7.54021
1082 1 -19.1607 -20.7232 -5.97567 2.99123 -3.705 1.78133
1084 1 -1.44968 -14.5186 -4.03156 4.26902 0.847377 -5.24539
1085 1 -7.56732 -15.2065 -3.34242 -0.761643 4.88382 4.59528
1087 1 9.01105 -2.90839 -18.7711 -5.06692 -0.372635 -0.248432
1090 1 -20.6503 -20.6453 -11.1575 -1.87007 0.857821 -1.0495
1092 1 -21.7713 -20.7931 -4.48033 -3.64221 0.654781 3.70487
1098 1 -12.7138 -3.54273 17.7135 1.51459 4.34176 -0.943007
1100 1 10.1663 -8.24457 20.7155 5.18004 -4.26629 2.94136
1101 1 7.10324 -13.967 13.3057 -1.83497 -0.617085 1.59049
1102 1 11.8152 -13.2119 14.5694 0.984235 4.58672 -1.85426
404 1 -15.8815 -1.29273 2.78481 -1.44564 2.13342 -0.993602
1106 1 -17.812 -19.0486 5.78426 2.09918 -4.35829 -5.92002
1107 1 2.60631 -12.6823 1.20214 -4.87807 3.33382 -5.13043
1109 1 -19.3191 -10.1939 4.92455 -3.72221 -0.552167 -2.85717
1111 1 12.2269 -8.6223 6.75052 -2.71459 1.77497 -5.30545
1112 1 -2.13489 -13.6846 19.0806 3.95487 -4.17662 -4.55535
1114 1 -20.3654 -2.50402 10.2664 0.206849 -1.24798 1.42549
1119 1 7.22768 -10.397 5.41312 -2.25764 3.33804 5.91586
1120 1 -5.03412 -13.9084 -3.26862 -1.95237 1.56768 -0.704325
1121 1 11.4526 -4.01313 -19.5233 -3.79608 -2.27008 4.57698
1123 1 14.2689 -5.95338 -3.87126 -2.92372 1.80962 -2.46216
1126 1 0.140866 -14.0281 -13.0663 0.961937 -0.772524 3.60108
1129 1 -4.72744 -8.82004 -23.5292 -5.59377 -6.76344 -4.32524
1131 1 18.2177 -8.08268 -3.32237 -1.77444 4.9302 0.780543
1132 1 22.0591 -7.07546 19.4907 -6.35695 0.511908 4.17012
1134 1 15.0424 -21.511 20.1043 -5.14311 -3.32216 1.82397
126 1 -11.0489 -1.21287 -3.71223 -2.37615 -3.46966 1.02195
1136 1 -19.8286 -20.5093 -19.6089 -2.93655 -3.04169 1.73764
1138 1 -23.4466 -23.4851 6.45859 -3.97338 -0.260836 -1.54485
1140 1 13.2622 -7.3062 -18.073 1.02583 2.69046 1.95607
1143 1 1.71509 -8.34939 -13.1077 -1.84198 -5.35512 -1.35632
1149 1 -1.73531 -15.9875 10.1348 0.799355 -1.61453 5.51838
1151 1 23.0595 -22.4653 20.1405 6.89747 0.190271 -1.39596
1153 1 -6.91636 -19.6633 1.05435 2.28542 -0.126697 3.02838
1155 1 4.49573 -19.6734 15.9785 -1.28733 0.171677 -1.66648
1156 1 -19.9566 -12.0083 -23.2784 0.782475 -4.06481 0.973294
1159 1 18.8301 -2.42225 12.0805 -0.00324852 -2.54844 -1.06719
3295 1 4.51221 -24.2749 -0.645011 2.53147 5.55889 -2.43054
1163 1 -18.1895 -24.1299 15.3038 2.44839 2.47926 1.02479
1164 1 -20.1856 -15.5002 11.454 -2.43892 -8.63755 2.69905
1168 1 11.4766 -9.04771 -0.693758 3.29369 3.78895 3.72729
1169 1 13.7047 -8.00041 16.7886 -2.16004 9.10279 1.87035
2880 1 -0.796675 -1.37403 14.3 2.00901 -2.62188 -0.13365
1172 1 -20.7773 -14.6789 -15.5555 0.6798 3.38088 -5.0906
1173 1 7.77817 -21.3504 19.6437 -6.3622 2.92983 -0.723602
1174 1 -24.0468 -20.8412 -13.9657 1.77847 -2.48111 2.6487
1176 1 -0.758288 -9.78146 13.4976 2.25317 0.716063 1.9326
1179 1 7.88602 -8.77086 -8.11686 3.29809 -1.65015 1.46973
654 1 -11.5234 -1.80733 -19.2321 3.93923 -2.48986 -1.04808
1183 1 5.172 -8.06587 -16.297 -0.619265 6.72083 -2.32404
1186 1 8.41478 -6.82638 0.338884 -2.37289 1.76521 -0.217073
1190 1 14.1534 -3.34826 -19.9729 -1.0245 1.61281 4.46539
1191 1 -0.78727 -3.48872 -19.8915 -2.2098 -0.66697 3.64142
3945 1 -20.6871 -12.5143 -17.4838 1.69956 2.99534 2.78403
1195 1 12.5823 -13.3197 -16.1402 -0.946567 4.88434 1.03618
1198 1 19.3567 -22.9096 12.6076 2.05175 -3.29308 -0.266915
1200 1 12.0749 -9.56696 10.4262 -1.33592 0.558525 3.95355
1201 1 21.3569 -19.974 20.7484 0.580371 0.0173702 1.90299
674 1 -9.83385 -3.33612 -22.7865 -0.1305 4.33382 -2.39358
1203 1 -15.2992 -12.1012 -15.2888 -1.06561 -2.35067 2.61766
1205 1 -4.84986 -17.3633 12.7597 -2.47182 -0.0311403 0.404405
1206 1 22.444 -20.5671 -21.7302 0.61607 -0.73106 -3.19643
1207 1 16.7984 -3.60948 -16.234 -0.708211 -1.21186 5.9154
1208 1 22.2379 -3.98776 7.76124 1.43357 -2.67811 -3.84591
1209 1 2.47215 -6.36061 24.0629 0.913812 1.19397 2.56839
1211 1 -18.0589 -10.9061 11.801 -5.71726 -0.761732 4.54539
1213 1 22.4221 -15.0937 19.3548 -2.31167 -0.285223 -3.49158
1216 1 16.212 -8.24004 -10.7627 -3.10318 -1.77907 2.31038
1217 1 14.3307 -14.6285 3.29413 -0.269266 0.936592 -3.92821
1218 1 15.8657 -3.18342 -11.1898 2.21642 3.28431 1.23274
1224 1 15.946 -8.89115 11.2644 6.06336 -3.74773 -0.508688
1225 1 -0.420983 -20.5039 21.9818 2.99138 -0.61238 -2.3764
1227 1 -2.0193 -8.43063 -1.53478 -1.264 5.48521 -0.800263
1228 1 -23.0979 -19.9355 -9.91487 -1.41273 0.588556 -7.74029
1229 1 19.7868 -17.2766 -0.147429 4.11381 -1.26364 0.0370391
1230 1 -13.1469 -16.849 -8.90262 4.46181 1.19086 -2.05737
1231 1 -18.3436 -8.4488 -9.07447 -0.288566 2.84035 -0.791428
1236 1 -7.22723 -23.9255 15.6329 2.97319 -4.42873 -7.37257
1238 1 9.88908 -2.41882 -13.5012 -0.582836 -1.62738 5.49362
1239 1 -1.96332 -23.3453 5.89055 1.84952 -1.75757 -0.3032
1240 1 -6.20542 -23.0875 2.09118 2.82856 4.12519 -6.01527
1242 1 6.59951 -18.0696 -12.9474 0.691281 3.07677 -0.645008
1246 1 -7.30271 -13.4088 4.89188 2.60126 1.62324 -1.24914
1252 1 19.6671 -19.9009 1.44856 -0.903359 -0.579463 -1.41944
1254 1 -22.1618 -19.2348 4.72261 5.50616 1.23296 -0.904233
1255 1 -7.33699 -9.66543 10.6497 -2.47536 -0.486066 -5.34907
1256 1 5.99171 -20.0727 -19.5629 -0.508642 -0.473155 -2.73664
1257 1 -5.94744 -24.1448 -10.4053 -1.94201 -2.81013 4.44331
1259 1 18.4472 -12.343 7.15174 1.5146 0.730603 2.03678
1260 1 5.07241 -9.32103 -13.6203 -3.83442 4.36195 2.81822
1261 1 13.7247 -7.45817 -11.6555 2.99048 3.51268 -2.53804
1262 1 11.2625 -13.1754 -4.83505 4.69493 4.96522 4.94915
1263 1 -16.1258 -7.99722 -2.28765 -1.76187 -0.535426 -6.28662
1264 1 -23.2686 -12.0549 -2.26122 3.48587 -0.3279 2.6668
1266 1 14.6688 -10.0228 3.30399 1.95571 0.52775 -0.0351631
1267 1 -24.4731 -15.4453 3.31495 1.13432 -2.59683 -2.00112
1268 1 -23.7622 -11.3247 -19.6807 5.05554 0.639129 -5.3575
1269 1 11.5005 -6.59488 18.4137 -1.3104 2.62038 0.928618
1276 1 -1.68462 -8.61309 -20.4022 -4.47691 -0.73142 3.8503
1278 1 16.0465 -8.72195 -19.9278 -2.10155 3.66602 -3.29075
1280 1 -0.142949 -3.42221 -4.0467 2.04164 -5.05793 3.36774
1281 1 14.5504 -10.0847 18.9663 1.79305 -1.81019 -1.24274
1282 1 10.8541 -19.1886 -2.63116 0.912056 0.359417 -3.46353
1283 1 3.07709 -22.1634 -10.4393 -1.75011 1.56789 0.735263
1284 1 6.51714 -12.6837 3.48666 -2.02391 -2.94949 -1.23713
1287 1 8.44206 -17.5294 17.9119 0.280783 0.37595 -2.09111
1288 1 3.66045 -4.45092 -14.8185 0.0671623 -2.53756 -0.015815
1289 1 23.5036 -10.2833 -9.17272 1.46867 -1.63343 3.80551
1293 1 -8.28881 -1.95128 1.75781 -1.56403 1.06399 1.60893
1294 1 14.5876 -12.8391 -7.88007 -6.0566 -2.91792 1.60128
1296 1 -6.91716 -10.7441 5.80586 0.439776 1.15489 -0.1823
1298 1 1.64437 -7.44244 -1.94049 1.45423 -3.01901 0.0651046
1299 1 -10.4255 -11.7545 -5.4097 0.747743 -6.76947 1.41642
1300 1 1.47991 -2.30201 -2.17548 1.28103 4.22122 -3.01172
1302 1 -5.17191 -2.37266 -22.2065 -2.17462 -1.89103 -0.100129
1303 1 -6.44152 -7.11418 -17.1055 -0.123769 -0.098284 0.407271
1306 1 6.03151 -21.7336 -0.636041 -1.36851 1.03049 -0.135873
1307 1 -15.7555 -22.462 -3.49372 -2.07064 5.10296 -3.73101
1308 1 -19.5589 -3.4262 7.66427 0.433818 2.15331 -2.80107
1309 1 0.167617 -12.6145 -7.59217 -0.216084 0.449173 0.0997827
1310 1 -1.41402 -17.5096 -1.47195 1.82369 -0.241713 -0.264166
1312 1 -17.976 -7.6549 3.72756 0.227505 -1.66636 7.70016
1315 1 -21.528 -10.0191 -21.3252 1.27757 2.68085 -0.132041
1316 1 19.4098 -10.7019 -13.3694 0.861582 5.36003 -3.15658
1320 1 21.0353 -5.21027 -10.7153 -3.31398 1.08993 -3.01913
1321 1 10.2858 -21.0104 -7.05987 3.36888 -2.47443 0.80768
1322 1 1.12867 -13.621 -4.09284 -0.910633 -7.94552 -3.41582
1323 1 13.1156 -11.9207 12.378 -0.497733 -5.22928 -0.551764
1324 1 -9.34339 -20.1405 -18.6704 3.02318 -2.16316 -2.21993
1326 1 -19.0616 -18.1007 -18.3592 3.88182 0.993396 -1.32913
1329 1 20.6772 -13.4898 -2.89082 -2.46751 -1.73621 -5.94991
1332 1 12.7205 -21.6136 22.0894 -0.583335 -1.45034 -3.37708
1334 1 12.2555 -9.50011 -9.87849 0.959137 -2.06666 -0.3757
1337 1 7.43494 -21.0849 7.25485 1.41993 -4.28576 -4.02179
1339 1 2.00881 -19.2269 23.1617 -1.89302 -1.27948 -1.25293
1342 1 1.93725 -23.3567 -16.5597 0.103512 1.47931 3.77435
1343 1 -12.6329 -9.23068 -6.72807 -0.832929 -2.21691 -2.37751
1344 1 17.8584 -8.45199 5.69515 1.06809 -2.41519 0.883204
3944 1 -13.9129 -9.69186 -13.7239 -0.681733 -1.82567 1.41586
1347 1 -17.5604 -12.1623 -21.6094 2.84317 2.8717 0.70029
1349 1 1.99898 -12.4359 8.71837 -2.87059 3.56241 1.29772
1351 1 13.1333 -13.6885 17.1528 1.08072 0.878849 -3.31163
1354 1 -0.60496 -5.5217 -17.8664 -1.99607 -0.939038 -4.38248
1356 1 -21.4345 -13.5437 -0.787277 -0.938906 -2.96727 1.04173
1357 1 -20.5473 -6.76534 -9.5754 3.50651 -5.75297 9.11951
3266 1 10.869 -2.11455 22.1524 -0.364605 -2.6402 2.21341
1360 1 17.4977 -15.0709 8.1608 -4.64098 0.667206 2.96164
1361 1 -7.8473 -21.9352 6.16688 3.28526 4.57007 -1.03432
1363 1 -16.0996 -9.34693 -21.1608 0.287472 -0.462338 -2.14631
1364 1 11.6536 -13.6732 -11.5568 -2.76003 -1.92641 0.481002
1365 1 9.2422 -5.87331 -22.0665 3.48733 5.67046 -5.26723
1366 1 19.0323 -14.788 0.86586 -2.34134 3.68227 2.02973
1367 1 -8.8099 -13.5883 14.6966 1.71051 1.08175 -6.53709
1370 1 3.95035 -13.0827 23.5943 3.96995 1.54453 2.39099
1373 1 -14.8504 -8.83215 13.249 -2.71574 -3.00759 -6.17561
1375 1 15.7962 -7.48395 2.04531 -1.0041 3.11606 -0.266507
1378 1 9.19948 -9.78322 0.997565 1.55688 -1.21829 -2.79469
1379 1 -20.2745 -17.3859 5.50179 -0.898197 0.548576 3.12877
1382 1 14.9484 -14.3453 9.40839 -0.0598994 -1.20285 3.62655
3196 1 -1.02917 -2.22403 -0.740941 6.31224 0.752484 -2.94773
1388 1 15.3022 -2.30349 17.822 -3.78022 4.11053 4.01852
1389 1 19.3989 -2.88453 -1.6909 0.947486 -1.18112 3.42528
3924 1 -10.8191 -6.92646 9.42801 -2.09427 2.41658 3.14653
1393 1 -1.71715 -6.42404 2.73375 -5.21456 0.52882 -1.82386
1396 1 -18.5238 -9.77378 9.19958 2.67525 -3.00862 -0.589158
1399 1 -1.50779 -22.8263 -0.806026 6.91143 1.98069 2.2202
1401 1 21.5497 -22.9448 22.6255 -1.30775 5.62721 2.94177
1402 1 -18.0989 -5.17021 -15.7249 -1.02668 -0.452461 1.00798
1967 1 -15.565 -24.3452 19.0835 0.242767 -1.68847 -3.31828
1404 1 20.6138 -9.8673 10.6841 4.54774 -0.764983 0.0185201
1408 1 -3.79706 -4.74609 -14.2649 -2.97549 -6.53022 7.22295
1410 1 -0.0296881 -19.8409 -17.188 3.48602 1.19728 3.40863
1415 1 -8.62763 -21.9394 1.64341 4.10171 3.03448 -2.0889
1416 1 -23.3898 -7.69546 10.1632 0.12847 1.35482 0.685566
1418 1 14.5095 -8.69811 -0.34875 -1.07684 -0.853344 1.37411
1421 1 22.6236 -9.73999 6.74749 2.04996 -0.961484 -1.13229
1422 1 -12.2414 -18.1783 -14.955 -1.07079 -1.30174 -3.7361
1426 1 5.94819 -19.9223 2.81807 1.55892 -2.62187 -0.639142
1427 1 18.3519 -13.0967 -1.12874 -2.41716 -5.61105 0.890876
1428 1 -4.04955 -18.3392 20.4547 0.657881 -0.84039 1.66924
1429 1 -21.2261 -16.7368 7.98534 -1.52984 -0.598441 -2.7207
1433 1 -18.109 -12.3708 -16.0192 3.48243 -5.06431 -0.761119
1436 1 -15.4537 -4.23402 -14.7865 3.67244 -2.89505 -1.0373
1441 1 -19.0442 -16.1287 19.8822 2.79082 -0.397238 1.09791
1442 1 -22.5924 -6.04729 -3.68616 -2.18876 0.646397 1.16112
1443 1 16.0091 -13.0034 17.2388 -0.486458 -0.992265 -0.491657
1445 1 10.8264 -19.133 10.6783 -4.40049 -3.25301 -1.97012
1446 1 3.17099 -9.97186 -9.73285 -4.74982 -0.533678 -0.484565
1447 1 22.3188 -5.47392 -17.8259 -0.244953 3.87285 0.025064
1449 1 11.646 -3.3276 -0.183611 5.87584 -0.980949 1.98359
1450 1 -7.23911 -5.45556 -9.92225 0.622723 -3.15637 1.1513
2780 1 -13.7784 -1.02577 -6.38422 -4.05857 0.574768 -0.194406
1453 1 0.0958357 -21.171 -7.60615 2.51059 -6.91925 -1.65603
1454 1 8.02166 -11.9661 -0.441379 1.08421 1.64354 -0.492093
1455 1 -15.1829 -17.4946 -3.51345 1.01728 2.67586 0.473768
1459 1 -11.9213 -13.9794 -2.7423 -5.66031 -1.73137 6.20647
1462 1 -11.4418 -18.6314 8.95725 -5.88032 -5.46006 -2.70816
1464 1 2.23249 -18.7291 5.37164 2.33047 -2.99672 -1.89951
1466 1 -18.8893 -6.88529 -2.31442 -0.376306 1.71893 3.23081
1467 1 -24.3872 -17.3862 -16.3755 1.59425 6.10706 3.53208
1470 1 -3.75331 -10.659 6.46069 -1.25872 -1.9108 0.714299
1471 1 -4.41416 -5.01462 -11.3836 1.40398 0.277231 -2.51875
1473 1 15.5074 -19.2586 -13.6963 0.799229 1.30938 0.434573
1475 1 -21.3443 -23.1544 -2.88138 1.35027 -4.30358 6.61289
1479 1 9.75659 -9.34055 5.45618 -0.0387089 -1.93085 -4.15836
1483 1 10.5728 -22.3495 -20.6872 0.518757 -2.02028 8.10344
1485 1 8.11564 -9.78369 22.2863 -5.62741 -1.72563 -1.08027
1486 1 -16.7937 -5.89559 15.0501 -3.63348 -0.475699 0.102716
1488 1 -19.0118 -18.0175 12.5053 -0.0329297 0.390163 -0.350671
1493 1 -3.11139 -5.92918 -16.7236 -0.707118 0.531433 2.52427
1495 1 -21.7975 -10.0293 19.7599 -4.26969 -0.673278 0.0446179
1497 1 13.5317 -10.068 -19.3653 3.0487 -1.04671 0.727081
1502 1 -23.6026 -5.94999 -6.3926 0.754777 0.623016 4.72705
1504 1 -3.58745 -23.8137 -6.29111 -3.95591 -1.11544 -5.4272
1505 1 17.0022 -21.3656 -19.9245 -0.284366 -1.57773 5.92554
1508 1 20.9574 -10.9125 -3.77895 1.75485 4.27205 0.541811
1510 1 -17.2307 -11.5077 0.590176 2.09081 -4.20547 -3.15206
1511 1 21.5738 -5.96949 14.9987 -3.63238 0.702629 -4.27385
1512 1 -13.3635 -13.3309 -0.219356 3.37711 -4.82706 -2.85067
1514 1 -15.2741 -4.94423 -6.71932 -2.10761 -0.24837 -1.21422
3623 1 9.37024 -3.12907 18.6026 -3.55709 1.40319 0.809503
1517 1 22.2022 -15.9939 -10.8833 0.00656245 2.76617 1.99306
1519 1 -11.4561 -17.957 0.5888 -0.25663 1.78947 -4.52243
1521 1 -8.52896 -8.64749 17.4128 4.35279 -3.28031 -0.990073
3504 1 15.054 -1.41066 -0.943878 -2.56105 -3.35668 0.273182
1524 1 -0.605595 -18.8497 6.71192 -2.99576 1.53574 -7.40495
1525 1 -11.5649 -7.57216 1.09659 2.74332 0.141412 -0.1557
1531 1 7.00032 -9.2636 9.69528 -1.02577 -1.66092 0.689641
1532 1 20.7254 -3.69002 -16.1956 3.14835 2.42808 -0.829753
1534 1 -16.2578 -6.8169 10.6133 4.95666 9.1365 -2.63239
1535 1 1.52913 -6.4301 15.8929 2.46952 -4.70675 0.343787
1541 1 7.21033 -18.1388 -8.08328 -4.09243 0.937107 2.28463
1542 1 -22.37 -4.99375 15.5087 -1.22226 -7.4873 1.19572
3943 1 -20.5988 -19.6823 2.44037 -3.1119 -0.122954 -2.75025
1545 1 -7.08418 -15.8155 14.0578 2.47986 -1.42401 -1.33883
1546 1 -16.756 -14.5105 20.6897 1.52545 1.11566 1.79747
2356 1 14.7415 -24.318 -9.09214 3.58241 -1.68541 1.16639
377 1 14.2369 -1.39767 12.4561 4.02107 -0.68105 0.994852
1549 1 0.257023 -3.72296 -15.6954 2.71597 -3.59795 2.23794
1550 1 -3.06087 -7.39002 -10.4909 -1.36761 -3.55155 -1.53174
1554 1 -7.49025 -7.75664 -21.4695 0.321217 1.61837 0.197901
1555 1 -21.9773 -2.60678 -4.05189 -5.45892 2.77494 2.42611
1556 1 19.726 -18.8406 -8.22587 1.43982 -0.19908 8.2907
1557 1 8.83546 -23.1551 -18.3493 3.00707 -0.527803 0.244531
1558 1 7.69255 -16.5062 0.252229 -3.63028 -1.66992 3.05327
1560 1 -19.7369 -19.1046 20.6805 4.83087 0.432768 -5.71931
1562 1 -0.468651 -4.81479 0.541604 0.336238 1.38839 2.24827
1563 1 -1.68139 -5.06842 12.829 -0.879799 1.06449 -0.618303
1566 1 3.64251 -6.54605 9.25824 2.46835 0.569218 1.47525
1567 1 0.0769185 -11.0432 -20.9779 0.979981 2.82091 -3.06391
1571 1 -3.35073 -11.2982 -2.54068 -0.639699 -5.01874 0.663351
1572 1 -4.05817 -13.7389 12.7138 -2.10522 3.03077 -0.464586
1573 1 -10.6317 -13.9309 18.9702 -3.99858 -1.74972 -3.54917
1574 1 18.5769 -17.5452 5.2243 0.866372 0.35953 3.23732
1577 1 14.483 -22.2586 5.59422 4.15673 0.113769 -1.04464
1580 1 -15.0609 -24.3029 -5.85224 8.83104 5.37341 2.88582
1581 1 -3.89908 -6.18444 11.6602 0.75473 -2.10334 3.21923
1171 1 22.1347 -1.76603 -7.65473 -0.325636 -2.33909 -4.46056
1584 1 -7.22573 -3.99745 12.936 1.18755 -2.36634 1.87412
1585 1 -8.10642 -14.1572 22.1956 -2.9657 -0.170649 1.07498
1586 1 -16.6334 -22.3263 -0.453695 -4.73949 -4.91043 2.08521
1587 1 17.3519 -4.40635 -9.2132 2.7882 0.245901 4.90338
1589 1 -11.1654 -22.1841 -3.03364 0.08548 3.73326 -4.35169
1596 1 -5.16172 -2.61477 -18.6157 -4.35441 -2.86 -1.60256
1597 1 17.283 -23.0875 6.14199 2.88278 0.991335 2.04629
1599 1 -23.0875 -2.39862 10.4646 4.62394 0.36066 -2.04963
1600 1 16.6101 -13.4316 -16.9974 4.16989 0.934714 1.45077
1602 1 -20.1471 -12.7342 -20.2024 -0.317671 0.857236 -1.87294
1603 1 7.89223 -9.10019 -13.344 -0.637674 0.435165 -0.502127
1604 1 21.2672 -14.8939 -15.0435 0.800951 0.903866 -1.41459
1605 1 -0.290342 -2.91636 -11.1933 -3.26034 -1.90069 -3.09328
1607 1 12.6896 -20.4065 -13.8129 -1.68429 1.24025 -3.23396
1612 1 -23.2104 -16.1385 16.0293 2.07368 5.99332 5.53312
1613 1 -0.830902 -14.7471 2.90274 5.45191 -0.880403 -2.11179
1614 1 -15.7206 -12.7547 3.11727 1.44627 -1.31609 6.80382
1615 1 -4.45423 -14.4968 -10.0484 2.99023 6.69432 -2.03109
1616 1 14.6056 -11.3801 -16.976 1.7687 1.68691 0.470273
1617 1 -14.6098 -10.9162 -10.1392 -1.79378 -2.57699 -0.800537
1620 1 14.9395 -10.5546 -5.73796 2.19385 1.25888 -1.15902
1623 1 -9.64459 -16.805 18.114 -0.940041 -3.55047 -0.864982
1627 1 17.3627 -5.52572 22.6871 0.923144 0.988107 -2.88523
478 1 3.69347 -1.01946 -22.9303 -2.60697 -2.08248 -2.06116
1630 1 14.3406 -6.21594 18.9701 -3.75978 -3.81227 1.97053
1631 1 23.5125 -19.7861 8.62231 5.82904 0.390107 1.07875
1634 1 -20.5227 -7.74979 -22.676 1.10112 -2.63671 -0.832582
1635 1 7.98733 -14.8993 -10.1158 -2.39096 -0.203647 -0.0856906
1636 1 18.4178 -11.5522 11.4982 -1.57207 -1.48353 0.227166
1638 1 15.5464 -5.30729 -18.2423 -2.20479 -2.63035 2.88197
1640 1 -17.8315 -20.2065 -10.7753 0.984076 -2.74433 0.338882
1641 1 20.6003 -11.3204 20.0648 1.34192 -1.04928 0.718912
1645 1 -6.94552 -7.00162 -7.13886 -1.42846 -0.775946 -0.055153
1646 1 -21.9924 -8.17618 -18.7014 2.67773 -0.162083 4.58301
1648 1 -21.7685 -14.5417 -22.3462 -4.5843 2.71932 -0.949796
1649 1 -16.3665 -5.67062 -11.1521 -3.66769 -2.46019 2.95719
1650 1 11.9012 -3.3659 -11.5891 0.909036 -0.00718537 -0.246806
1651 1 13.4655 -18.4222 1.33635 0.513139 -4.58261 -1.51825
1653 1 12.2563 -21.9036 3.78318 -1.89211 4.20247 -0.221142
1654 1 5.10491 -16.3217 12.7994 3.20927 -6.97446 2.92678
1659 1 -5.18617 -22.4996 4.92874 3.28522 -0.973177 1.33116
1660 1 4.31148 -10.48 -21.404 -1.7319 -1.71356 -0.481767
1662 1 -7.96608 -20.4176 -7.80892 -1.84172 0.902713 0.808138
1663 1 -16.5476 -2.08941 0.125536 1.3798 -1.96291 -2.18941
1664 1 3.69809 -11.8671 -14.0501 2.19541 -2.51157 -1.26342
1666 1 17.8695 -7.6661 -15.0968 -0.366083 2.98838 3.1511
2018 1 -17.4082 -1.94371 6.389 -2.14443 2.7477 1.10189
3942 1 8.75125 -22.3592 17.0308 -2.77334 4.13593 1.10201
1673 1 1.05565 -16.7663 3.54438 -1.68426 -4.70142 2.35076
1674 1 4.19663 -4.13729 -8.47416 1.44563 2.11553 0.841357
1677 1 22.5248 -19.116 13.0789 4.54989 2.59387 -4.06652
1680 1 -23.8742 -19.4303 -18.4416 1.10069 -1.10509 0.476968
1681 1 -17.7192 -7.26368 -23.0175 2.8106 -1.29842 2.58826
1686 1 12.1159 -9.51979 22.1809 -3.0327 -2.91201 -1.11733
1687 1 21.2437 -18.2692 -12.2882 4.74108 1.41902 1.72223
1688 1 -17.472 -2.76077 -12.9359 1.39634 4.2867 -3.67066
1689 1 2.14723 -23.1987 -2.02741 -3.19869 1.76941 2.8031
2124 1 21.35 -1.68902 -19.308 -1.67851 5.51265 3.43948
1691 1 -18.2869 -14.1992 6.47721 1.80622 0.0440444 -0.160996
1755 1 -8.15162 -1.47422 -4.11764 -4.92463 0.489368 -6.40982
1696 1 11.135 -2.79286 2.77147 -0.289574 -4.80333 0.650189
1697 1 -12.112 -22.9529 7.60971 -0.0160659 -0.56401 4.64921
1700 1 14.6074 -2.92727 -14.7563 -2.70518 -0.891866 1.6811
1702 1 0.637727 -22.3987 11.691 -0.752967 -3.80288 5.24903
1704 1 -11.2687 -10.7473 5.5329 -0.238588 -0.423819 0.979275
1707 1 -10.2707 -11.1399 17.3923 1.69294 -1.05108 0.976584
1710 1 -8.58431 -21.299 -14.1062 -2.11692 -3.23005 -0.876997
3492 1 18.051 -1.17272 3.55337 -2.66973 1.24169 -0.567331
1716 1 16.7062 -22.9356 23.3351 6.00069 0.567291 -1.21917
1717 1 11.1555 -15.64 -1.84393 5.92138 1.02664 1.4166
1718 1 4.4708 -20.2429 -12.2525 0.247397 0.59548 -1.6357
1720 1 -4.43456 -24.0956 7.16183 -5.64403 -1.89201 3.80383
1722 1 16.8458 -23.0838 17.0859 -3.2877 1.4359 -1.07558
1724 1 -18.2785 -24.0013 -2.87381 -4.25531 -2.86135 4.1215
1727 1 23.7571 -3.21617 -18.7478 3.02226 0.767242 2.13058
1728 1 22.5671 -5.96467 -20.664 -7.18623 4.58803 -3.52398
1730 1 -6.96605 -10.6497 -22.9656 -3.61821 6.42912 -2.40794
1732 1 13.1434 -13.1362 7.25303 -1.94903 4.14915 1.09297
1733 1 -12.8742 -16.188 9.37534 0.609595 1.71166 -0.318646
1739 1 -8.80392 -21.8644 16.5943 2.05242 -4.19324 -3.18336
1742 1 -1.0884 -6.73124 22.6431 -4.90086 -4.97961 -1.04506
1743 1 18.1623 -16.181 10.9346 1.65248 0.830671 -0.55499
1747 1 3.47716 -17.2069 -5.59948 3.19534 0.712173 -2.57016
1751 1 2.17473 -10.0796 12.9575 -4.35995 0.241354 1.60963
1753 1 -21.6915 -16.4704 -20.2454 -1.20226 4.9397 -1.5368
1757 1 17.2282 -12.3685 -6.29223 0.824155 2.78579 -4.21895
1758 1 20.0577 -22.358 6.81325 -6.50387 -4.7389 -0.201919
1760 1 -15.4306 -12.4119 24.0059 -1.62269 1.54398 -1.63656
1761 1 22.206 -18.2564 -19.7955 1.75328 5.59236 -1.85835
1765 1 0.900225 -18.1992 -2.89293 -4.63352 -4.61179 -3.92976
1768 1 12.4671 -2.65625 7.46016 0.200045 0.387858 -3.35183
1770 1 -9.08382 -3.92702 19.5233 2.48333 0.485068 -4.79502
1772 1 13.1023 -21.3889 0.938789 -1.89475 -2.02452 -1.91232
1774 1 18.8182 -18.4193 21.0238 -0.5022 3.69806 0.9559
1777 1 -23.6938 -11.5464 18.3457 3.81107 -0.487922 -4.28448
1778 1 -17.3215 -8.34961 -11.8415 -3.30595 1.29796 -0.676052
1782 1 -22.0567 -15.1595 -9.9032 2.49489 -0.845682 0.553639
1788 1 -16.3308 -16.5668 16.9836 -1.46789 2.49708 1.37306
1918 1 -18.8176 -1.87102 -20.2059 0.662142 -8.28306 2.53163
1791 1 2.23999 -8.04644 -15.8467 1.99976 4.16955 -3.14715
1522 1 -13.3545 -2.81471 -13.7021 1.16328 -1.34279 1.4184
1796 1 -23.7111 -11.2608 -22.7262 -3.03761 -0.451801 -4.01846
1798 1 18.3208 -7.61672 -17.9885 1.09143 6.45944 -3.22616
1801 1 -11.2256 -19.468 -4.20762 1.59627 -0.844251 2.79567
1802 1 -17.2125 -21.0236 -8.0349 -2.68901 -0.61439 -1.46991
1911 1 20.1534 -3.85608 -8.37388 3.06311 1.1572 2.32499
1806 1 11.2039 -3.91793 16.1544 1.03658 -1.91477 -4.41756
1807 1 -20.2864 -9.55609 23.272 -0.230033 -2.65026 3.5231
1808 1 21.6082 -11.4793 17.612 -0.70458 4.95191 -4.96057
1810 1 11.2062 -23.0076 -5.48109 5.49268 0.786973 3.55193
1812 1 -11.8883 -3.87379 -20.8684 -4.61517 -0.799626 -3.96529
1815 1 10.9775 -4.12984 -23.7077 -2.42857 4.5699 3.45249
1818 1 -23.0227 -9.5189 7.86371 -3.71605 -1.99448 -0.0674741
1819 1 -12.4154 -11.1508 19.6761 -1.17126 2.12904 7.81304
1822 1 15.0211 -0.757789 -4.1937 -0.856164 4.86333 0.23784
2160 1 -18.5239 -1.59183 20.3989 1.78246 -0.030192 1.05738
1824 1 -17.7177 -18.1378 8.57986 -1.19985 2.46637 -4.61435
1825 1 7.03808 -10.8285 -4.8189 -2.32728 0.558654 0.835474
1827 1 15.6956 -21.6961 -3.02413 -1.31286 -2.77806 2.02718
1828 1 -12.632 -20.7755 -20.8592 0.675291 -0.709341 -4.42212
1831 1 13.1942 -14.9209 -3.73294 -0.740527 -3.37601 -1.0947
1832 1 -22.6824 -11.4068 22.4765 2.30798 2.71316 -0.777151
1834 1 6.79438 -9.2692 -22.3997 -2.42817 -4.38583 2.97565
3936 1 -0.401738 -23.4484 22.4797 -0.33711 3.66555 -5.65888
1837 1 12.9499 -20.7534 9.33204 -0.523572 3.06601 1.86873
1840 1 -21.1265 -11.994 1.54462 -1.52506 0.668233 0.688178
1841 1 9.68355 -23.5059 -11.0816 -0.942179 0.927115 2.62435
1842 1 15.9991 -20.2653 1.11906 -0.411935 -0.199241 -1.53046
1843 1 7.48896 -5.22591 -19.4072 -1.54809 1.22684 0.540104
1844 1 -4.1355 -2.43332 4.64282 -1.42491 1.08739 4.20207
1846 1 10.8526 -19.0743 6.34257 -5.21797 1.30675 2.59382
1847 1 18.3716 -14.3741 17.7414 3.42206 3.99992 1.42414
1849 1 12.3991 -22.6632 -12.3822 -1.40927 4.04661 3.15331
1850 1 15.9198 -21.5313 -9.03787 -2.06752 1.25271 -0.110697
1853 1 3.69963 -12.6146 6.29691 1.89525 -1.57821 -2.28631
2468 1 -19.6476 -23.6164 -5.40656 2.16435 -0.95809 -0.896092
1856 1 6.78674 -5.18913 -16.4205 -4.95789 0.32304 0.652562
1857 1 -0.221285 -19.0212 2.11001 -0.077118 3.93372 -0.56693
1858 1 2.54893 -18.1276 -12.2124 -2.25651 2.2122 0.522861
1859 1 6.02438 -15.3386 -15.5902 1.74333 0.694973 -0.232058
1861 1 -15.845 -21.2688 -18.3768 2.92254 -0.572037 1.49764
3586 1 15.0378 -1.54699 -9.1695 2.88215 1.85165 1.64008
1863 1 -3.953 -12.4112 -7.78437 -0.30326 -2.94912 -0.348097
1865 1 -10.4674 -3.23382 8.06578 1.42109 -1.00879 1.10341
1867 1 6.32046 -7.14563 -1.39928 3.11062 2.5077 -4.59239
1871 1 17.6756 -13.2725 4.63848 4.25646 0.858935 -1.10776
1872 1 0.139334 -10.8576 -10.0482 3.19949 2.63232 3.86962
1874 1 -10.8655 -16.8206 -19.0695 0.829062 -1.68972 -2.10638
1875 1 -23.6648 -6.65158 -12.666 1.01566 1.60172 -0.799496
1877 1 -18.0671 -6.22434 8.16418 1.75371 2.5206 0.219213
1879 1 -20.5739 -17.4089 -16.0994 2.94833 0.153635 -0.0919612
1883 1 -6.28056 -11.6781 -6.79695 -1.03152 1.87922 5.20121
1887 1 18.9272 -5.06775 13.598 -1.49986 6.87789 5.52063
1888 1 -10.4599 -19.2028 -12.9207 6.24997 -2.72377 -3.64483
1891 1 -10.3536 -13.9825 -22.2924 1.65426 -2.05396 4.18461
1892 1 -1.75191 -15.8476 -16.0876 -5.64398 0.18473 -0.650372
1894 1 -1.24 -17.2227 -4.92141 -1.85239 -4.56031 -2.69345
1895 1 -19.4681 -5.50094 15.9355 2.91901 2.74533 -1.61411
3018 1 -21.0318 -1.11864 -14.7352 3.49043 -2.57751 2.0307
1901 1 -11.1522 -14.1435 -19.4644 0.129846 -2.02717 0.373779
1903 1 0.126036 -17.9844 -14.96 1.47465 -1.5291 -3.98353
1904 1 -8.63851 -22.8289 19.1693 0.260232 -1.04159 3.36647
1669 1 14.9113 -23.6574 -11.8113 -1.17706 0.17785 -1.74284
1907 1 -22.2926 -9.28086 13.9997 1.14306 1.91335 1.88935
1908 1 -18.2081 -5.95612 0.101677 3.66926 5.27601 1.44101
1909 1 12.1995 -8.18919 12.9817 2.2747 -4.44328 4.9883
1910 1 -7.80283 -11.2808 15.8608 -1.47131 2.31705 3.43274
3603 1 -5.94686 -1.80079 11.8131 -0.22664 2.13355 0.550176
1915 1 19.1858 -20.7143 -15.331 -5.35049 7.8141 0.816689
525 1 -8.7167 -2.36028 -1.0723 2.92383 -1.20609 0.43314
1920 1 22.108 -14.3282 1.23674 -4.71167 -1.54759 -1.51601
1924 1 22.9553 -16.7853 -0.0856817 -3.60671 0.233266 1.87701
238 1 16.7467 -0.896143 22.6451 7.4622 1.71742 0.289685
1926 1 13.6768 -3.31887 -5.40705 1.08277 2.34634 2.32979
1927 1 -10.296 -18.6905 -21.0998 2.18706 3.13704 2.53586
1928 1 22.5245 -1.51247 6.28597 -2.40378 -4.33571 -3.17473
1930 1 -6.79466 -14.845 -20.8392 5.23032 -0.137202 3.29652
1934 1 0.321427 -10.1384 -1.40774 -1.51247 3.16359 3.58865
1935 1 17.2093 -15.6445 3.02413 1.61011 -1.0059 -4.1471
1936 1 19.1669 -22.0877 -23.7424 2.65458 2.71414 -5.05649
3963 1 -15.2291 -17.338 -0.584227 1.8273 1.60858 -3.88486
1941 1 -0.878584 -24.2874 -13.3235 1.44299 1.11169 1.28869
1944 1 -19.499 -22.2882 -0.880019 1.16374 3.12169 -4.69011
1945 1 -22.7419 -19.8208 22.7131 -3.35071 0.749618 2.96668
1949 1 -8.83411 -8.1998 -9.16272 -5.39096 1.26232 -2.23909
1951 1 -4.99573 -14.3487 15.5991 -0.158362 -1.65319 2.07359
1952 1 3.99628 -14.3818 -12.7605 -1.77125 0.312941 -2.23297
1953 1 17.1789 -17.9452 -1.55676 -1.08541 -1.09122 0.843446
1955 1 -12.8221 -19.037 22.7256 1.98362 -1.18342 2.31443
1959 1 22.0452 -3.8366 -3.21626 -0.730572 2.35376 -1.83694
1960 1 -16.1069 -4.47365 -19.55 0.688582 -4.44495 0.560917
1961 1 15.3409 -12.9042 -3.94735 1.31634 1.10403 4.24484
1962 1 1.39012 -10.9452 -4.0674 -0.382019 4.93476 4.55418
1965 1 16.9346 -5.67039 19.757 -0.765958 -1.76609 -1.4459
1966 1 -18.8948 -18.0109 -9.09951 -4.29394 -3.61825 1.54129
689 1 -2.54353 -1.98649 -4.66928 1.51504 2.92596 -4.09164
1969 1 -2.81585 -8.77873 12.0045 -3.96518 -2.28916 -1.2338
1970 1 20.7909 -6.43243 -3.86899 -2.37061 2.35581 -6.37477
128 1 -18.5195 -1.84733 -7.575 -3.43154 4.34532 3.17659
1972 1 -4.13376 -5.57195 8.89679 -0.381126 3.1123 0.0400621
1973 1 12.9899 -17.2037 19.3327 -3.27137 3.29471 -5.24104
1974 1 15.6764 -11.6179 10.4743 -0.987349 2.7003 -3.6865
1975 1 11.7667 -18.4946 -18.596 6.2474 -2.33989 3.65881
1976 1 18.2772 -10.139 24.0417 2.56862 -1.44422 -0.807667
1977 1 14.2261 -14.968 14.0401 0.35044 1.18303 1.47496
1978 1 3.39467 -3.16437 23.1915 -1.35109 -0.874784 1.99901
1982 1 -19.7418 -4.3001 22.6589 -1.509 -1.47207 0.718024
1983 1 16.9817 -5.91452 -4.57623 4.74243 -0.464335 -1.96715
3957 1 18.2448 -23.2873 -17.9235 -0.393701 4.84751 1.71478
1986 1 13.9801 -5.34711 3.07513 -2.66232 -2.5467 2.22283
1989 1 -11.866 -14.3746 11.7434 1.51511 -2.71085 0.713187
1990 1 19.0457 -14.6499 -5.10331 -3.99483 -2.7676 -1.50893
1991 1 -23.0274 -22.8182 22.2775 0.195444 0.413205 0.803724
1994 1 23.7152 -17.8972 4.39309 0.396062 -2.17923 -2.71584
1999 1 -1.45351 -11.3564 23.0755 3.26959 -1.94471 0.801961
2001 1 -9.29167 -13.0032 -3.19207 1.14146 -4.3288 -5.26476
2003 1 11.521 -4.43915 -9.0223 -4.59996 4.35602 -3.47638
2004 1 -0.362268 -23.3492 -22.7646 -1.58109 -0.669881 -1.97371
2005 1 2.295 -3.57375 15.9558 -1.33086 -3.17335 2.01596
2006 1 10.5869 -9.5876 -7.73055 0.461634 3.28146 -0.202945
2012 1 16.114 -20.2927 14.5051 -1.92858 1.6332 -1.31664
2014 1 -10.7321 -7.25773 13.2333 -5.18269 1.79067 -0.778455
2015 1 -4.49279 -6.5505 -1.71984 -7.21744 3.70634 -7.22635
2016 1 -5.21927 -15.1976 -6.94289 -0.298099 0.559699 -0.919408
701 1 16.2021 -2.64942 8.95608 -0.528836 -1.70079 -3.82173
2020 1 7.91488 -13.318 -14.5271 -1.9483 -2.67505 -0.602219
2023 1 -21.8101 -12.0176 8.6149 -0.969539 -2.2555 4.13419
2025 1 2.86388 -10.2847 24.0199 1.25829 -1.22796 -1.69885
2028 1 1.80327 -2.1822 -20.0022 -1.80143 2.86664 -1.05664
2029 1 15.1352 -8.71071 -3.11523 -1.61241 1.07287 -0.642712
2030 1 10.5929 -16.3981 -20.3337 -0.54071 -3.30035 0.571785
2031 1 -5.99702 -21.4246 -9.84723 1.23642 -1.48856 3.84284
2034 1 -9.42895 -3.87199 -18.24 -2.64073 -1.88885 -2.90147
2035 1 17.5273 -14.7505 23.5291 -3.62308 -1.30115 -2.9249
2039 1 10.3814 -19.3031 -21.1616 3.15047 -0.837238 -1.74553
2040 1 -6.08166 -23.8077 -4.87583 -1.40532 4.16353 5.97733
2041 1 -14.3714 -12.5776 21.3237 -6.64039 -0.458388 1.23837
2042 1 6.08236 -21.4193 22.1312 -1.9534 5.05112 -1.60976
2044 1 2.72623 -6.63808 2.80402 0.41274 -3.29797 -4.10771
2045 1 5.22596 -18.1538 -15.335 1.97282 -2.41882 -0.368148
2047 1 -6.69928 -13.1521 7.93245 3.2827 1.6158 1.69869
2057 1 16.1699 -5.0079 7.02634 -5.94789 3.78863 2.42865
2059 1 3.20162 -7.57896 20.1295 1.04177 1.87631 4.00425
2060 1 -6.34678 -3.66177 -4.78379 2.71942 1.96842 -1.18327
3980 1 -23.3067 -17.3588 -11.653 0.657655 -0.159434 0.966586
2063 1 -11.3994 -11.7799 -17.5466 5.1176 -0.584218 3.93617
2064 1 -15.0119 -19.0677 11.9481 3.22352 0.77651 -1.67247
2065 1 16.5279 -17.1979 22.2184 2.50141 3.03524 0.458819
2069 1 21.7486 -22.9054 -9.38228 -2.04367 -2.49643 -3.918
2071 1 -20.6115 -13.3393 22.248 -4.78794 2.90486 -1.55277
2075 1 -6.39124 -16.4754 21.399 -0.530989 3.48213 3.71154
2077 1 -18.6678 -5.07874 5.22397 -3.16018 0.550262 1.95501
2079 1 6.98534 -14.1775 -20.7306 -1.83732 -4.31934 3.03276
3452 1 -11.0511 -1.22006 -11.9486 1.99736 3.13223 0.0584997
2085 1 -22.4866 -21.2409 -7.34093 3.98978 0.559465 2.71591
2086 1 -11.6624 -14.108 7.4983 0.0590688 2.98409 3.15639
2095 1 -21.8148 -8.91671 5.28098 0.826169 -3.00344 -4.93878
2096 1 9.00436 -4.2392 1.18907 3.8793 3.06554 2.47662
2098 1 -15.0235 -18.8424 -6.23812 0.498525 2.46752 1.33383
2099 1 14.1916 -10.6055 6.13031 -4.67459 -0.271643 -4.18273
2100 1 -2.36499 -4.19721 23.2692 2.70038 1.65025 4.04256
2101 1 -24.163 -6.76098 17.1726 0.387654 -4.9816 -0.786671
2103 1 11.1063 -16.5338 -15.2439 1.95338 0.558061 -2.42679
2104 1 -21.0736 -2.4021 19.6032 4.46398 -1.10632 0.390011
2106 1 -19.2984 -15.4515 -19.4242 1.47458 1.0178 -2.83149
2111 1 22.4933 -11.076 21.9781 0.319802 -4.92867 2.35546
2113 1 -17.0173 -3.91273 21.2859 -1.97114 -3.65014 -0.574462
3962 1 1.77946 -14.842 5.84482 -2.93315 2.33212 3.79507
2115 1 17.1758 -13.7774 -9.23483 -3.10876 -4.27104 -7.36905
2116 1 18.1851 -4.34854 2.70351 -2.22774 4.59858 -2.04131
3961 1 -2.07232 -19.943 -4.08491 1.93925 -0.613309 -2.46466
2120 1 15.5323 -18.0608 12.4894 -2.92692 0.245042 -2.32528
2121 1 8.50773 -20.2043 23.7571 -0.0681089 0.901556 4.99401
2123 1 21.1704 -8.18609 -18.1913 6.43421 -2.15367 -0.279105
92 1 15.934 -24.4006 0.0238508 1.80653 -3.79615 -2.85414
2125 1 -2.65709 -15.8521 15.897 -3.3609 4.22903 0.834359
2126 1 10.251 -5.99351 -3.52945 -1.07592 3.21111 -2.0853
2127 1 22.2557 -9.50627 -22.4683 -3.27219 -3.227 -3.80566
2128 1 -18.8721 -19.7279 -2.20497 2.6359 -2.38691 0.0877346
2129 1 -14.0522 -23.5053 14.2497 -3.13045 2.60439 0.840957
2131 1 18.6779 -6.43645 -0.65598 5.18423 -5.13034 0.755449
2132 1 11.2239 -21.3893 -23.5005 -3.30807 -1.98829 0.147004
2133 1 -14.4396 -13.6401 8.41318 -0.166737 -2.66308 -1.39019
2136 1 -4.91324 -19.5259 5.19988 -4.44833 -1.05825 0.919314
2140 1 9.23851 -13.9283 16.3146 0.747456 -0.803706 0.899453
2141 1 -20.7379 -22.4545 1.68347 1.37327 -4.87656 0.992041
2142 1 -19.4213 -9.07107 18.287 -0.947453 0.397693 -0.0236865
3935 1 12.0939 -15.4643 -17.9812 -4.42202 -2.05311 -1.18797
2148 1 10.6624 -21.9933 20.2907 0.114473 1.72105 2.2075
2149 1 19.5935 -3.29136 -4.70637 2.253 -1.32303 3.69163
2150 1 18.2809 -8.69535 0.916167 4.64662 -0.970266 -1.19295
2153 1 -8.91268 -11.5148 -0.954876 3.1197 -6.96343 -0.00978427
2159 1 2.37316 -21.573 9.65607 -2.10448 1.99738 0.857166
2163 1 8.21721 -6.22458 12.4851 0.856668 -2.78906 3.24757
2167 1 -14.0517 -10.4851 -17.5991 0.405315 0.0496311 5.58044
2169 1 10.8338 -6.74551 -19.6172 0.906671 2.1506 0.198028
2170 1 -7.93219 -15.1882 -0.544552 3.95934 1.2898 -1.99636
2175 1 8.46205 -23.3928 11.1807 -0.905286 -0.733193 -1.34817
2176 1 9.32304 -19.4394 16.2137 -0.551243 2.62162 -1.37933
2178 1 18.5473 -16.2113 -7.70027 -2.6135 -2.71236 -4.53231
2179 1 10.6549 -1.32204 5.39901 4.76416 3.94785 -0.383337
2180 1 10.9981 -6.56631 -10.6682 -3.1488 -4.75977 -1.70402
2181 1 -16.2721 -21.6704 21.2702 -2.31165 -0.346907 1.68394
2183 1 5.2283 -1.98912 10.1856 -0.397794 -1.03783 5.80823
2186 1 3.12063 -10.7575 -16.8144 0.564066 3.65523 1.69103
2187 1 14.1262 -5.77113 8.90564 2.84763 2.18795 -1.14874
2193 1 16.4497 -14.3279 -14.1394 -1.25931 -2.04992 -4.17645
2195 1 -10.3188 -19.0063 -7.88453 -1.50937 -1.43233 5.45404
2200 1 -4.35542 -20.9014 1.2293 -2.80466 -0.190284 0.0322572
2201 1 13.5444 -12.5723 -20.6302 5.82127 -4.39659 -1.66537
2202 1 17.6633 -18.6765 -19.2071 4.98885 2.27269 -4.66604
2206 1 -2.72902 -9.2745 -14.3769 0.0368056 5.09291 -1.74711
2207 1 -23.9548 -9.35377 -1.81029 -2.291 -3.05674 0.465262
2210 1 19.788 -19.3014 -2.35022 -2.28675 -6.14962 -4.62221
2212 1 -17.9565 -5.84193 -4.70369 3.94059 3.45226 -2.71318
2216 1 1.89714 -2.40239 -13.463 -3.44883 -5.15058 6.55956
2217 1 12.8544 -12.3249 21.7458 0.0309871 -1.37941 2.45247
2218 1 -17.109 -6.69013 20.1423 2.70689 -2.699 -5.32252
2219 1 -11.6382 -22.9372 15.9984 -1.22132 -2.37587 -1.24852
2225 1 0.876889 -17.7328 -22.913 -1.13711 -0.718825 -5.04382
2228 1 -8.6333 -8.5418 -24.0531 4.25956 2.79343 1.30576
2144 1 3.14952 -1.43616 6.5524 -0.185227 -5.56796 -2.89099
3585 1 10.6589 -1.80831 9.81655 -0.368963 2.01898 3.89273
2239 1 -14.7684 -8.67977 22.9077 -3.19802 -1.23025 -0.603233
2241 1 -21.1404 -4.13901 -18.1585 1.12688 -0.15856 0.105378
2242 1 -12.9054 -14.9389 20.3385 2.60976 -4.55587 3.1346
2245 1 21.523 -19.0061 10.4077 3.4009 1.80174 0.222561
2247 1 22.0139 -12.4767 10.3141 -2.37759 4.65454 1.90662
2248 1 -1.0897 -7.58325 -12.5477 -1.90727 -0.961787 -6.39795
2251 1 -12.2386 -9.58646 -11.5438 3.43251 -0.250857 -0.372708
2252 1 22.1099 -12.3605 -0.954049 -3.30989 -5.27598 -1.38565
2253 1 6.56396 -18.3098 -3.73176 -0.710408 -0.046109 2.54543
2255 1 2.5951 -3.18045 -17.5565 -3.75787 2.15854 -0.119104
2259 1 -21.9054 -7.9118 21.6275 0.568233 -5.68886 1.5284
2261 1 13.5746 -5.63317 -7.14624 3.22948 -0.367581 -1.00119
2262 1 18.4244 -23.6159 -0.750884 -6.4435 3.28878 -0.935714
2263 1 1.80043 -15.434 -2.0516 -3.20925 -0.739454 -1.19908
2267 1 -10.8679 -14.8977 0.00162048 0.360377 1.81927 -1.43039
2271 1 22.4065 -17.0534 -8.21655 1.74021 1.26117 -0.17581
2273 1 -23.6915 -20.3418 16.0553 -2.16939 3.58239 -2.81119
2278 1 -13.7993 -15.3886 -4.87846 6.27253 -1.32695 5.356
2280 1 11.6206 -10.8491 -2.94764 -1.27819 -0.335899 0.545875
2283 1 21.3558 -12.1444 7.47696 0.930129 -7.12477 5.18242
2286 1 4.00002 -9.09936 2.89484 -1.74655 2.22813 -4.34576
2288 1 -23.5292 -10.4539 -6.12781 1.9247 -5.11114 2.06967
2290 1 14.3755 -8.10432 21.1301 -4.0706 -1.33444 -4.80493
2292 1 -14.1703 -11.3607 -2.20338 -3.18291 1.52945 -3.95842
2296 1 -21.3795 -9.97568 -16.4629 5.9293 -1.90922 1.1255
2298 1 -2.45954 -21.2511 -6.5017 3.87891 -1.7556 4.26625
2299 1 9.03564 -12.2093 -3.08767 3.42253 1.51357 -4.20819
520 1 -5.49165 -24.4702 -13.3118 2.02845 -3.15957 1.63411
2306 1 1.19121 -4.97225 21.7688 -2.80252 -1.36896 2.85394
2310 1 5.0705 -18.5206 8.79605 2.77575 5.50006 0.463463
2312 1 -20.2088 -21.7501 8.52677 -3.30407 0.464967 -2.06341
2316 1 -18.5882 -12.351 3.10115 0.283654 -6.01616 5.20645
2317 1 -4.49246 -9.92919 -9.55693 -2.26132 -0.353227 4.47417
2318 1 19.4077 -5.70784 -6.27963 -0.691866 -1.66038 2.35757
2319 1 5.34035 -9.5448 7.25951 -0.231418 -1.70203 0.511528
2323 1 3.28487 -4.25103 -2.98528 -2.57629 -2.03848 7.48358
2324 1 7.22766 -18.4423 -17.3932 2.59671 5.04545 -0.623894
2325 1 15.0718 -20.4702 -16.2989 -0.759935 3.47269 -3.1846
2326 1 23.0936 -9.29044 -11.8938 -3.56595 -0.0320102 1.27302
2328 1 -10.1967 -8.88794 -4.9514 -2.13103 -1.21626 -2.10721
2330 1 11.2667 -22.9047 17.7424 2.04859 3.49277 0.221795
2331 1 -16.369 -16.5337 12.7057 2.53358 3.20615 -7.26439
2332 1 21.5948 -16.0753 13.6533 -3.58515 -1.88186 0.865194
2333 1 9.18211 -19.4498 -13.2239 1.25013 -1.92581 0.610468
2336 1 16.3596 -12.9412 -19.7481 1.912 4.95405 -0.59785
2338 1 -0.202885 -3.86669 -22.8073 -2.17681 -1.99583 1.13886
2341 1 7.49047 -19.0377 -21.7214 -8.65375 -0.0614161 -5.19187
2342 1 8.17579 -13.9834 1.54492 -2.50318 -1.83589 -0.00315977
2346 1 -4.37766 -20.8659 9.80999 -0.298174 -1.681 -8.1223
3922 1 -15.5869 -16.0412 -16.4196 -0.915218 -1.80572 -1.34175
2353 1 14.7559 -2.3303 6.23001 -1.38417 -4.90675 -0.636935
2354 1 21.3293 -18.1815 -23.0631 1.80412 -1.12027 2.00085
3740 1 6.6324 -1.50672 -19.8343 6.26887 -1.39177 -3.9691
2357 1 -2.90729 -2.87577 2.08248 -1.15365 4.96749 0.36651
2358 1 2.48015 -12.7975 -10.63 0.122553 -2.20977 2.39808
2363 1 16.6807 -10.7883 -0.23548 0.851311 -0.787247 -4.1987
2364 1 2.32664 -2.45813 0.449394 4.88359 0.201809 -2.15746
2365 1 22.6501 -8.70884 -4.1317 -1.58055 -4.43814 -0.464116
2368 1 -6.56563 -18.3078 -6.6859 -2.61778 -0.459467 3.13481
2370 1 -21.0849 -10.8862 -4.22241 2.45597 2.71167 5.87311
2371 1 17.7281 -20.8273 -1.03662 -4.27812 -1.83545 1.67203
2377 1 -8.47387 -6.56658 -4.67625 1.89958 -1.36135 -2.53587
2378 1 6.97705 -2.25284 17.3164 5.29009 5.56893 -1.18279
2380 1 9.40386 -15.0239 22.6683 0.531826 0.500453 -2.85284
2381 1 12.3388 -8.17881 -3.7594 -2.95323 -1.44484 2.36784
2383 1 22.3713 -18.1779 6.8178 -4.21938 -5.73539 -2.66629
2384 1 8.33118 -12.3076 23.8679 3.09664 -2.23828 6.39104
2386 1 1.47845 -2.34978 8.62402 -4.31783 4.54847 -5.38752
2387 1 -13.3863 -6.12668 13.4105 -5.27997 -1.10419 -0.407306
2389 1 9.50294 -8.72824 11.6697 2.55862 0.606808 -2.3849
2390 1 -20.6932 -5.28784 -7.0715 2.03651 0.361675 -1.74196
2391 1 -8.46544 -1.25585 8.50755 3.68422 -3.3257 -1.43533
2392 1 9.35375 -22.1004 -15.9364 1.672 0.587523 -1.02295
2393 1 4.26266 -18.1342 20.0726 -2.67191 1.60824 -2.86764
2396 1 -16.9206 -19.4673 0.0169173 1.96491 5.04487 1.86812
2397 1 -16.5279 -9.21392 18.3791 0.803203 -3.47063 -0.32303
2398 1 -8.83653 -2.28005 14.4875 -6.13311 -6.71479 -1.76078
2399 1 -13.236 -10.8893 11.8441 -3.78695 -0.393289 1.65618
2400 1 10.8963 -8.33935 15.8187 -1.70722 -7.00041 2.55914
2404 1 -21.9919 -5.87918 23.9429 3.9443 1.5147 -3.67348
2405 1 -4.56243 -12.8351 -21.2498 -2.13805 3.02105 4.00352
2407 1 -13.4063 -13.1297 15.7804 0.750392 -5.16602 6.48565
2408 1 -21.9505 -3.34976 -12.8288 -0.781986 -1.9197 2.46437
2410 1 5.75219 -20.967 -23.1146 -1.39151 4.74844 1.25426
2414 1 11.1712 -7.03237 -6.19791 2.53981 0.874862 2.39505
2415 1 23.6232 -22.8005 -23.511 0.686332 -0.163261 1.44262
2417 1 -4.38744 -5.6707 1.74475 -1.95596 6.83197 1.93081
2420 1 -2.78712 -7.20264 -7.67085 0.66641 -6.00175 4.14757
2428 1 11.4275 -17.3474 15.2096 -0.4049 -3.99237 -2.01388
2429 1 -8.37226 -8.6929 -13.0164 0.00758732 1.65764 5.53688
2430 1 -11.8765 -7.78301 15.6959 1.95849 1.85152 0.699909
2433 1 19.31 -23.3755 20.7883 1.39084 1.0916 1.23476
2434 1 0.108448 -21.1778 -2.34232 4.72037 4.36244 -1.87919
2437 1 -13.4634 -5.55785 10.3628 2.84725 0.275054 -0.807929
2438 1 -4.16152 -24.4543 -21.1581 4.99116 1.65444 1.8073
2440 1 6.04358 -2.56687 -15.2453 -2.81063 2.82318 3.45794
2442 1 -2.53642 -8.74156 -17.4143 0.625326 -3.35886 7.34605
2446 1 -1.55165 -5.93716 15.5289 1.33973 2.3134 0.855386
2447 1 -1.71386 -13.0179 16.3583 2.72501 -4.3532 -2.12731
2448 1 1.76304 -15.4362 -9.12641 -4.01365 0.821131 -2.1323
2449 1 16.4273 -23.7452 12.1553 4.4053 3.79773 1.7687
2451 1 7.74289 -21.8465 4.29739 3.05531 -0.830533 -1.06149
2463 1 -13.2963 -21.0585 -23.654 0.825955 2.00481 0.339955
2465 1 -5.33056 -15.3498 -12.8059 1.04583 -0.165247 3.71306
2467 1 1.15131 -15.9397 10.6479 -2.82348 2.61928 -1.13176
2348 1 5.66319 -1.0349 4.74617 0.318164 0.189252 0.411006
2469 1 14.2085 -21.4657 -23.8029 1.59656 2.45315 -1.22257
2470 1 12.4565 -20.8186 -8.73542 -3.01817 -1.46973 3.32352
2474 1 -5.287 -9.4496 -18.3723 -1.50874 4.91055 -4.38776
2476 1 -5.4555 -19.8665 -18.5149 5.48452 -0.781638 0.0201815
2478 1 -3.7699 -20.9562 -1.72059 0.928149 0.63268 1.26982
2479 1 -22.5769 -3.82076 3.35124 0.768847 5.06185 -5.73241
2481 1 -15.9417 -7.04671 -8.79312 -0.71759 2.21938 -0.0285873
2482 1 6.88702 -2.82331 0.0100381 -0.199918 0.953966 2.02703
2484 1 2.18807 -14.6572 -6.52243 5.60043 -2.51516 -1.70128
2485 1 -2.1766 -19.0703 4.33056 -1.44836 0.446527 -2.15077
2486 1 -5.17258 -19.0087 7.97455 1.30016 -2.14263 4.24025
2491 1 11.0947 -21.5577 -1.29139 -1.84532 -2.91535 1.67969
2494 1 -13.0661 -13.897 -23.3397 -0.989358 1.57946 1.60925
2495 1 13.5252 -11.9713 -10.3688 -4.53396 -1.28355 -3.36789
2499 1 23.5066 -14.7596 9.98967 -4.94704 1.80536 0.0514997
2502 1 -6.87754 -12.3165 11.8714 2.32718 -0.689425 -1.01631
2507 1 8.97491 -1.73506 -16.2783 -1.25403 0.662406 1.30214
2509 1 -3.34526 -10.1125 3.61381 -7.0483 -1.94597 0.789084
2515 1 1.56825 -20.958 3.73772 1.03766 -1.68259 4.63945
2517 1 -10.9183 -14.7201 16.0819 -1.29928 -4.34478 -1.06349
2518 1 -3.12857 -4.27725 -0.789526 4.67508 1.92337 -0.324884
2523 1 -17.87 -21.5152 -21.6632 -4.24954 3.66438 -3.1452
2525 1 -12.3954 -14.0353 -9.77305 1.52731 -2.41961 0.685623
2526 1 -9.64052 -4.84829 -15.3535 -2.02749 2.4044 -3.71556
2529 1 -21.4045 -8.38491 -2.40019 1.78856 -3.25623 -3.20891
2530 1 4.28983 -13.4141 -16.3356 2.90335 0.56361 0.46693
2531 1 -18.7944 -9.6989 -15.8805 -2.33008 -1.89154 -1.17999
2532 1 -12.677 -16.0083 2.47034 0.815444 2.42777 0.908208
2534 1 -19.4559 -12.598 -2.53689 -0.967148 -1.58145 2.43903
2535 1 15.8678 -5.43879 14.0461 -1.48492 8.03275 2.37038
2536 1 22.3761 -20.1994 23.3277 -0.252064 -0.807516 -4.38238
2537 1 -2.75086 -23.5059 13.7294 6.6527 -2.59782 0.427861
2539 1 12.1905 -11.5439 19.0095 2.50451 2.72834 0.625579
2540 1 19.45 -10.1834 15.9912 -1.08205 -3.14439 0.847951
2542 1 -11.3274 -7.90262 -21.6188 3.0614 -1.1503 -0.885998
2543 1 -16.2261 -7.7261 -5.92801 0.141178 2.31941 -1.50105
2547 1 -13.7963 -4.73634 5.67236 -1.43287 -2.02563 0.977094
2548 1 16.4187 -6.34051 -7.47564 2.99675 -3.78099 -5.53969
2550 1 -22.6738 -18.4941 -14.4396 0.133848 -0.596853 -2.22648
2552 1 -2.31191 -13.1193 7.03629 1.46286 -1.85066 -2.57696
2556 1 -9.55765 -12.6594 12.111 -0.911886 -5.10632 1.30031
2557 1 17.3116 -22.4768 -12.7595 4.55459 -0.955579 5.02519
2560 1 20.3119 -22.987 9.61241 -2.55534 1.11406 7.52815
1667 1 -13.4831 -1.29307 9.19685 3.33913 -3.32906 -6.29775
2562 1 -19.3067 -4.80514 -11.5916 4.35362 2.17336 0.0209417
2563 1 19.5879 -3.33211 -22.4675 -0.333871 5.15575 -0.19922
2564 1 -11.4361 -16.3863 -11.4151 1.67295 2.45629 0.0138866
2566 1 21.9178 -12.5283 13.5839 4.43755 -1.35157 1.556
2568 1 19.9272 -8.9471 -20.9032 -2.18706 0.61713 -3.14704
2569 1 22.7163 -20.8838 -11.5382 -0.445696 -1.5353 -0.886698
2572 1 -23.8093 -18.7455 -5.4024 2.81117 -2.1511 1.71504
2573 1 18.9609 -24.6643 -3.40179 0.689917 -1.32171 3.44818
2574 1 -17.5792 -23.7362 -7.49352 -0.910211 -2.90363 5.39226
2578 1 -17.2714 -15.8687 -2.26866 -4.62899 -0.413281 2.00873
2584 1 -11.7258 -19.0333 -10.298 0.798992 -5.6454 0.456145
2585 1 15.1802 -15.7473 20.2379 1.73651 -3.49578 -0.314495
2587 1 16.0686 -18.3951 9.3997 -1.48483 -3.66316 1.74365
3998 1 -12.2074 -3.78784 1.68108 -4.69867 0.916088 -3.04791
2589 1 -1.26517 -5.93464 9.02392 -0.370008 -0.830713 -1.93333
2591 1 -5.48694 -23.7894 13.2591 2.87741 1.9096 -0.927992
2592 1 -2.74292 -17.8493 8.16457 -0.94043 -1.35911 -4.6839
2593 1 23.6759 -5.1078 24.0746 -1.67465 -5.94135 -0.152903
2594 1 20.7129 -7.79642 17.0634 -1.41441 7.0578 1.2322
2595 1 -1.71131 -18.2897 -19.3468 -3.20678 -0.311852 -1.05025
2597 1 -18.2854 -3.23964 -17.7383 1.23926 -5.42989 0.507829
2602 1 -6.87086 -11.654 -3.92381 -3.48299 5.98608 -2.78289
2604 1 13.731 -13.3453 0.392919 -1.62811 -3.18269 0.8881
2608 1 14.7423 -18.4045 -23.8073 -1.88351 3.37679 -0.354626
2609 1 -13.0423 -6.70897 -17.8657 -2.08218 2.47857 3.82566
2612 1 -15.9319 -21.7479 18.5105 3.62742 -2.6 -6.43488
2616 1 -23.9833 -2.49516 -9.42109 3.18653 1.14808 -0.810695
2618 1 -7.21102 -17.5944 -13.4856 -2.10429 -6.04347 -4.71085
2621 1 3.66872 -22.9495 6.19121 0.752122 -2.20091 2.13288
2622 1 -1.1889 -17.9166 20.8507 2.6416 1.93478 -4.67827
2625 1 -8.86996 -5.98298 21.6375 0.732388 -3.14897 4.84522
2628 1 13.0218 -7.76764 -21.1859 3.91179 -7.07062 -1.38108
2629 1 -21.6252 -1.36661 6.68076 0.892527 0.963619 -0.0183383
2630 1 -12.4485 -7.84487 18.8584 -0.830092 2.50532 -4.19797
2632 1 18.8485 -2.53964 -18.1659 2.05225 0.103968 0.460404
2633 1 -2.44088 -15.4973 -12.1952 -0.558294 2.63899 2.74963
2636 1 -12.9575 -19.6349 15.2529 2.39629 -2.44286 1.4
2637 1 8.47552 -15.899 -16.9633 -1.62048 -1.48986 5.54496
2639 1 -0.790239 -8.57677 18.6087 0.949449 4.13974 -0.012791
2642 1 -7.15635 -18.1126 3.43644 3.8305 -2.81264 6.33963
2643 1 -2.99016 -14.3297 -23.2357 2.91436 -5.09366 -0.00511996
2644 1 19.7205 -20.5636 -12.386 -1.24814 1.6061 1.6196
2645 1 3.46097 -22.5995 15.1411 4.08072 -1.73869 -5.33067
2651 1 -15.5786 -19.503 16.5892 -10.713 4.04455 0.652151
2652 1 -20.2931 -5.59507 -14.0932 -0.0114843 4.27065 -0.46083
2654 1 19.1808 -10.1193 -1.38518 -5.69289 3.60366 3.56432
2655 1 -6.20273 -10.6364 -1.13246 -6.08584 -0.0507386 -6.10147
2657 1 -13.4401 -7.61373 7.81485 -1.93301 -0.504604 -3.8213
2659 1 14.8365 -5.78163 -21.9398 2.27042 2.16961 -0.65324
2662 1 -22.3682 -22.5856 11.2999 0.812928 -0.987051 -0.82763
2666 1 19.9046 -22.8838 1.65492 0.509397 -4.02674 -1.3462
2667 1 -10.5696 -4.51609 -5.63307 0.711595 0.797615 5.42332
2668 1 -7.4787 -19.0155 -22.3594 -1.32477 1.25611 3.36726
2669 1 1.96193 -8.7242 17.8017 3.04892 7.63618 3.94296
2672 1 6.49299 -6.45278 9.88953 -4.46474 -2.11592 -3.28017
2673 1 -13.6633 -21.5329 -1.13992 0.29204 -0.215536 4.46777
2674 1 -8.64955 -21.0681 -1.48606 2.47684 -2.84519 0.353896
2677 1 -0.413911 -22.0281 1.66359 -0.777703 -0.877062 4.00862
2678 1 3.62033 -20.4412 -15.0221 -0.225983 -1.62774 2.09345
2680 1 9.53103 -2.01632 -7.13348 -2.2425 -1.87054 -2.44482
2681 1 -14.8361 -8.24933 -16.2256 -2.49321 -4.12379 -1.7012
2684 1 -24.0184 -10.787 4.33763 -3.3228 -3.67791 -1.58708
2685 1 -2.78993 -8.13647 7.71386 -0.285766 6.0874 -0.901842
2686 1 6.09024 -22.6475 -18.5371 1.2017 -1.53039 5.4787
2687 1 18.2681 -15.875 -13.0336 -1.70541 0.576195 -2.69522
2688 1 -19.1265 -3.29037 0.481233 -0.151993 -0.211521 1.20649
2689 1 -7.27377 -2.45765 -8.71716 2.36271 -2.54703 1.55534
2690 1 -15.9925 -11.7637 -19.1443 -8.62648 -6.22591 -0.653077
2691 1 -20.6805 -23.6852 20.9892 -2.46649 0.720123 -2.52595
2694 1 -4.73879 -10.6775 21.0175 3.02224 -3.94278 1.52894
2696 1 22.4343 -17.3379 22.6226 2.14551 -0.900971 0.556203
2698 1 15.6049 -12.6957 20.4633 1.71692 1.81115 -5.33691
2700 1 -8.90701 -20.363 3.88353 -0.669477 -3.05169 1.45313
2703 1 14.2128 -4.75965 -12.6106 0.312452 4.54771 -1.13759
2704 1 1.91685 -23.4528 0.891641 4.75715 -4.15574 -1.22362
2705 1 -3.17222 -4.66008 6.11865 -4.03586 -1.45085 -3.04322
2706 1 2.43648 -23.1323 22.0136 2.17727 3.79129 0.337233
2707 1 -9.84902 -12.6148 1.47128 1.91259 0.459802 -0.878433
2709 1 20.3891 -4.49732 19.6131 -3.51145 -1.14061 0.928686
2711 1 -15.0896 -6.12611 -23.8065 -2.01518 -7.72347 0.223817
2718 1 11.2952 -15.6345 -23.0374 -2.42365 0.617561 -0.82473
2719 1 21.8563 -9.08033 3.97881 -6.13321 -1.2622 -1.07499
2720 1 -13.8562 -8.49601 -19.8468 -4.72997 2.99351 0.925767
2721 1 4.32292 -13.1687 10.2728 -1.29293 4.1274 1.05631
2726 1 -11.3578 -9.95544 -24.0774 -2.5906 7.73524 -1.25368
2727 1 -12.867 -18.8083 -1.87927 -0.982394 0.27299 -1.19034
2728 1 22.335 -1.79994 10.9504 -2.89294 -0.88896 -4.62921
3953 1 20.6795 -18.5546 15.2614 3.35981 0.767508 2.881
2730 1 -8.39221 -16.3389 9.89148 -3.22601 0.401733 -1.65058
2734 1 16.5654 -9.92384 21.4262 -4.38584 -0.378587 1.18505
2737 1 -21.6766 -18.0275 0.528789 -5.74445 -1.94154 2.94295
2739 1 -14.3983 -5.88197 19.5559 -2.0846 -2.65418 0.690137
2740 1 -13.7801 -13.0967 -20.4901 2.59426 -4.41002 1.11097
2743 1 1.27312 -19.0721 -5.49526 -0.419535 1.56542 3.82222
2744 1 -15.7037 -17.0929 -21.7225 -1.73748 -0.437526 -0.658039
2746 1 4.75837 -12.1844 -3.8332 -3.21565 0.0974943 4.92327
606 1 5.29672 -3.95258 -20.7438 2.703 2.57513 5.28036
2749 1 -13.0797 -6.08188 22.2759 0.0719403 0.00963169 3.04519
2751 1 6.42725 -22.6254 9.44147 -4.03605 -0.168996 2.38925
2753 1 -0.0549353 -7.30928 11.5646 1.48016 3.09805 0.528972
2755 1 0.958114 -12.9821 16.9786 4.77306 7.03286 2.89594
2757 1 17.4124 -17.0604 18.7595 0.821485 0.491543 0.684832
2758 1 -20.8918 -18.5708 -7.22678 0.575766 -3.08509 -0.430136
2759 1 -18.7117 -15.6032 9.10971 3.1257 3.42328 -0.190035
2761 1 -5.90344 -12.5484 17.8171 -1.21725 -0.38544 -1.95631
2763 1 -3.76676 -10.9463 16.8497 -5.85049 2.50625 2.17655
2765 1 7.81379 -16.6007 -19.9355 2.56633 -2.4117 -0.204015
2767 1 -13.7066 -19.2787 -18.5451 -4.92534 -0.802865 -2.76336
2771 1 -17.2715 -14.3222 -18.061 0.525579 -0.693209 2.18571
2775 1 -5.19228 -19.6712 14.3151 1.83091 -0.278674 1.1528
3996 1 3.74207 -13.4863 3.56927 2.15576 3.85124 -0.545228
2782 1 6.05868 -9.66064 13.5934 0.204612 4.74671 3.40661
2783 1 12.0901 -8.85393 -13.7898 -2.01267 -2.93751 -6.37168
2785 1 22.9317 -1.86902 -15.3318 3.347 0.152356 2.931
2786 1 5.22107 -5.04262 3.1355 -1.83168 1.68404 2.10997
2789 1 7.61224 -5.11101 -4.83774 -1.42773 -2.31908 0.515928
2790 1 -6.70166 -5.01209 -14.9228 -4.00219 0.450341 3.01354
2792 1 -6.24689 -6.21299 4.19819 -0.402918 -4.7257 0.223094
2796 1 17.0295 -16.1146 13.6413 4.49943 0.770757 -4.20936
2797 1 17.7475 -10.6772 -21.293 2.06739 -2.58655 -6.78651
2799 1 -0.281255 -16.902 -7.65307 -3.1988 -1.81861 1.11633
2800 1 -11.6115 -14.285 -15.8985 0.206896 0.617796 -2.0172
2803 1 23.6529 -6.04663 -15.2832 -0.410392 5.26886 -2.31808
3160 1 -12.8849 -23.8502 -23.7744 1.89697 3.03053 1.80118
120 1 4.94818 -1.76947 20.877 3.81727 -3.84667 -1.20426
2813 1 0.222114 -9.78792 -17.1398 -1.93226 1.97256 2.07142
2814 1 22.9196 -8.07293 -6.97799 1.53529 2.99505 4.49067
2816 1 1.90118 -15.4251 18.0965 0.0931201 0.186529 1.51302
2817 1 5.54598 -17.1412 -23.0234 1.768 -3.35076 6.38497
2818 1 0.149603 -2.55709 2.43438 -2.54861 -5.13646 2.37651
2821 1 16.9244 -9.56208 -13.1193 3.93707 -6.39703 1.22812
2822 1 -16.2906 -3.63539 4.35398 5.64391 -5.03688 8.60233
2823 1 11.445 -14.8565 5.66389 4.39112 -0.135896 -5.62084
2826 1 8.68816 -17.3592 -2.2288 1.73076 3.14068 -1.89091
2827 1 5.53647 -10.8586 19.1588 2.06512 -0.926172 -0.233044
2828 1 3.45329 -5.79333 -17.5778 2.14597 3.14946 -0.0878933
2829 1 17.5676 -21.6157 10.3782 4.41697 0.389126 3.89373
2832 1 22.9316 -21.2166 -6.2163 3.67393 1.60985 -0.957755
2834 1 -10.0229 -18.0532 22.3827 -6.97885 5.99455 -1.09138
2838 1 18.4524 -12.4587 21.9292 2.75269 -7.54494 -0.521543
2839 1 -16.8169 -2.90831 -21.9398 2.28515 -0.615926 -1.63516
2840 1 3.68014 -19.2443 -22.5064 -0.688769 0.147262 0.956982
2841 1 17.6793 -17.2258 -5.10992 -1.72505 1.06229 -0.381908
2842 1 -2.61437 -11.826 -10.2543 -3.40807 -2.31545 -0.123869
2848 1 -14.2145 -23.1651 -11.3167 -3.21488 -0.895938 -0.158014
2849 1 -21.8763 -23.4905 14.0784 2.02515 -6.10629 5.35359
2852 1 2.3739 -5.44785 0.259012 -2.223 -1.48747 5.48203
2854 1 6.34877 -6.81169 -6.73255 -0.860228 -3.02581 -2.75582
2855 1 -17.5947 -7.09566 -19.7812 2.118 1.36605 -4.65428
2856 1 16.1133 -17.0556 0.939578 1.469 -4.27864 1.78971
2858 1 11.5176 -1.95063 -22.0818 -1.30668 1.41979 -2.78494
2859 1 -22.1292 -23.7722 -17.4404 -2.97643 0.685448 1.97804
2862 1 12.0174 -2.41339 -17.0873 1.03937 2.57564 -1.66583
2863 1 20.2351 -19.1895 -17.7501 -1.58527 1.13357 2.06105
3979 1 -10.1545 -23.6288 5.97811 2.5129 -0.507169 3.12769
2869 1 -18.6831 -17.8028 17.4887 1.3617 1.60823 -1.65501
2873 1 -11.922 -2.60413 5.7837 -1.86836 1.05437 2.45404
2874 1 1.1499 -11.2367 -13.033 5.80572 0.557015 4.44097
2875 1 22.0459 -2.42911 -11.449 -3.56971 2.89022 0.811076
2876 1 19.6492 -21.5788 -21.1332 -0.855807 -1.28365 -1.07641
2877 1 11.32 -5.2507 4.50072 4.64662 -1.2633 -1.91036
2882 1 -21.2654 -16.0391 21.6136 -0.651426 -1.08225 -2.59799
2883 1 11.2678 -14.7503 1.16173 -0.94815 1.13527 -0.862719
2884 1 9.19176 -8.27321 -23.5192 3.49527 1.96261 5.69785
2889 1 4.12735 -3.74507 8.18959 -2.16975 1.96565 0.471357
2890 1 -3.31496 -6.11865 -22.9686 0.541273 0.696903 -2.33874
2891 1 6.7284 -4.41579 15.506 -1.21655 4.5826 -0.00613137
2893 1 -10.7568 -15.2655 22.2026 0.983561 0.370827 0.230614
2898 1 -9.36274 -10.6724 -19.4992 5.87474 -2.70424 4.90374
2899 1 -4.40234 -23.6737 19.6672 1.59615 -1.71414 5.53493
2901 1 -12.8653 -16.5839 -17.205 0.360904 -2.12951 -1.32344
2903 1 -15.5126 -13.7559 5.89811 6.46503 3.51724 -2.03065
2909 1 -11.1261 -4.1943 22.8184 2.52007 0.0101033 1.58748
2912 1 10.6623 -14.3052 -7.37034 2.11738 1.87635 1.35708
2915 1 -14.0214 -10.2777 -22.9999 2.76916 -0.452501 -3.72359
2919 1 22.576 -15.7824 -2.77148 3.61303 0.919795 1.18627
2922 1 -16.1103 -21.0766 -23.8674 -5.77727 4.28976 -2.78469
2924 1 -1.45347 -17.4157 23.8378 -0.839726 7.77058 -0.868015
2925 1 18.187 -9.37601 13.3469 -6.26486 -1.29542 -0.671542
3952 1 -5.04563 -5.45109 -19.0088 4.86388 0.392081 2.55289
2929 1 5.74296 -14.0281 7.97176 0.00812492 -2.54546 -0.067879
2931 1 1.53057 -8.43945 22.2653 1.06731 3.08934 -1.18411
2933 1 22.4134 -6.2939 11.4793 -0.382002 5.2988 -3.72013
2938 1 -9.1565 -6.61291 -0.351435 -3.13419 0.111219 3.84942
2944 1 6.2096 -23.2688 15.453 2.60685 3.68897 -1.32077
2947 1 18.5147 -12.8524 -22.8672 -2.60106 1.94347 2.92249
2948 1 1.34908 -19.677 -0.163418 2.95572 5.66736 -4.54461
2949 1 -8.68355 -20.4479 23.6868 -2.14879 -1.20816 -0.612539
2951 1 14.0486 -17.0947 -12.2618 -1.76004 7.58052 2.3045
2954 1 -15.8327 -2.68555 8.69856 5.89039 -0.809624 -4.86464
2955 1 10.0285 -9.7759 18.2099 4.04106 -2.2073 -1.13809
2957 1 0.956649 -18.1801 12.7647 1.38001 -0.0320868 1.07376
2958 1 8.57876 -7.9803 -10.6626 -0.536975 -3.44086 3.73557
659 1 8.03997 -2.7408 21.1866 0.185691 -2.07297 -1.66861
2961 1 -12.1203 -10.7929 -20.6239 -2.44978 5.36043 -0.418323
2964 1 0.198729 -20.5918 -21.8726 -1.23296 3.46637 1.86583
2965 1 19.5763 -1.17226 -12.5182 -1.48425 0.60545 -2.39102
2966 1 -1.76877 -21.438 17.7009 5.31876 3.15732 -0.423246
2968 1 -5.18408 -12.0526 1.05659 -1.31543 1.32809 -3.17183
2969 1 -2.18679 -1.65707 18.3355 -2.66142 -0.880027 -1.33982
2970 1 21.9314 -11.7922 -13.1865 3.25923 -3.66603 -4.22273
2977 1 4.04097 -8.89347 -1.07303 0.617455 -2.91953 2.32653
2982 1 -15.3401 -5.4265 7.90421 -3.31131 0.476267 -1.48014
3995 1 3.81667 -21.97 2.33186 1.83723 5.88636 1.27752
2985 1 -13.973 -13.3429 12.9992 0.424226 -1.60172 3.9662
2987 1 -21.928 -24.173 -7.40141 4.07612 1.64406 -1.7463
2988 1 2.03911 -23.0585 -6.67088 3.12061 0.755844 1.46209
2990 1 11.9896 -20.6063 16.52 -0.799342 -3.54478 0.916792
2997 1 -8.22883 -16.1743 5.07797 2.86272 1.46552 -0.718152
2998 1 2.78904 -14.5771 15.2776 3.31524 -0.0511832 -3.68279
2999 1 13.0723 -17.727 -1.50071 0.409342 -0.886676 0.721418
3007 1 -7.33008 -21.3517 -20.6002 -0.203483 -1.76351 -0.826934
3008 1 -2.47539 -20.8059 23.9662 2.23713 -0.513416 -2.9502
3009 1 -16.0246 -23.0786 9.77506 1.75781 -2.94842 0.961492
3010 1 -14.8615 -19.3417 -14.5428 -1.22913 -0.139248 -3.56653
3011 1 -8.56366 -2.09034 -11.2558 -2.27017 -2.6194 -2.86666
3012 1 1.82673 -24.0322 -19.3861 1.49625 2.63963 1.01593
3013 1 11.9646 -18.7055 21.7864 -2.29264 -3.12847 -2.53003
3016 1 19.4807 -13.6732 -19.8966 3.29397 2.86524 10.0665
3977 1 -8.22703 -17.411 -17.9239 2.93328 -0.29422 -5.5185
3019 1 -21.4901 -19.7561 11.8126 3.76157 -3.08228 -1.12881
3020 1 -13.6961 -10.8119 8.83794 -1.08549 -0.538023 -1.38268
3022 1 15.9222 -12.3737 2.05123 2.32473 3.54119 1.86258
3025 1 3.97091 -24.0254 8.76322 -1.0625 0.264084 -0.346729
3026 1 0.119893 -21.4739 7.94938 -5.72863 -2.99766 -2.98913
3031 1 23.6481 -8.50781 -19.7875 -0.625667 4.46141 -1.12344
3032 1 18.9202 -10.0983 -5.40862 0.361595 0.293633 -0.456054
3034 1 -11.5881 -7.09545 -15.4973 0.142643 -2.66048 -1.49247
3037 1 -5.22002 -10.9608 8.89232 -3.40987 -1.59162 4.80116
1193 1 11.462 -1.92001 13.8409 2.19769 -1.77238 0.572822
3039 1 15.0493 -24.2657 19.0408 -0.908632 -1.74966 -0.509475
3040 1 5.37342 -20.9193 13.5945 3.22247 -3.86462 -0.0218042
3043 1 6.14871 -12.4479 -18.5434 -3.73877 -7.25959 -1.11126
3045 1 -0.406791 -3.96482 6.71493 -1.78611 -0.675226 0.882408
3046 1 15.5674 -8.55833 -16.9479 0.677676 -2.81434 1.5545
3048 1 4.10457 -13.0386 20.6382 -1.9088 -0.879229 -2.11573
3049 1 -11.384 -21.0718 -14.9991 0.429266 0.71716 -4.77415
686 1 -16.6108 -1.05021 18.4955 -1.35652 3.9632 0.482095
3053 1 21.2963 -22.97 -0.823956 1.03419 -2.92723 0.194779
3054 1 20.6947 -2.14902 21.4499 0.118401 -6.11679 -4.19739
3058 1 11.73 -5.53728 7.34895 2.03051 3.56214 1.29575
3059 1 -10.4624 -23.574 -5.51809 6.88467 5.52169 -0.179182
3065 1 6.4689 -11.6505 -12.5708 -2.28844 -5.31551 -2.81165
3069 1 6.79149 -7.96069 -4.209 4.22516 1.60724 1.08222
3070 1 21.5172 -6.74777 -0.884871 -3.13295 -0.893771 -0.744844
3071 1 -4.63844 -5.50496 -6.1142 -3.01633 3.45203 0.293384
3074 1 -9.86342 -9.46444 9.8752 1.27402 -0.362047 -1.13308
2561 1 -10.5759 -0.776507 12.185 -2.35848 2.21666 3.76361
3079 1 11.4173 -3.27987 -3.35583 1.97945 -0.222791 -1.08728
3083 1 5.64899 -14.4934 -8.68027 -4.59977 0.204044 -4.00584
3084 1 -17.0047 -23.7842 7.37928 -0.68529 -2.41063 -2.18623
3085 1 -15.9422 -3.83515 -4.23311 0.22673 -0.712931 -0.11905
3087 1 -10.4057 -21.1374 10.3067 -2.12296 -5.17787 -0.901391
3089 1 8.18629 -19.6903 13.6304 -4.06606 -0.0479007 -4.77822
3090 1 16.7395 -2.9844 -5.10826 1.46991 -2.44642 0.471173
3092 1 -9.96801 -6.58335 18.9311 -0.784851 0.676236 -2.36019
3095 1 -16.0822 -13.5389 -1.20872 -0.577219 -4.24018 -1.26473
3097 1 -8.3153 -13.6326 -18.886 6.11745 -6.31264 -0.945521
3098 1 -10.9915 -18.7057 5.33418 -4.43707 -2.04368 1.90279
3100 1 17.5422 -10.6104 -18.2778 -4.70315 1.5574 -0.51683
3101 1 -24.1387 -15.9083 -18.9911 -1.44364 -1.26658 2.2217
3103 1 -5.86995 -13.0735 -23.9078 -4.02339 0.84685 3.10512
3104 1 -20.5947 -7.71969 9.02665 2.13989 -0.55752 -0.489622
3105 1 -24.1845 -4.65208 19.5164 3.61015 -5.38394 0.514783
3106 1 -0.454231 -8.57657 -6.92597 2.11494 2.19051 -1.93358
3107 1 21.0352 -14.3456 -23.5331 0.0723571 4.38659 0.186713
3108 1 8.91608 -16.2094 -5.6811 1.7218 -3.12469 3.25319
3111 1 9.79595 -19.0395 -16.3074 -1.36948 2.95831 -1.1363
3112 1 -0.888957 -13.8071 -21.4331 -1.72735 -4.50706 -0.349862
3113 1 8.59492 -13.0736 -17.492 -1.58829 5.67735 3.03458
3117 1 14.1528 -11.1857 -1.90198 -5.71939 0.397258 -4.13615
3119 1 -9.76982 -8.69615 4.56257 -1.49637 -0.614329 3.92133
3120 1 -10.8857 -6.07098 -19.3718 1.44317 -1.31235 -0.254016
3121 1 -2.51336 -21.0335 14.9783 -6.25626 -1.32983 1.31839
3125 1 -2.07223 -14.7006 -1.32886 0.437173 3.09733 1.87995
3129 1 -2.46025 -10.4474 9.83712 -0.597021 1.01898 -0.219911
3130 1 22.0436 -7.9406 8.99095 1.04456 -2.24099 8.06035
3135 1 -19.5742 -12.812 -5.76786 3.64577 -0.341573 -2.03247
3136 1 -18.6317 -21.8591 6.23771 -0.813842 4.13869 -4.60682
3137 1 5.66345 -7.45122 -20.3701 -0.0230207 0.320841 0.0973635
3138 1 18.5394 -3.03007 23.2017 -0.628551 -0.548021 -0.189975
3141 1 12.3824 -1.64601 -7.7281 2.9238 0.460092 0.280432
3145 1 18.7498 -19.0267 11.1705 -2.4879 -1.62857 -0.38171
3147 1 -2.61186 -18.3385 0.859176 1.66379 -0.410195 0.723784
3148 1 8.91819 -6.70247 5.10363 -0.421466 2.4765 6.57048
2812 1 -9.04342 -1.01021 20.7505 -2.10947 -1.42611 -2.96491
3155 1 -6.42187 -10.2731 2.88991 1.04989 -1.38256 -4.64169
3156 1 19.5003 -3.29774 5.13425 4.41614 1.87217 -0.347149
3158 1 18.477 -21.363 -7.667 -2.05945 2.8808 -0.651629
79 1 -22.8652 -2.35691 -16.6374 -0.622159 0.0473192 -0.90338
3161 1 -8.86503 -17.8695 -3.54226 -3.10754 0.312225 -0.900191
3162 1 -14.1028 -14.4406 -14.4436 2.3748 -6.12516 6.12998
3166 1 14.4964 -9.63577 13.7586 -1.42804 3.25237 1.20761
3167 1 19.5745 -14.5902 -17.2061 1.81606 1.34706 1.80987
3168 1 -18.5954 -20.6986 18.3025 -1.04229 7.49678 -0.508379
3169 1 12.9349 -22.1095 -19.1916 -2.09263 2.90247 4.19808
3177 1 1.07068 -12.4795 -23.5884 -6.00129 -0.643063 1.17351
3181 1 -20.0522 -16.2868 -23.7992 -4.99084 0.54278 -2.67299
3442 1 -8.06744 -3.88807 5.24147 -2.00238 0.360879 0.0775819
3184 1 14.0113 -2.56755 3.24629 0.153715 -0.231091 0.0544098
3187 1 -21.8693 -13.8911 3.4912 0.157592 -1.93652 -0.236906
3191 1 6.97601 -4.37832 -8.35055 0.381802 -0.658147 -4.33278
3194 1 -20.3441 -7.74235 1.65384 -2.82968 -3.99377 1.17746
1202 1 -17.4193 -1.61935 -4.05127 -1.74313 -2.24429 -2.07726
3199 1 11.8719 -21.9636 6.75473 2.3712 -1.66736 5.07779
3200 1 -24.4694 -3.01763 -5.72873 2.69308 -1.41546 -5.85767
3201 1 -14.8963 -3.05084 19.7585 1.38401 2.16708 -3.59295
3202 1 -18.5371 -13.3294 -9.67674 2.25243 0.863053 4.49575
3204 1 -15.5694 -9.37322 10.3225 1.27006 -1.62336 -2.70796
3207 1 0.732776 -7.57766 -19.2405 1.52934 -1.14811 2.231
3208 1 7.31769 -7.10817 2.87743 2.7625 -1.96036 -2.43482
3209 1 11.9391 -18.4262 -23.7176 5.32896 0.481451 1.47493
3994 1 -15.4403 -19.9463 -21.0201 -1.0412 -4.14653 -3.06203
3219 1 -7.54679 -21.0552 -16.725 2.72442 3.83232 1.79224
3220 1 -4.08027 -7.44962 16.135 -2.54517 -0.376453 1.73721
3221 1 -7.18544 -8.01887 -2.37297 -0.660056 -3.47732 -5.18836
3222 1 -14.9208 -18.4719 2.02521 8.87752 0.448932 2.73236
3224 1 -5.01128 -8.41262 0.605534 -2.23241 4.92898 -2.37839
3225 1 -8.48185 -6.72 15.3447 0.11512 2.61894 -0.255734
3231 1 -18.9933 -17.2192 -0.132481 1.53352 0.910398 2.19852
3234 1 10.2254 -5.16196 -13.0155 0.832536 -4.04463 -2.01719
3237 1 -3.87782 -13.2709 22.2253 1.02226 0.811265 1.54937
3239 1 -14.9319 -18.0555 9.10665 0.934226 -2.90593 -0.246305
3965 1 -5.43032 -1.42869 1.17931 4.38603 3.522 3.11588
3241 1 -1.13975 -18.1033 14.8874 -2.4689 -0.673141 -3.24777
3242 1 21.3937 -10.9006 -17.0913 -0.365342 2.40366 2.27148
2571 1 13.7678 -1.26685 22.0765 4.01114 -0.931831 -1.65656
3252 1 14.9723 -22.8804 14.6287 1.22954 5.24362 0.241493
3258 1 -19.6391 -6.3482 18.8243 0.337153 -3.13961 0.760522
235 1 -21.8679 -0.681022 -9.55837 2.17199 4.62026 0.519314
3261 1 -14.2319 -4.32654 -17.2999 0.163676 0.433331 -3.63811
3265 1 6.02352 -6.46766 -13.6212 0.658334 4.60077 -1.13378
3724 1 -5.93734 -2.87138 -1.35065 3.06525 1.60131 2.49074
3268 1 4.7716 -20.7403 10.7246 1.60521 6.77996 -0.206733
3270 1 18.2963 -17.1231 16.026 1.87286 -2.24822 3.91766
3271 1 8.22075 -11.3667 19.695 -2.14181 -2.40875 -6.28022
3274 1 12.9958 -19.2412 4.23192 2.05501 0.125589 0.86401
3277 1 -2.82 -16.6163 3.3507 -0.634696 -0.638272 -2.28078
3278 1 -0.723461 -7.00866 -22.4641 -0.910787 -1.3688 -1.06795
3973 1 -11.5691 -21.2789 -6.65405 -4.32907 1.1429 1.09204
3281 1 -6.15658 -15.2291 11.2945 0.994111 5.97021 -3.39517
3933 1 -3.12153 -8.75128 22.2371 -1.17571 -2.02914 -2.41725
3287 1 -4.58198 -17.0476 18.0572 7.47544 -1.19686 -2.70274
3289 1 -17.4833 -21.6361 11.8541 3.38691 1.75037 -0.0606562
2567 1 -12.933 -1.7851 -16.5904 -2.08345 2.18531 4.0066
3296 1 -16.7881 -13.7789 17.7596 1.51735 -1.06882 -1.64693
3298 1 5.20562 -9.68316 -18.7466 0.691093 -0.6829 -0.193792
3302 1 -18.9958 -10.4703 20.7907 1.87722 -1.28566 0.947311
1079 1 -16.8081 -1.8255 11.3272 1.47058 -0.680171 -3.48503
22 1 -10.8015 -2.25158 -14.8221 0.773789 3.93436 -0.683757
3919 1 7.42966 -14.14 19.4842 2.84678 0.351544 1.58503
3315 1 21.4976 -11.4287 -20.1622 -2.45605 2.39491 0.467144
3316 1 3.41366 -6.43012 -7.29574 3.11943 -2.22888 0.238599
3321 1 -8.32088 -18.2449 20.1877 0.449293 5.50827 -0.619097
3322 1 13.501 -11.5731 -23.0029 -2.62427 -2.55926 2.88614
3324 1 15.756 -16.9838 -8.25276 -3.73823 1.63788 1.36622
3327 1 8.34059 -21.9808 -9.28848 -3.16611 4.62252 1.47014
3328 1 1.48502 -18.3583 -9.47532 3.05776 2.08369 -1.29021
3331 1 -20.7627 -4.41652 -2.03543 -0.695867 -1.6609 3.88517
3333 1 5.83393 -8.32863 21.1823 -1.26018 1.13702 -1.19549
3336 1 11.8266 -16.563 3.22362 1.17193 -0.382495 -4.04187
3343 1 -21.8022 -6.31818 -16.4742 5.43944 1.91395 1.07668
3344 1 15.6678 -18.3392 16.6643 2.00106 -1.70834 1.90329
3346 1 8.45814 -22.8787 -0.447833 0.980338 -3.03196 2.0883
3348 1 -11.4804 -20.0567 2.60135 -2.5194 -2.43773 2.96198
3350 1 -4.87605 -5.04056 14.3468 -1.48975 -0.502047 -0.986225
3351 1 -22.2927 -9.16553 16.8672 -5.5225 -0.610989 4.9194
3355 1 -16.9901 -19.79 -4.26804 2.75142 2.01457 -1.55357
3357 1 8.04942 -7.40252 19.0458 1.65246 0.343623 -1.33589
3360 1 -6.84932 -16.5766 16.7626 0.538523 -0.721561 -1.24736
3363 1 13.2419 -5.00486 -16.3338 -4.10346 -0.829697 -1.87481
3364 1 -22.759 -7.37807 -0.0873093 -0.522492 4.72087 -0.972447
3365 1 0.829612 -7.91049 8.62487 -0.632687 3.29015 -5.54554
3366 1 -19.8021 -22.5151 -17.6063 -1.0494 5.71202 0.592056
3367 1 1.2084 -21.2489 -19.4594 -3.00251 -2.6134 -1.61866
3368 1 20.6522 -20.112 17.706 0.246625 0.273177 6.03306
3369 1 -3.07696 -2.47216 -10.6574 2.18685 -1.84085 1.19969
3370 1 -18.718 -14.3811 -13.6082 -1.84921 3.27288 -3.29526
3372 1 6.76864 -1.60766 -8.43195 -3.05237 -1.06761 2.22514
3373 1 13.8459 -3.84915 20.258 -0.470818 -3.59772 -1.19842
3374 1 23.0684 -13.8996 -20.6537 0.507615 3.27184 -7.08789
3375 1 20.2106 -10.5977 2.31208 0.299226 -3.57427 1.58838
3377 1 8.10789 -11.125 12.6274 0.333849 1.06531 1.03797
3378 1 -5.24399 -17.5002 -0.11393 2.07545 2.44395 0.0100525
3379 1 8.89995 -5.92852 8.30872 -5.78624 -0.31568 2.89242
3381 1 -3.70843 -17.0402 -22.4673 1.25683 -0.284127 -2.07244
3384 1 16.9451 -20.0952 -11.3677 5.38282 0.522429 -0.375615
3385 1 -4.16559 -19.8953 -8.36773 0.607324 0.256853 0.998593
3386 1 11.8506 -9.45829 -23.4192 3.58908 6.05328 3.22469
3387 1 -19.626 -2.96436 3.19801 -2.0125 1.80867 -3.88527
3388 1 -19.1903 -2.56586 15.2469 -1.63144 1.04432 2.14439
3389 1 -10.7774 -14.0364 -13.0425 1.06639 -0.54648 -1.43693
3390 1 23.5998 -22.7794 15.0084 -3.30661 -1.11094 -1.92364
3391 1 -10.047 -12.8898 4.19773 -2.91943 -2.66995 1.01265
3959 1 -20.193 -6.30533 -20.1889 0.187853 3.2896 -1.10262
3395 1 13.5584 -15.9903 11.3401 -3.1685 3.63934 -1.14794
3398 1 -6.34569 -19.0793 -3.92312 -1.75578 -0.26944 -1.26997
3399 1 0.472852 -5.01685 4.07189 -2.9525 2.16246 -4.55601
3400 1 14.7045 -20.5537 -20.9799 -2.10478 5.5998 -1.10565
3401 1 -16.9943 -22.8849 -11.3527 -4.57032 -0.327261 -1.95816
3402 1 14.9014 -15.847 -17.4393 -4.60311 0.160422 -2.48696
3403 1 -12.343 -22.5093 1.49382 7.03347 -2.01795 -3.66946
3404 1 -19.905 -10.1892 -0.368583 0.538276 -2.67531 -2.4757
3406 1 4.62878 -5.1219 5.8666 -1.52603 -0.132464 4.69441
3409 1 -4.16362 -20.6966 19.0035 1.12092 -2.26451 -3.77198
3410 1 -19.5926 -8.27295 15.1675 3.04909 1.57339 3.49704
3411 1 -5.6333 -4.23795 19.4843 2.0557 0.348674 2.84706
3412 1 6.16084 -1.97323 -11.1876 -1.86288 0.304101 -4.57705
3413 1 -4.30553 -16.7281 -17.0632 1.94331 -1.36945 1.13925
3416 1 19.5179 -21.7745 -4.26189 1.25629 1.00507 1.18992
3417 1 -23.9796 -10.6527 11.0713 0.0453498 -3.22108 -1.12925
3419 1 -12.369 -11.1832 1.65046 -4.91895 -0.196221 0.871223
3422 1 4.98135 -15.2685 -3.57086 -2.17127 1.09554 -2.88421
3424 1 0.462773 -8.50367 2.90273 1.99192 4.8942 3.1878
3425 1 22.8724 -9.28881 16.4719 1.48246 -0.944399 0.179874
3426 1 -21.3627 -6.00332 5.32508 -1.22793 -1.64873 2.46855
3429 1 2.67598 -17.4258 14.6775 -2.57573 -1.07452 1.78395
3430 1 -15.5934 -16.6899 19.8181 0.182394 -3.82259 -0.513876
3431 1 -10.6676 -4.13594 -0.508343 7.28614 -2.84956 -2.27176
3433 1 -8.95206 -1.56937 -20.7252 3.04644 -3.30281 4.85228
3439 1 1.05318 -12.3483 11.6321 4.71176 0.313615 1.68823
3441 1 6.07916 -16.2215 -6.2613 5.49633 1.92839 -1.64044
3917 1 2.00713 -6.39591 -9.83845 -3.68846 1.74273 -0.540328
3450 1 -2.24075 -13.5534 -14.5383 -0.190456 2.92582 0.256792
3451 1 3.6107 -13.0516 -19.8545 4.45549 -5.96903 -1.32299
3939 1 21.4229 -3.29787 13.5872 2.00819 -0.740916 1.46772
3464 1 -18.1108 -21.2991 15.6044 -0.846125 -3.30812 -0.40553
3465 1 -0.0939878 -3.64744 10.7453 4.12654 -4.81311 -1.46293
3468 1 -9.08893 -9.12008 21.365 -3.6254 -0.28859 0.537522
3469 1 -2.0242 -9.08776 1.2475 1.7729 -0.300415 0.854584
3470 1 -14.2198 -21.6245 -7.37144 -1.6765 3.97071 -1.12127
3471 1 -16.8166 -18.9823 -16.9049 -1.29438 -0.398029 3.41614
3474 1 16.0212 -3.88131 11.5421 -2.97223 0.912303 -2.11768
3475 1 -21.8851 -13.8582 18.7715 -2.12438 -0.500623 3.77693
3972 1 -5.50931 -9.29348 -13.459 6.97018 -0.707337 5.30086
3478 1 10.5103 -13.1989 3.48714 2.22381 -0.923553 2.01567
3479 1 18.2231 -8.52113 9.6735 -3.46523 2.66091 -1.40893
3481 1 2.22084 -21.9064 -23.647 -1.03159 3.80449 3.6569
3487 1 10.4138 -10.1894 -11.963 -0.14294 -3.20345 -1.28851
3967 1 2.53754 -6.51637 -4.57852 2.25905 0.033169 2.24587
3495 1 22.4337 -4.00822 17.3252 0.739417 1.68568 -0.942815
3503 1 17.6854 -23.5328 3.23794 -0.0102466 1.54561 -0.191605
2118 1 -13.5418 -2.30295 -3.68801 5.7208 0.733882 1.55067
3505 1 -0.39403 -12.8428 4.95803 2.98402 -2.5406 5.46189
3508 1 -2.4874 -10.6972 -22.4613 -3.01174 3.19012 -3.32595
3509 1 -22.1103 -19.1106 -20.6633 -0.115486 -1.76125 -1.91113
3513 1 -19.2476 -22.0012 -14.9097 -0.716332 -1.13965 1.39077
3515 1 13.3 -17.7811 9.31567 5.01094 3.22092 2.85425
3520 1 -4.89388 -14.4929 19.8058 -4.00906 1.27705 2.26167
3523 1 -14.188 -20.8692 9.84829 -2.96683 3.79313 -5.27908
3528 1 -23.3539 -22.6267 1.06897 -0.795288 0.304373 -4.35948
3534 1 5.47749 -4.08047 19.0505 -0.962409 -3.99281 -6.00057
3535 1 12.2335 -20.9674 -16.7655 2.10805 1.44775 2.22491
3536 1 21.0658 -16.2107 9.95127 -6.43079 -0.617125 0.0343262
3538 1 5.73085 -6.82471 14.1956 -1.08702 3.1007 5.4388
3547 1 9.50872 -16.5867 -8.65478 4.12693 2.64013 4.11321
3548 1 9.74377 -13.6365 -21.3642 -2.23959 0.493474 2.86446
3555 1 -24.2274 -19.7071 0.666165 1.99181 -1.58475 -0.0721038
3556 1 -7.83567 -14.7524 19.0316 2.12619 -0.471887 1.31015
3558 1 -20.1439 -15.7027 -2.40764 0.758261 -0.46242 0.418369
3559 1 9.65981 -4.34563 10.6803 5.70312 2.12043 -2.62366
3563 1 4.19904 -22.0455 -8.01244 1.64558 0.832868 -0.868942
3565 1 15.2224 -18.3844 -5.74613 -3.7533 6.09682 -0.199822
3566 1 -11.1571 -15.575 5.15358 1.71446 -5.52914 -0.391492
3567 1 3.29518 -10.0763 5.29153 -1.47968 0.900726 7.56822
3572 1 -14.7054 -15.5726 -19.2159 -2.80674 0.410142 -2.03458
3573 1 17.1165 -4.05196 -2.22033 -7.03646 -3.8228 1.1067
3574 1 -15.6751 -3.05503 -10.6492 1.56079 -3.08301 -0.462466
3575 1 -11.0763 -11.9974 -11.0301 3.08936 -0.605068 -2.59615
3579 1 -17.6223 -14.3104 -7.07271 3.011 -1.84714 4.73272
3580 1 -0.0745 -10.5191 8.28342 -3.80126 2.13101 -0.709901
3937 1 14.2452 -15.3432 -20.2936 4.47246 2.34114 -1.57049
776 1 9.00683 -1.73215 -23.506 -0.728817 0.878108 -4.14377
3587 1 23.0853 -12.5219 -15.6372 1.62701 5.77054 -1.60133
3588 1 -21.7654 -9.25933 -9.61872 1.24506 -1.59604 0.630015
3591 1 -9.39269 -11.7116 20.6302 -3.04594 1.96144 2.24804
3592 1 -8.7661 -16.829 -7.37646 -2.37627 -0.463341 -5.70225
3593 1 14.4032 -10.2762 -14.2774 4.35055 -3.53167 -4.32503
3595 1 -3.84534 -15.3805 7.12087 2.34519 0.819043 3.49375
3596 1 -7.09193 -10.0594 -10.8158 4.00913 0.72118 4.02274
3598 1 -13.2155 -12.2465 -4.83079 0.797574 -2.10295 1.76541
3601 1 -23.8785 -13.8436 -4.04713 0.928157 4.59386 -0.601366
3960 1 18.5873 -12.1779 -11.0754 -0.707053 -1.70621 4.16588
3609 1 9.05925 -11.3148 7.73164 1.08871 6.54031 -1.51703
3614 1 -0.80151 -5.63378 -2.35315 2.13113 0.460272 -4.97907
3616 1 -11.5553 -12.5377 22.797 -6.39875 -1.87762 3.84568
3618 1 -0.13365 -7.98861 -10.0126 -2.84013 -3.39818 1.10691
3622 1 7.18859 -12.2373 10.0649 0.308704 -2.24405 -2.31567
1551 1 9.07099 -1.68258 -4.41497 -2.47796 3.67841 1.54556
3624 1 20.5262 -7.60608 6.36152 -1.37808 -0.278997 3.87715
3625 1 8.24372 -16.7872 20.6252 1.54324 2.88229 -0.734551
3303 1 22.8812 -24.0847 -14.3781 -0.0478769 -2.574 -3.90613
3630 1 5.27821 -11.663 -1.11062 3.61145 2.02724 -2.15287
3632 1 -14.8112 -15.637 14.7531 -1.48633 3.88505 -2.58474
3635 1 0.00409718 -16.2769 -20.4556 0.586115 1.46269 1.95275
3636 1 4.01707 -16.0269 -10.5375 -1.77867 0.942481 -0.208832
3638 1 23.617 -8.49059 21.6281 -4.16515 -2.20765 -3.19423
3639 1 5.0701 -18.1635 5.05435 5.28744 0.241507 -0.923924
3640 1 18.7417 -17.822 -10.8118 2.19264 -0.870494 3.98629
3642 1 -4.43438 -14.5098 4.50363 -1.49886 1.527 0.40445
3645 1 -17.6006 -16.4836 -5.08776 -1.78917 -3.19963 -0.489926
3647 1 17.7443 -19.6719 3.41902 0.0375194 -4.82742 2.89717
3648 1 22.2658 -20.3194 -1.86047 0.699868 -2.55633 -1.87737
3649 1 -15.6522 -1.73352 -18.3273 2.1484 -2.38331 6.17334
3650 1 7.8473 -9.2325 -17.6016 5.35446 1.01473 1.97587
3652 1 20.1051 -13.2044 15.5864 2.45282 1.27025 -1.56365
3656 1 -12.016 -20.0507 20.0861 2.11063 1.59664 2.05431
3663 1 -19.3943 -15.9905 -10.8494 -1.6746 1.83372 0.317174
3665 1 10.513 -9.81772 -19.4 -2.6138 3.34323 3.31086
3666 1 2.49176 -16.699 22.0456 2.49644 1.20977 0.787083
3668 1 -13.7384 -1.71638 22.0024 -4.59199 -2.19708 -0.618263
3674 1 -2.4905 -2.09438 -7.51474 -2.31052 6.11799 2.31906
3982 1 5.58991 -3.43781 -4.46974 -6.90246 5.0054 0.119145
3679 1 10.4414 -18.7764 -5.38809 1.38528 1.57234 0.445174
3682 1 22.0108 -22.661 17.3504 1.56347 -0.811908 1.64316
3685 1 4.78606 -2.26557 1.9949 2.91597 2.63006 1.16717
3687 1 8.61901 -14.7223 10.8399 1.49452 -1.17911 5.09849
3688 1 -10.3914 -23.2641 -0.563069 -2.85908 -3.60437 0.388913
3993 1 -5.11516 -9.09393 -6.92317 -5.20907 -4.55923 -0.274112
3695 1 -7.55978 -7.60154 1.8942 -4.01226 3.25681 5.86351
3699 1 -6.8942 -6.83162 12.3294 -0.363625 2.59065 1.32072
3700 1 -3.83808 -19.295 -14.3371 -2.93309 0.185961 -1.25916
3701 1 13.376 -3.19352 10.2264 1.61414 -3.67352 -3.57341
3926 1 6.88992 -5.43288 21.0804 1.14324 -0.29314 0.559666
3704 1 20.1603 -3.2599 9.58374 -1.5476 6.17239 1.94981
3710 1 -5.81097 -8.1599 18.3274 1.15153 0.671946 -6.32631
3722 1 18.8384 -5.87512 8.12254 -1.24576 -3.54004 5.65855
3726 1 -8.76042 -15.0707 -16.43 -2.11747 -1.10175 -2.80063
3727 1 6.11038 -12.2388 -22.7852 -1.59315 0.156118 -2.07082
3728 1 15.5604 -9.30286 -23.0687 1.25879 0.99984 1.60609
3729 1 -20.8512 -10.1705 -12.3221 -1.50708 -3.06135 -0.541661
3730 1 12.0945 -4.61094 12.1952 4.15925 9.6894 0.113097
3731 1 3.40319 -19.1917 -19.6173 1.93875 2.83711 0.0375648
3733 1 4.03786 -14.2217 -0.668907 -1.13114 -0.237911 0.206513
3738 1 -6.34181 -5.77392 16.9307 1.59839 2.47512 -7.06326
3739 1 1.82916 -5.7201 6.58932 0.780111 0.160848 -1.99028
3971 1 -4.89627 -1.9271 21.7719 2.8908 6.97614 2.28513
3742 1 -1.89035 -18.0828 -12.8786 1.69737 -0.620227 -4.26871
3743 1 5.50199 -13.7175 15.3843 1.93653 0.174819 3.46222
3745 1 4.61439 -10.2981 11.3087 -7.04212 -1.31505 5.41115
3746 1 7.69795 -19.7063 -5.82662 -4.95966 1.02903 2.87277
1690 1 -6.76913 -24.419 10.7859 -3.85356 2.20286 2.04829
3749 1 -24.0247 -2.21243 13.2475 2.83209 0.321853 1.74176
3751 1 -6.3098 -3.6065 2.99919 2.19927 -1.06918 -4.72691
3753 1 5.45795 -5.16495 23.5913 2.57816 2.58531 0.43002
3477 1 -18.368 -1.6472 -15.4161 -0.762755 -3.00677 -2.36472
3758 1 22.5188 -8.70233 -15.4004 -5.31527 4.6708 1.75372
3761 1 19.1557 -11.8008 -16.0783 -2.03799 1.36146 0.233118
3762 1 9.77379 -8.7557 8.54188 -4.95573 -1.80134 0.220484
3764 1 17.1247 -10.3239 17.7726 -0.39515 2.45834 -3.26172
1795 1 16.8202 -1.34593 -13.2789 0.786364 -4.05458 4.35623
3767 1 -10.3142 -23.7538 3.25475 2.69579 -0.638342 -1.41681
3769 1 -22.9706 -18.1376 9.98784 1.25068 5.49368 -2.09866
3770 1 -7.41581 -5.63104 9.41191 4.12515 1.04936 4.95103
3772 1 14.8513 -15.2396 -1.32355 -1.77215 -3.06523 -1.54581
3773 1 3.92514 -1.91059 12.6619 -1.41512 1.3276 6.36441
3775 1 3.28822 -2.07569 -10.7893 -4.61434 3.78185 0.574023
3776 1 8.99801 -5.70735 16.7015 3.18296 3.28305 -2.47278
3777 1 10.9145 -6.25948 -0.941893 -3.37785 -4.6477 2.45624
3781 1 -5.89211 -3.01581 8.96987 -0.967292 0.901418 0.492616
3782 1 -0.124856 -14.6194 -17.9718 -0.980145 -0.184372 -5.47025
3785 1 -3.04167 -23.5532 -23.888 -0.826497 0.622339 -1.27675
3790 1 3.8928 -17.7709 -2.02145 2.1767 -2.59328 2.82783
3792 1 -9.55385 -5.18511 11.4813 -3.60582 -2.46637 1.85444
3794 1 -1.82481 -19.461 -10.4273 -2.67242 0.863793 0.141567
3796 1 -13.2407 -11.9916 -7.7317 -1.87998 0.396564 4.05209
3797 1 -15.8491 -15.3701 9.99228 3.57751 -1.42287 3.71418
3803 1 -18.8241 -4.61146 -22.9796 -1.41518 -2.90617 3.98573
3808 1 11.3319 -12.8392 -23.9425 -3.45195 -2.38967 -0.262107
3809 1 4.49841 -24.1089 -20.3235 -2.1866 -2.06096 1.31644
3810 1 -19.0878 -3.50111 12.4528 1.90874 4.51482 -0.998087
3811 1 15.1807 -13.1415 23.3674 -0.436937 -0.832862 -1.33051
3812 1 -4.97597 -14.6082 -0.569854 -0.41414 0.934662 -4.24138
3816 1 -14.9521 -8.33691 2.87061 -0.565351 -0.318602 1.03169
3821 1 10.6344 -10.7091 13.6608 -1.6858 -0.794689 -4.39888
3823 1 -6.95767 -18.1607 -10.704 6.76055 2.3292 -1.9856
3824 1 -7.68463 -22.9983 -6.93917 2.5424 1.06882 0.0047649
3825 1 20.102 -14.3164 12.0045 2.08347 -6.6108 -2.46286
3829 1 -10.6545 -15.6987 -5.09888 -0.330957 -3.73956 0.245203
3830 1 15.6144 -12.2925 -12.2437 -0.516637 0.878773 -0.511551
3981 1 12.7308 -7.84884 4.02616 -1.65745 2.72361 -2.15993
3949 1 1.86888 -15.8645 -14.084 0.143264 1.46829 -0.656467
3840 1 -10.5022 -20.9903 14.3535 -2.70237 -0.157188 4.92972
3843 1 -2.16324 -15.9071 13.0544 7.65931 -0.283805 -1.78981
3844 1 -22.7347 -14.4416 7.87312 2.5694 2.08327 -1.55158
3847 1 -16.5758 -16.0229 -13.5818 -0.885006 0.892762 -2.7692
3848 1 4.10875 -16.4896 7.09473 0.0935288 -0.0658108 -1.31382
3850 1 17.8526 -20.9863 20.3375 -6.70144 -0.0949875 2.16612
3853 1 20.2331 -13.2921 3.25665 3.80676 0.415249 2.75179
3855 1 -5.22551 -4.47482 24.0414 0.901804 0.983076 0.332437
3856 1 15.0695 -18.9975 -2.98815 2.19978 -0.137343 -2.99432
3857 1 -10.3278 -22.9432 -10.5643 0.660443 1.45147 -0.858455
3860 1 13.9552 -15.6483 -14.7743 -3.68071 2.41207 3.17179
3861 1 -18.0124 -13.7886 23.6056 -2.02116 4.91771 3.5512
3863 1 -13.2731 -3.17118 13.3135 -1.65026 -1.42351 3.24653
3864 1 -2.19545 -2.11879 -15.1415 -3.68119 -2.83026 -5.523
3765 1 -23.5724 -24.0317 -1.28385 -4.07631 6.67611 -1.29278
3866 1 9.38872 -14.2931 7.8671 -2.52832 3.27328 -2.96192
3870 1 14.638 -19.1507 -9.94517 7.39575 1.33416 5.29967
3872 1 20.8701 -23.0448 -6.6112 -1.0584 -1.06885 3.85757
3874 1 -17.0814 -23.7079 -14.0928 -3.26611 -5.26209 1.53682
3876 1 -24.2185 -13.0607 20.6812 3.92664 -2.19375 -3.05886
3878 1 7.35675 -16.6405 8.78765 -4.34638 -3.43195 4.16451
3879 1 20.1463 -15.734 22.2703 -1.0476 -1.58285 0.970698
3884 1 14.7085 -20.9857 -6.56429 -1.45192 -0.267326 -3.9521
3886 1 -10.554 -13.6812 -7.44581 -2.72315 -4.9911 -0.885208
3887 1 1.10526 -12.2281 -18.6134 -1.68914 -0.0505667 1.35829
3891 1 4.56755 -15.3703 19.1378 -3.65083 -2.85519 -1.48866
3895 1 13.7086 -5.91516 0.223719 1.95345 -0.845038 4.0247
3896 1 -10.0284 -9.10025 -1.78198 1.41812 1.21694 0.173078
3898 1 18.3543 -3.66295 16.0756 1.93889 0.582713 0.561376
3900 1 11.3568 -17.9082 -12.7969 -0.938811 1.4201 1.81283
3903 1 -19.3312 -15.1943 4.08754 0.415275 3.76278 -6.15647
3904 1 9.46057 -4.99336 -7.08241 1.80146 0.483703 -1.45829
3905 1 0.477041 -10.3123 5.52411 1.47856 -4.48971 -0.930748
3908 1 23.1922 -13.7371 16.6435 0.500695 -0.718248 -0.484639
3909 1 -0.038528 -10.1712 20.7548 -0.269634 -1.91665 -0.126803
3912 1 -9.59389 -9.58696 1.7451 -0.426438 2.42275 0.451394
3914 1 12.2001 -10.6218 -5.78237 -2.0963 -0.788375 -0.413472
3915 1 6.61015 -2.92163 6.82053 -1.66943 2.63854 -3.74924
3916 1 20.9115 -11.7155 -24.1518 -3.88212 -4.99111 -10.6346
332 1 11.248 -0.794579 -10.4013 -3.41648 -2.31132 -3.63853
4103 1 -8.4345 -24.552 -9.18714 2.065 -0.893518 -3.61465
3833 1 20.1273 -1.19511 -9.77046 1.50736 -1.34213 -1.04322
852 1 10.0771 -1.00699 -1.61208 6.0341 1.0128 -1.70227
1985 1 1.4275 -24.4632 -11.7925 4.5165 3.3708 0.633083
3832 1 20.8442 -0.878454 4.13595 -1.70511 3.77811 1.95378
61 1 -13.0693 -0.948967 1.88218 -1.97244 1.44379 -2.1341
1346 1 15.5007 -0.764259 -16.8865 0.53467 -2.91284 -0.916016
2226 1 18.3896 -0.951055 14.6575 -7.15871 1.99814 1.35819
3702 1 -6.87543 -0.886924 -12.9439 1.36076 -3.47606 1.19679
3179 1 2.33001 -0.820005 20.6058 2.90942 -3.75899 -3.37218
448 1 -15.9165 -0.806725 13.7352 5.27359 -0.881893 7.66597
1860 1 7.74195 -0.99048 8.93949 2.40529 0.872076 0.160737
650 1 -8.22154 -0.860045 17.9486 -2.60139 3.8946 -0.631207
2598 1 19.8611 -0.738666 -5.73674 -1.51476 3.87671 -3.59451
3461 1 -12.8412 -24.6628 19.7798 5.23101 -2.42388 -1.95284
1515 1 -7.33942 -24.4153 -24.0695 1.94956 2.07123 -0.111787
3151 1 -11.8079 -24.6393 -16.1421 3.46431 -3.59417 2.83698
2061 1 -17.6036 -24.335 -21.7477 -2.46215 0.420146 -1.07042
1403 1 13.4632 -24.6646 16.3557 6.70256 0.451094 -1.66693
2808 1 4.40846 -24.5079 -11.3629 -1.4685 1.90631 2.3733
3077 1 -12.5832 -24.5789 -7.33664 3.93912 -0.219098 -0.968997
2 1 -7.6149 14.3847 1.99074 0.142976 3.7434 4.50747
6 1 1.18883 15.5107 19.0046 1.42463 -1.89842 0.623028
3692 1 6.34306 -0.127238 -17.2073 1.90973 -0.198968 0.652388
9 1 -13.7326 5.09229 5.03817 -3.54987 -0.551479 3.45374
14 1 11.4635 2.44951 -9.08645 -4.29425 1.37778 -3.04705
1902 1 19.9095 0.893426 -20.0042 4.64672 -2.86304 -4.03841
2376 1 -15.0513 0.256249 23.3066 -3.38821 2.85864 0.741563
3748 1 -13.8454 -0.679391 -20.1958 7.42991 0.0195923 1.46235
20 1 19.0095 3.45674 17.4483 1.10918 2.50482 -0.266273
21 1 -23.1153 0.573149 13.2528 4.74434 1.36407 -6.16446
16 1 -19.2103 0.343486 5.99416 0.0340745 0.651524 0.749309
24 1 10.7213 18.5625 -3.90373 -2.254 3.55764 0.947249
26 1 -1.76016 15.0711 10.8879 2.59906 -3.61769 3.04859
27 1 -19.5145 7.28897 -2.78222 4.82561 5.54455 -1.85346
28 1 -19.6384 8.82694 2.85575 -2.20087 -3.76018 -0.0486622
32 1 -10.2355 12.4151 -20.4824 1.25338 4.28596 1.79326
33 1 2.18847 1.52293 -13.3229 1.70569 3.939 1.93582
35 1 20.2314 5.98377 10.9913 -3.44727 -1.52468 -2.6497
36 1 -14.0033 18.1366 -14.9216 -0.631285 2.06349 -0.97136
38 1 20.0309 12.8917 10.0878 -0.272524 1.84463 4.32737
39 1 3.66471 6.17022 -23.5526 -0.969058 2.32747 -1.05001
40 1 -0.801486 0.656173 -17.9054 0.991331 -2.86592 2.44494
45 1 -10.0961 13.8916 -3.40082 0.805555 1.78634 1.1619
47 1 -4.85288 4.31726 20.7465 -5.54894 -3.75206 -0.978081
48 1 7.75958 6.50938 -10.202 4.17949 3.01967 3.37494
49 1 20.9391 12.3672 5.4794 0.112741 3.19713 -3.66484
52 1 15.1739 3.01339 -15.9867 6.90376 -3.38325 3.79696
53 1 -2.53918 20.6416 7.7219 0.543658 -4.56377 2.22901
56 1 -14.8419 7.20984 3.37683 -5.81315 1.66166 0.865727
59 1 -21.53 12.2328 19.7361 1.14618 4.79913 -0.436046
60 1 -0.149397 17.7517 -20.821 -7.14572 0.858519 -3.01978
15 1 -3.19301 0.263674 -14.1535 -1.28552 0.229572 -3.49504
63 1 1.30792 11.3051 -14.3056 -1.96832 -1.45704 -2.12019
250 1 -2.32995 -0.469965 5.94628 0.947565 -3.85522 0.777547
68 1 0.164728 13.0277 -19.6071 -0.631746 -1.82169 2.2895
69 1 -7.84613 14.6431 10.5677 -1.54364 0.197622 0.777928
70 1 -14.7399 15.1939 -16.0797 -2.84274 -1.67686 4.83697
71 1 -11.8788 5.14479 2.82025 0.775273 -3.34531 7.98969
72 1 22.6713 16.792 20.285 2.4777 -1.08973 -7.411
74 1 0.646049 13.5222 -12.3996 0.269554 -2.75633 -1.19595
75 1 -19.1076 2.19467 -11.6667 -1.13435 4.95837 -4.71852
78 1 -16.1193 13.0545 -7.8006 2.67862 -2.23248 1.24734
80 1 -12.6268 12.3896 -12.6464 0.943916 1.19228 -0.48388
83 1 -20.935 12.5023 -1.26079 2.66859 2.66315 -2.83857
2748 1 -4.55216 -0.33231 -11.5297 0.432457 6.10781 -2.37936
85 1 6.32521 14.3007 -2.72396 0.874608 -1.55091 0.938057
86 1 13.3114 5.12344 13.4986 2.84062 3.60989 -0.915778
87 1 1.29775 16.0666 -6.34215 -0.216839 3.54427 -1.46916
88 1 -9.50592 20.8518 -18.2911 -0.719253 -0.982734 1.35374
91 1 19.0409 19.4505 -19.8031 4.48797 3.81928 4.30481
94 1 22.8261 3.10802 -11.8732 -0.0793836 -2.35349 -0.853612
98 1 -3.07913 14.0918 14.0498 2.88922 3.3851 -4.25568
102 1 4.22719 4.70288 4.57769 -1.26025 -0.471174 -3.63498
105 1 4.03705 18.7058 -19.7868 0.438464 3.07249 -5.23348
106 1 15.3959 2.0263 8.03497 2.32458 0.835908 2.84419
108 1 -10.4585 2.89633 22.196 1.52415 1.20154 2.1769
109 1 -11.1946 16.0951 -13.6928 -2.38967 -5.84509 4.47631
112 1 -17.1321 1.90424 -21.5316 1.60714 2.83536 0.137457
115 1 8.12484 10.2073 5.89463 0.861654 0.76417 -0.831463
117 1 18.5503 15.2464 -20.9644 -0.995929 -5.03702 -0.527546
119 1 17.4438 9.17391 -9.13922 -1.83794 2.09855 2.27298
122 1 -6.33377 6.70756 21.6029 -2.54798 0.0593522 -2.02723
123 1 12.4786 16.1584 7.50464 -3.55347 -1.52844 5.45516
125 1 15.7192 9.20667 0.612368 0.77908 1.2055 1.33042
195 1 9.14159 0.444974 -8.78705 4.35673 -0.996261 -0.980839
127 1 9.66469 1.66337 14.2249 3.51372 -0.686811 -2.11713
1477 1 17.8768 -0.302896 -1.64173 -0.68401 4.75197 2.77261
130 1 -9.33339 16.54 -17.7699 -1.11423 1.46721 -2.99509
133 1 -18.567 5.09866 18.1351 1.93288 -3.10138 0.286032
136 1 -0.725347 2.81517 -5.8664 -2.32893 -3.12726 -1.10346
137 1 -10.6521 4.18841 -15.4586 -1.432 -3.07261 -4.72064
138 1 13.0099 17.4859 5.00317 0.101278 0.937843 3.29811
142 1 13.3505 1.65179 22.0974 -4.89553 -0.461118 -3.68173
145 1 16.1014 7.68555 19.5043 1.11269 1.5877 0.624496
147 1 10.2446 20.8604 4.98882 -2.45138 3.27703 0.732932
148 1 -15.5112 13.9636 10.6856 0.000809762 -0.23867 -0.76307
150 1 19.898 9.92272 18.1925 1.36478 0.417884 2.74382
151 1 19.0908 2.1845 20.3243 -2.87173 -1.98067 1.25298
154 1 -7.28724 19.9227 -5.38932 3.42246 -2.95287 -1.59889
156 1 16.1086 11.0305 18.1462 -3.7235 -3.36548 -3.73129
158 1 9.43615 9.00322 3.72439 -2.68413 -3.55357 -1.22616
161 1 19.5887 1.71674 -16.1533 -2.2924 5.51483 2.53919
163 1 3.93606 0.407606 16.3589 -1.46038 -1.40808 -2.18487
164 1 18.1123 8.17478 10.647 -0.360377 -1.17807 -1.47038
165 1 -19.1811 12.9413 17.9904 2.71888 -2.98941 -0.554797
166 1 8.82498 19.9326 -23.9046 -1.74608 3.84809 -4.55145
1438 1 -0.316974 -0.0611962 -13.696 -0.765899 0.500451 -3.35185
312 1 -6.03248 0.0781318 -9.06996 -3.5091 2.30885 6.56406
171 1 -15.4573 2.70478 14.7058 -2.99602 -2.34873 1.57139
172 1 -20.0397 20.8538 -19.3932 2.94381 5.17956 3.28804
173 1 -20.4178 0.618379 22.4512 2.2334 1.75041 7.44101
174 1 -18.2621 6.53791 -21.2804 -4.0899 -5.56571 3.87737
175 1 10.0399 17.8299 4.75674 -1.40206 1.26301 -1.7446
176 1 -3.89756 21.6188 -3.56813 -0.812282 -2.65151 2.08391
178 1 -17.6178 10.2188 5.09392 2.69343 0.805072 2.23107
180 1 -22.9816 20.4885 8.89497 1.38691 3.14452 3.13326
183 1 19.9878 13.543 -2.1895 -2.97855 -0.93385 -0.560062
185 1 20.7455 22.2694 15.3039 1.70532 -0.525279 -3.46241
187 1 -11.917 4.33137 -7.52265 -0.201559 4.66863 4.40532
190 1 -15.5149 11.9997 -12.1888 2.5368 -5.14761 3.89543
192 1 6.99579 5.62097 -4.08369 -2.63555 2.10534 1.97592
193 1 10.1319 4.25702 5.11962 -2.38605 -4.86592 -1.48882
3216 1 21.2189 0.561393 9.95341 1.52023 -0.325887 -0.972195
594 1 -19.678 -0.10711 3.11214 0.852312 1.67525 3.41998
1048 1 1.78462 0.210837 18.0044 2.12484 -0.520206 -6.48872
200 1 15.1598 7.64731 -16.6511 -2.03139 -1.97611 1.57075
201 1 7.79892 3.24944 23.7927 -3.03502 1.94313 0.342691
202 1 11.5886 12.8976 13.3076 5.66462 -3.31915 0.80801
203 1 -23.1509 19.0078 6.51537 -4.07698 2.30734 -0.539719
207 1 -8.37884 6.53166 -22.9825 -6.51322 3.56545 -5.00536
209 1 -6.7047 15.6997 -14.3474 -0.0650395 0.533576 -2.14053
210 1 -18.3171 13.2346 -1.12077 1.73007 -4.40819 -1.218
3318 1 -10.6414 0.349461 16.9532 -0.804112 2.89259 -0.804292
2182 1 -4.31675 -0.502384 9.78723 0.983291 6.48333 -2.93317
217 1 4.4375 21.447 9.275 4.73171 -4.84359 1.90056
218 1 11.272 2.4252 -4.81001 -3.87197 2.19092 -2.84029
2921 1 -19.2916 23.2337 9.58302 4.68224 6.15217 -2.75241
220 1 5.90576 19.9881 15.7035 -1.8893 0.576251 0.547005
221 1 -16.1531 3.72532 -2.45411 2.6291 -4.10106 2.80009
226 1 -23.7686 17.2155 -15.207 -1.93586 -2.04691 -6.47222
227 1 16.7574 16.4656 1.18783 -1.49734 -4.46751 -2.97068
228 1 -11.2245 21.2385 -0.40692 -1.1596 -1.73621 -1.68226
229 1 11.7311 10.0804 -11.6199 2.66882 1.12494 2.97135
230 1 -7.82029 14.2463 19.8411 -0.847095 2.33539 -0.327403
233 1 -12.345 16.9467 10.8102 -0.470232 -0.34079 0.489704
234 1 -6.23677 17.777 8.71746 -0.763469 -3.86862 -7.53993
1135 1 6.87175 -0.611904 22.7813 -2.51614 3.25267 -4.01534
239 1 -18.8516 20.8731 16.7857 0.546133 1.44173 -0.93067
240 1 11.9874 0.453314 15.3032 -3.2207 -0.766177 -1.51212
244 1 -20.6621 13.1643 22.0874 -2.82184 3.23956 -0.873876
246 1 11.121 3.29145 20.9975 -1.66337 0.861107 2.83306
248 1 -17.9383 6.00766 -14.1849 2.28096 -8.28075 -0.855056
252 1 20.3691 15.8181 -11.635 0.377242 0.608971 -0.913281
257 1 -1.02474 3.86547 -20.564 -4.09617 4.46578 3.54253
260 1 13.9802 6.79606 -3.8483 -0.290967 0.351525 0.644002
262 1 17.5407 20.1005 9.20058 -1.72249 -1.02259 -7.49639
263 1 -20.0732 9.65652 -11.3042 -3.52369 0.976604 -0.282716
264 1 23.3984 4.2111 16.819 -2.34952 4.32015 3.68795
266 1 22.9867 5.35888 -15.8746 -0.854434 -0.319478 0.987516
267 1 -12.2549 19.4219 -10.4414 4.58782 4.50532 2.50138
268 1 -21.7846 17.0712 -12.7691 4.05337 -3.26265 1.45408
2282 1 -5.76859 22.5095 6.37696 -2.55071 -3.4763 -4.86315
2173 1 21.465 0.181261 -14.2669 3.60713 4.03836 -0.746526
276 1 21.8827 6.86463 -9.39862 2.38298 0.145043 -3.03805
278 1 19.9796 9.74363 14.3876 1.14735 -3.35286 -1.60446
4000 1 -15.5827 11.3215 22.4599 1.88631 1.40818 -5.29833
281 1 14.0965 18.8097 10.6323 -0.711286 1.02461 -1.04264
282 1 14.1631 9.21065 12.0866 0.0732992 0.921461 3.78729
284 1 -0.37413 13.9555 0.512272 -4.08358 -2.20871 0.624999
285 1 -13.8552 19.8262 14.4896 1.53032 2.98264 3.0886
286 1 -6.20353 17.3071 -1.0535 2.61353 -2.82647 -0.3937
292 1 16.15 6.87458 2.22036 2.058 -0.647429 1.67931
293 1 13.5734 1.67976 11.7181 1.91108 -1.55232 0.477843
294 1 -10.3052 0.355167 -1.5308 2.46081 0.0442849 2.29862
295 1 0.157352 7.44305 9.71479 -2.65941 -0.864438 0.768102
296 1 0.193309 14.0063 -2.41313 2.58785 2.24796 -1.26846
301 1 -6.5602 21.4053 -20.7742 1.18458 -3.40636 -0.245833
302 1 1.28063 6.94952 -1.54413 0.225697 0.905682 -1.99328
306 1 11.0418 19.9689 -11.6406 -4.61179 -0.180885 -0.880355
307 1 14.5155 10.9817 -23.1187 -2.92402 -3.70387 -0.118903
310 1 4.83523 11.8655 13.5901 -3.36506 -1.1023 4.24515
2984 1 -0.264323 -0.476754 22.1714 1.28922 0.995151 -1.41195
314 1 -13.9994 4.41142 -9.43129 1.35198 0.0712932 -3.46597
319 1 -11.3579 4.20136 15.6108 -2.43592 -3.21052 1.87148
322 1 -11.5104 15.2157 -1.03662 0.129573 -0.232738 2.41948
323 1 -14.6329 2.53867 3.90891 -3.1898 0.779941 3.09903
324 1 22.4195 4.07047 7.37478 0.280811 0.767718 -3.82435
326 1 -17.962 5.01169 0.881638 0.456448 -1.79654 -2.92006
328 1 14.2125 21.1113 13.759 -1.40389 -0.0776985 0.853632
329 1 0.187166 -0.0209535 -10.821 1.2125 -3.39266 -1.95226
331 1 13.5199 7.08538 3.07754 -2.71916 -2.45317 -1.61176
3051 1 -16.4638 -0.528232 -11.4492 3.89977 1.08141 1.6503
336 1 20.9673 15.5649 -22.4389 0.189936 0.151783 -2.86905
337 1 -19.2123 19.4199 0.458702 -5.07126 -0.186285 -5.23059
340 1 -13.2519 1.161 -16.8865 -2.07634 -5.15236 1.83544
341 1 -10.8209 1.35129 -12.9586 1.50239 4.71031 -2.93626
346 1 15.2244 1.81319 3.92803 1.73607 2.70188 2.39027
349 1 -4.2402 11.0881 21.1814 -3.13453 -3.22908 0.226213
350 1 -22.6105 19.317 22.2942 0.677533 -2.97911 1.35398
351 1 -17.5442 4.34923 10.6689 1.04674 4.2673 -2.93362
352 1 13.4726 0.400131 0.195335 3.0575 4.97515 0.474695
1118 1 23.1765 0.299008 -11.9012 2.31029 -3.90024 1.5374
360 1 5.19288 16.0964 0.871636 -1.38416 3.53499 -0.272032
362 1 -22.3359 12.1193 5.03154 4.88933 1.38817 -0.1812
364 1 -11.5317 1.16744 -5.13479 -2.02349 1.90149 1.47478
366 1 -18.9012 1.52147e-05 -9.7273 3.54085 -2.51065 4.67324
367 1 5.43162 17.5226 -17.7584 2.48557 -2.69119 -4.14753
369 1 14.8937 7.84605 -12.4816 3.41836 -1.11774 -1.79
372 1 -8.22921 22.0557 7.36276 2.79848 -2.98962 -1.98594
373 1 -12.7956 5.67707 -22.7851 -4.68202 -0.72746 3.00715
374 1 -2.98888 18.6588 -10.191 1.27656 2.10768 -0.0083483
813 1 -15.5242 22.8449 -17.9647 -1.72989 -3.18393 1.1124
380 1 12.3633 16.4536 -21.2053 2.33913 -2.68027 -3.53136
382 1 16.5168 16.7141 -3.16895 3.34078 -2.6716 -0.512852
384 1 -9.97923 9.75311 -7.5003 -1.05079 -0.837245 -3.259
385 1 -6.97046 2.71443 19.8965 -0.578047 3.24679 1.12736
389 1 -13.1651 8.776 6.87676 -0.249265 1.51067 3.35427
390 1 12.3046 7.56188 6.64851 1.3343 3.30257 -0.440229
391 1 16.3471 3.42664 18.1564 -0.645971 -2.51564 -2.19188
394 1 -9.68205 11.7804 -5.34651 -1.43728 -1.20402 -1.55918
399 1 13.1996 15.3813 1.21725 -5.35636 1.9528 -0.597014
402 1 -1.407 7.79756 20.6792 -2.89904 6.44966 0.769875
409 1 1.05314 0.471053 -6.05565 6.10402 -1.98517 -0.963221
410 1 -14.2507 11.6955 0.0503463 -2.87674 0.14911 -1.74987
2204 1 3.78767 1.41201 -1.99324 -0.699536 2.17706 -2.85338
414 1 5.13184 18.8781 -15.2947 -3.83465 -3.40346 1.16528
415 1 -17.8628 7.23327 -11.7113 4.58432 3.87509 -2.1762
416 1 22.2987 0.642008 12.4852 -4.34833 -1.48339 0.135952
417 1 -13.9852 0.65985 11.0832 2.21719 -3.2537 4.69706
418 1 23.2524 20.7338 5.07949 -1.44134 3.72576 2.57676
419 1 23.2158 2.53242 23.0621 -3.79357 2.00221 -1.89184
422 1 -2.02927 13.9773 -21.5427 7.42008 -2.40188 3.03247
423 1 -9.99014 2.7687 3.97823 3.07006 -3.44636 -0.631843
425 1 -18.5747 15.6868 17.809 1.62993 0.408133 3.1121
428 1 12.0862 12.8898 -6.87562 -0.263017 -6.85145 3.66191
429 1 -6.2607 9.01387 -13.7339 -1.42708 -2.19733 3.23445
433 1 -20.436 2.36811 -18.4125 -2.88958 -0.800296 0.932716
461 1 3.94239 -0.31158 -20.0822 -2.89291 -2.08593 2.10648
437 1 22.911 17.8374 -8.49213 0.0790254 0.643583 -3.92098
438 1 -17.6948 6.72835 -5.05903 -4.03463 -0.8429 -1.87052
440 1 -9.87843 13.4034 -13.7619 -4.73132 -0.298262 0.466245
441 1 18.703 1.96324 -6.67859 1.91698 -0.601526 -2.17325
442 1 5.15231 5.17181 15.155 -5.41754 -4.87635 -4.61689
444 1 -23.091 7.40665 -20.2421 3.80818 -1.93511 1.83943
447 1 7.48867 19.8904 13.1856 0.89325 -1.47796 -0.327067
2960 1 -11.4192 -0.0206251 -23.9221 -0.413836 2.39229 -3.8938
452 1 -24.3035 14.5688 0.569368 -1.57041 1.77263 -1.8707
453 1 -15.361 14.6567 6.78624 3.33469 2.4409 -2.22293
454 1 -5.15457 0.89716 -16.234 -1.86381 -1.13535 1.59271
456 1 -3.09765 14.8923 24.0969 -6.08205 -4.99258 -0.877107
457 1 7.46879 21.3451 17.82 2.91608 4.87776 -0.0331174
458 1 -24.2291 21.0994 17.6025 1.0779 -4.5427 -5.51821
459 1 0.85912 6.68544 -13.8534 2.84186 -5.95761 2.7937
460 1 7.15303 7.42566 -23.2381 3.50539 -4.18914 -2.08142
693 1 -7.88766 22.885 2.58849 -1.10949 -1.20074 0.84507
463 1 5.66451 16.02 10.5957 1.37823 2.89521 0.449856
466 1 16.4226 14.936 -22.8355 1.38437 -2.30256 5.10292
468 1 -24.1284 16.6404 -11.1523 -1.48705 1.95583 -5.34929
470 1 -20.5944 5.96839 -13.7828 3.96191 -2.2903 3.26808
473 1 5.80256 13.1641 11.126 -5.73856 -0.606659 4.65411
475 1 -24.4815 10.4916 -21.7859 0.295542 2.05223 2.154
3881 1 -14.7349 -0.203302 -13.7172 -1.03317 -5.07859 -1.03412
481 1 -1.61839 6.42675 -20.7116 -0.703209 5.34888 -0.0598037
486 1 15.6156 2.25936 -5.73178 1.13401 1.9416 -1.3646
403 1 13.8158 -0.424532 -23.2715 -1.19327 1.50261 -2.58442
489 1 -12.2335 22.04 -11.7515 -1.55276 1.15565 -6.6039
1051 1 2.23365 1.27042 6.90615 -2.44219 -5.19886 2.25424
494 1 7.50431 2.99497 4.11322 -1.20136 -4.0354 -1.3828
496 1 4.47962 6.30333 -14.3837 -2.66435 3.91165 -0.865221
497 1 9.99334 15.267 24.0942 -1.5076 -3.70936 0.734726
498 1 21.3838 0.0465633 23.0291 0.587765 -2.33883 -2.85438
499 1 -22.6374 3.80794 -10.7353 0.363324 0.642792 5.30109
503 1 10.1878 1.27461 -13.4972 -1.67202 1.22279 -4.12398
504 1 -2.79332 4.41302 3.76464 5.25402 -4.11388 -4.54243
505 1 0.375475 6.61533 -23.1835 0.292334 -0.646295 5.18335
507 1 13.4527 20.3758 -13.4861 -3.41647 -0.945698 -2.15914
3279 1 7.61925 0.159382 15.8665 1.15444 2.42491 1.90108
509 1 -24.2377 15.4968 -17.3653 -4.92611 -0.186696 -2.3197
514 1 -12.5178 20.8379 19.0735 2.10157 4.70618 1.4845
515 1 -0.949253 5.84661 18.4621 -1.37903 0.676963 -0.24648
526 1 -19.8898 15.5017 -4.5352 3.16676 3.62127 -0.554298
527 1 -3.61211 15.3254 -7.51461 3.02684 1.67022 -4.46422
528 1 -13.6825 14.8246 -13.4594 -2.81857 0.459424 -0.644228
530 1 -8.50526 2.65317 9.98066 -0.321523 0.136497 0.676683
534 1 20.4812 9.53767 -12.5774 -5.78568 -3.07565 -1.41689
535 1 5.2069 11.1834 9.11187 -4.91932 -3.838 0.812189
539 1 18.3929 10.1928 -6.44772 0.129951 -3.87274 1.34586
541 1 -12.9758 1.50942 15.6351 3.02732 -2.58538 4.11253
542 1 -23.6067 6.34424 -10.0519 0.405097 -3.00845 -1.7776
548 1 8.4303 0.726501 18.9537 -2.50203 0.956717 -1.70083
551 1 10.8429 5.99741 -18.0627 0.174353 -2.26148 -2.57692
553 1 -12.5177 5.28415 -0.956334 1.08274 -2.2501 -2.11771
554 1 3.10047 15.7253 -17.8148 1.04472 4.55535 2.26165
556 1 -11.6886 18.4491 -4.17779 -6.54527 -0.767177 -3.20568
562 1 7.53416 7.30364 -20.5684 -4.93369 2.7432 0.677485
566 1 19.4379 15.9727 13.8437 4.8391 -3.03761 -1.17224
211 1 16.7089 -0.0232719 5.91185 3.35786 -4.96725 2.21881
3283 1 -4.70702 -0.0914525 14.0062 0.0441657 1.37262 -1.4253
570 1 -24.1372 12.9428 16.72 2.40873 -2.28177 -4.65732
575 1 -15.5283 5.16122 -4.92169 -7.06955 3.75095 -1.97058
3394 1 -13.0929 -0.45517 13.7786 -3.54486 1.90394 -4.48288
2203 1 6.45432 1.3076 -2.37727 2.04532 0.110526 9.62536
3950 1 -5.59348 -0.264599 -20.5136 -2.06285 0.26485 -0.968765
580 1 -5.54779 3.49422 -21.4852 -1.86561 -0.318703 -3.38981
1971 1 23.1478 0.961785 7.7583 1.37076 -0.762642 -1.3827
584 1 13.9675 5.58464 -7.65636 -3.61446 3.72777 2.18599
585 1 -7.84364 11.9407 16.0479 -1.13431 -2.51991 1.45047
1390 1 7.42847 0.845288 11.1767 -4.03367 -1.2933 -3.16018
913 1 -3.30353 22.4788 16.4757 -2.59064 5.85198 4.76509
589 1 -2.8537 1.28825 -0.433891 -0.834041 -0.188499 2.89637
590 1 -3.78177 17.5429 23.0543 0.471578 0.0481791 1.30112
3705 1 4.30317 0.547086 2.67381 -1.52152 -1.19415 -8.14959
602 1 -9.80456 1.9351 19.5762 -1.59407 -1.77336 0.813248
603 1 -6.74039 6.41765 -5.43795 -2.92174 2.58818 -0.255192
3629 1 -5.18623 0.976965 2.82377 -2.64088 -0.659155 1.95799
608 1 3.53756 8.33342 -9.20712 0.472845 -3.92909 -4.75112
612 1 -3.38366 11.3084 -13.5953 -0.0773746 -1.41235 -5.08014
613 1 12.2959 7.54964 -21.4159 2.51284 1.04635 -1.56637
791 1 -2.14001 20.987 13.9378 -3.19305 -1.2058 -2.48029
618 1 14.6499 6.77097 8.49251 -0.877221 -1.0969 -2.02465
619 1 15.8628 -0.0374594 10.2104 1.54954 -1.81035 -2.25223
621 1 -7.04786 12.9154 -12.8873 -5.40302 1.28526 -1.83861
624 1 -7.89327 1.3621 -21.3775 -1.26513 1.21914 3.1647
626 1 -2.34107 3.44746 -18.2751 1.50606 -2.52003 0.0124631
627 1 20.9513 15.7795 11.2952 -0.449263 2.85286 -3.5177
629 1 -5.64523 9.71932 -6.63373 0.961909 2.39401 0.346674
3757 1 1.94532 22.0238 2.96547 0.499704 -0.697463 6.17215
633 1 8.96085 9.92628 -23.5997 -0.404499 -2.37075 -2.40776
635 1 8.2353 12.5472 -3.86156 -7.3796 3.16121 0.959559
636 1 -23.1539 0.462055 -17.5105 -2.03981 -2.24439 -0.420024
638 1 14.3721 17.4178 -4.84512 -0.544915 -0.046308 4.33096
1547 1 11.8494 1.12744 -2.33457 -0.679433 4.07359 0.710162
641 1 -12.9035 18.4011 4.08149 -0.0316774 -5.86444 0.100634
644 1 -6.97837 10.8922 -4.27279 1.34373 -1.35284 -1.0588
1350 1 -17.5843 0.0579675 -1.51607 -3.54539 -6.75593 -1.08093
647 1 3.15405 4.57832 -4.8637 -2.32257 -2.41203 -6.31786
3975 1 3.27144 -0.128708 -17.0485 -6.62281 3.51366 2.30609
651 1 -22.9439 3.62617 -16.7439 -0.940245 0.666659 -0.162079
2588 1 17.9682 0.254298 -17.9507 1.4339 0.635898 -2.07158
658 1 -24.2919 12.5935 12.931 -2.48609 -2.33954 1.1204
1304 1 1.64388 0.256271 -3.39204 0.76303 -1.3451 -3.17436
660 1 7.73784 6.53525 7.45259 -3.22153 -0.786238 -1.06992
668 1 -9.63378 13.0572 17.9046 -0.824242 -1.53487 1.16314
671 1 19.5542 13.7846 3.32714 4.46738 -3.68785 -2.79766
672 1 23.1662 5.80488 -12.632 -3.38764 1.04176 -0.211989
673 1 -1.53834 17.259 -23.2087 -0.404988 -1.20177 1.66164
2914 1 0.0059112 0.314492 11.9344 0.376148 -2.85678 -2.93308
676 1 6.15737 2.6635 16.176 0.169919 -0.886728 2.57354
679 1 -18.019 2.57351 -8.04268 2.53641 -2.03106 0.559428
680 1 8.77337 22.1101 -9.44313 1.70412 2.94675 -4.71116
681 1 -0.791253 0.0250398 -8.28584 6.67653 7.67537 3.68443
682 1 -5.41398 17.2778 -8.97456 0.39711 4.30419 -0.666054
683 1 1.83642 10.7011 -18.4818 6.21975 -1.93129 -3.29706
685 1 19.0674 0.777149 7.73918 -0.330007 -1.87796 0.962558
687 1 -13.9707 7.53783 10.3641 1.67395 -1.14274 -2.86871
993 1 23.5395 0.452024 -23.1124 -1.69348 -0.705725 -5.47689
2489 1 5.93006 22.9385 -10.1494 -0.708844 1.21146 -2.34204
691 1 -0.678316 7.61588 14.1857 3.63248 -6.88205 7.98397
697 1 -21.2273 17.1541 -20.0644 -0.743632 -2.6135 -2.41438
700 1 3.38603 3.04043 -22.6328 1.8015 1.55638 0.978152
1526 1 19.5173 22.8261 1.12394 -3.1853 0.0861313 0.280045
493 1 13.0957 0.988057 -16.4011 0.418712 -0.327724 -5.64386
705 1 4.62998 21.2494 -17.0849 -2.2138 -0.547193 -1.32798
706 1 6.56511 2.78901 19.4434 2.35887 -2.05354 -1.00546
707 1 -17.7001 0.677109 21.9728 -4.0094 0.723942 1.15818
713 1 3.36825 5.73615 1.97419 1.19527 1.37341 -0.567971
715 1 2.69915 16.3395 9.63865 1.41778 -5.3511 5.44739
723 1 -20.1497 12.4169 -7.77199 0.828262 -3.15417 2.66147
724 1 -7.88689 21.3206 -9.82276 -1.7238 3.89068 -0.889895
725 1 2.69181 18.576 23.0668 -2.70118 5.07113 -3.78445
728 1 -10.4158 17.8353 -8.92658 3.2526 -0.531358 -0.0439288
729 1 -14.027 15.4106 15.0711 0.808124 1.18594 3.46633
731 1 -10.2582 11.7734 -23.3316 1.97243 -1.80537 -1.42398
735 1 16.9325 9.73579 6.62532 3.43636 3.27056 0.452316
736 1 7.50893 21.2824 -6.89944 0.10413 -0.229648 -2.47129
738 1 -10.6501 7.01757 15.3226 0.866867 1.27235 0.671814
740 1 16.7975 13.8765 18.0395 0.00669547 -3.83068 -2.1218
743 1 -24.293 19.4375 2.54446 -1.26404 4.67573 1.03336
745 1 -21.0668 4.18717 18.3501 -2.06187 2.35886 -1.98011
749 1 -1.11751 14.5395 7.86865 0.568734 -5.11603 2.91049
751 1 -18.4937 11.0766 -15.3494 1.36163 -0.937721 1.30774
886 1 -2.35353 22.3237 3.44546 -0.591019 4.11081 -2.62732
755 1 11.5839 9.39854 -23.3612 0.763405 -1.96998 2.32038
757 1 -17.9658 13.5462 -4.05148 6.35105 3.79168 0.841396
759 1 1.07304 11.3723 -10.3068 5.03995 0.242592 1.90085
760 1 2.23657 7.00712 13.3166 -2.1965 -2.51551 4.98901
762 1 6.06124 17.519 22.1018 2.45892 1.50966 0.430693
763 1 16.8467 4.61254 8.5597 -1.91969 -0.83562 -0.0154424
764 1 19.3186 3.7971 7.18405 -3.51569 3.61076 -0.504244
765 1 -24.2081 12.3534 8.72282 -1.69648 0.656864 -1.80183
766 1 -9.07902 17.7088 -14.9636 -2.29575 -2.09918 -0.848926
768 1 -7.73534 9.10855 10.9077 2.8409 1.15326 1.39948
770 1 -5.74317 21.4157 -23.5684 0.31881 2.22824 0.573404
772 1 5.69111 9.01977 4.63705 5.23802 2.20821 -3.14005
774 1 17.5404 17.3709 12.139 -0.782381 1.09627 4.04828
1644 1 -19.3022 -0.0355332 10.8017 -1.46564 2.98068 3.35689
779 1 7.22657 2.56012 -8.33278 2.83489 -1.25075 0.772913
781 1 -19.9229 2.70429 7.61736 -2.2388 1.0577 -3.18897
784 1 12.8044 15.1116 -3.80842 2.76106 2.43467 2.07529
785 1 -2.00393 21.0259 21.1792 2.83872 -2.20933 0.440646
786 1 -21.0078 21.5988 22.2535 -1.95918 -2.35767 0.130577
787 1 10.6251 14.5202 -12.596 -4.85306 -2.40849 -1.02566
788 1 -20.3674 6.63131 4.42012 0.0328791 -1.89381 1.78282
789 1 -13.705 19.8474 0.0942557 0.17913 -0.298221 -6.64535
790 1 4.80182 1.76328 13.7138 0.666823 1.25103 -4.88601
792 1 -24.156 13.6138 -7.88001 -0.111408 1.01563 1.07354
794 1 4.39675 16.6127 -24.0548 1.25789 -3.30531 1.01835
798 1 -15.5123 0.917258 -4.90298 -3.50758 -0.349655 1.7764
799 1 -10.7418 20.9729 -3.3216 -2.53447 1.57483 -3.78133
801 1 21.1787 15.4314 -0.420382 -5.30191 -2.97734 -0.588643
3613 1 0.423041 22.0335 12.982 -2.74325 -3.03349 -2.91801
807 1 15.495 20.3451 -23.3035 1.32578 -1.72897 0.740667
576 1 20.3421 -0.430222 18.9702 0.375034 0.0713454 -1.24963
3456 1 8.64838 22.7311 -16.3663 1.83956 1.20741 -4.56436
815 1 -20.8167 10.1888 -18.9427 -4.2514 -5.51671 -5.88305
818 1 -8.75554 7.52066 20.653 0.324949 2.05894 -0.99581
819 1 10.9493 12.6566 20.5645 -0.633468 1.78629 -2.68209
820 1 1.48629 13.7957 9.03156 -1.6403 -1.50464 -0.307354
825 1 -22.9872 7.4187 5.8597 1.71998 1.70773 1.10871
826 1 -11.8169 6.63451 -5.50068 1.07819 -0.161308 2.97152
827 1 -2.57436 1.51764 3.75508 -0.364818 -0.58688 -3.49874
829 1 19.5437 17.8905 18.7965 3.92733 -1.69441 -3.79621
834 1 -1.6725 7.06439 -1.53322 0.749052 1.75501 -1.64835
835 1 2.39117 5.45742 -21.0165 -0.280323 1.52592 3.87263
839 1 -21.4283 19.4138 -11.3659 -2.69286 -0.364738 -0.908727
841 1 18.5281 2.7906 9.78184 3.42869 -2.41867 3.76043
845 1 19.2939 8.7269 -2.8764 0.721427 -2.28138 -3.61847
846 1 8.08623 6.56781 -13.2281 3.55813 -0.554011 5.85103
848 1 -3.95912 15.7811 -13.174 2.84915 1.01933 1.4851
851 1 -21.2568 18.2325 -15.6701 -1.37654 1.23152 -6.66569
853 1 13.4555 12.0736 -14.9781 0.524101 0.603829 6.60198
873 1 -4.26416 -0.242253 24.0044 -0.560759 3.2885 -4.6507
861 1 22.6724 21.9085 -12.1723 -4.5273 1.11669 -3.26833
862 1 1.87822 15.5676 -8.91101 2.05235 0.779303 8.8431
864 1 -15.295 3.65903 18.7979 0.805243 -7.45239 1.22307
867 1 -1.69551 10.8436 20.0372 -0.396842 0.782183 -2.48388
868 1 4.12221 15.8138 -4.97357 -0.0994519 -3.07979 -2.99184
869 1 -0.433312 18.9235 4.59134 -0.831157 5.96105 -2.2213
870 1 14.791 20.1714 17.7089 0.275401 0.236236 1.29044
871 1 5.08668 8.24616 -18.0388 3.97859 4.53916 -4.59897
1023 1 8.4019 0.591564 5.24996 3.04103 1.37438 0.739164
874 1 9.97083 2.42017 -0.198525 4.53264 -0.0294092 -1.35965
875 1 20.1753 15.0627 8.30831 -1.02421 2.4598 -1.49151
878 1 9.07797 12.8701 -22.8793 0.430761 -1.00501 -1.26341
879 1 16.4293 6.2607 -18.9804 -2.82592 0.286816 5.83936
880 1 4.58196 13.4346 18.0635 1.36853 1.10609 2.45435
883 1 15.5495 16.1407 -7.34621 4.89966 -7.15811 0.231866
888 1 -8.09977 10.6449 -15.4441 1.4165 1.39611 2.25007
894 1 1.17209 12.1986 22.1464 -0.246746 -0.208981 -0.17468
898 1 16.0795 1.29719 -23.7484 -3.23148 0.592928 1.18261
902 1 -8.96431 17.9945 -1.32909 1.12409 -0.608646 2.8525
907 1 -16.5592 3.14277 -10.5066 -3.21322 0.415188 -2.8172
910 1 -10.0342 3.63391 -4.24396 1.27858 -1.31918 -5.69681
911 1 0.099329 13.3855 -23.5998 -4.67346 0.102114 0.858785
320 1 -4.53158 0.703364 7.21794 0.266644 -0.653607 -0.765376
914 1 -22.2837 16.1537 10.0315 0.233343 0.0492229 -1.40856
917 1 21.6013 2.35203 -21.8341 1.08147 0.036075 0.640904
918 1 -4.5736 8.84191 2.43392 -1.13665 -3.38051 1.68752
919 1 -9.88513 17.4191 12.6906 -1.93266 -1.77824 -0.314156
920 1 1.98833 12.8614 -21.6238 0.202395 7.72302 0.426969
922 1 -10.1332 0.598702 -18.8147 0.755821 -0.720459 0.860433
924 1 -7.03382 18.176 4.58373 -2.72536 0.35973 5.43892
925 1 -0.422441 10.3544 -3.04971 -0.666063 3.65336 -6.12152
927 1 7.23053 14.641 17.4143 -2.56448 2.16074 -0.0112094
2019 1 1.67512 23.2268 20.7835 0.753317 2.37963 2.21328
932 1 -17.8779 17.4252 13.6848 -0.750521 1.89634 2.29062
934 1 -2.23138 16.1497 -19.8143 4.17187 5.07684 0.620418
936 1 9.40646 13.1259 11.1925 -2.31017 3.43315 -5.39736
937 1 2.9595 14.4853 22.6155 4.38612 -2.20084 1.61031
938 1 16.8496 10.7554 3.80885 4.1375 0.933626 0.347288
3871 1 17.6383 -0.479805 19.9786 6.74744 0.906632 0.993929
941 1 -21.6274 22.7689 7.92465 -0.895211 -2.11489 -6.6306
947 1 -9.78497 16.2828 19.9207 1.76868 -3.22232 0.034892
948 1 -20.9469 7.44378 -9.72278 -1.20219 -1.83343 -5.60835
949 1 -2.88195 14.7104 21.0544 3.62076 4.43267 -1.38411
950 1 -20.1304 7.35225 12.1421 -0.339393 2.42625 1.60147
954 1 17.9516 6.56079 -10.3364 -5.50242 0.475806 0.586672
955 1 -11.5387 19.0029 -17.848 2.26929 3.28331 0.104811
958 1 1.69381 13.2303 17.0617 1.63546 -0.641646 0.958004
961 1 -6.76183 11.8275 0.573301 3.00929 2.09608 -6.95597
962 1 -4.37489 7.27123 -6.92998 3.73368 -2.36786 -4.54869
965 1 -12.2943 15.16 6.49714 5.75894 -1.30943 1.92336
7 1 6.3894 22.6685 7.50843 0.0176842 0.723982 -1.65722
978 1 4.65161 12.8493 -23.9782 0.924881 2.03528 0.720168
3361 1 -4.32252 22.5625 8.69718 5.00735 0.0844683 -6.85211
980 1 4.90675 19.8261 11.7834 1.83112 -3.33433 2.34259
983 1 -21.9037 8.49371 15.8902 4.26913 -1.90517 0.353129
984 1 -15.978 16.9765 -5.49087 -2.75367 0.907157 3.9792
985 1 -16.484 18.56 10.1573 0.403823 -2.46881 -1.29046
986 1 0.274651 5.08791 11.5316 -1.50062 -6.61104 0.969644
989 1 6.53576 0.563873 -6.38339 -5.78468 2.89088 2.65336
992 1 -23.1422 9.34088 1.1822 -0.342626 4.14302 -6.27409
578 1 23.5743 22.674 -22.6792 -2.15291 1.49262 -3.9444
995 1 7.76618 3.9489 -1.68754 1.28514 2.18673 5.175
996 1 20.6754 11.6755 -17.1558 0.659388 -1.47847 -3.41167
1786 1 -3.9931 0.42909 -7.05584 -0.0229106 6.2087 -1.95213
998 1 -1.98728 10.6134 11.4303 2.35958 1.38931 0.759108
999 1 -22.8644 10.3286 7.04617 5.32917 -3.35671 2.45702
1000 1 15.7774 15.6925 -10.4803 -1.25452 3.51107 -1.94522
656 1 0.811362 22.7681 -9.31855 1.47722 -0.073538 2.93177
1005 1 -14.3829 16.7948 0.113749 -5.43291 5.26634 -0.886449
1006 1 -21.2788 12.7365 16.0213 -0.0383982 3.04139 -2.28751
1007 1 13.3184 0.844461 19.3258 -0.74338 1.97284 -2.11401
1010 1 -12.6434 2.54889 -11.1274 -4.16 3.5785 3.17884
1011 1 -21.1352 2.27904 -0.503812 0.00580629 3.4559 -2.47332
1012 1 0.676972 1.75822 1.72723 2.08501 -0.257633 0.977998
1015 1 1.15227 3.84918 23.8795 2.2799 0.463403 1.71224
1016 1 -20.8562 5.7511 7.37049 -1.16797 3.76123 -0.44009
1017 1 -8.89249 2.67426 15.7961 1.22768 2.41031 0.135892
1019 1 7.27774 17.7623 5.57754 1.45111 -1.72168 1.95262
586 1 16.723 21.9125 -21.2054 7.04768 -2.71818 0.153127
1024 1 -1.65064 6.51101 23.1432 -4.58765 1.43454 1.89678
1025 1 6.74284 4.34861 -19.6767 -2.51773 2.37968 -0.69571
1026 1 4.28211 14.3168 -7.79627 1.45304 3.29981 -2.78911
1029 1 11.7413 11.1798 -0.865371 2.13803 4.0474 -2.92669
1032 1 11.3068 6.91063 18.2333 4.11915 2.65154 0.474413
1034 1 -11.9745 12.9976 -9.6524 3.26808 3.91099 -4.45177
1035 1 13.2563 20.1066 -3.68316 0.928076 -3.4551 -1.71055
1038 1 -1.92001 7.56443 11.5873 -3.35322 -1.05597 -1.07093
1039 1 20.5291 18.8391 -11.3158 -0.580364 1.99085 -2.10058
1041 1 -2.138 7.03994 -14.0717 -3.50084 -0.862555 2.02128
1043 1 15.2456 8.87781 -4.9533 -0.170497 -6.89046 -1.75574
1044 1 -4.03125 21.2249 -9.23161 1.33032 -5.57725 -3.62351
1046 1 16.3428 14.6655 -16.8727 0.932989 -0.943612 -0.762691
1047 1 -17.7162 2.5984 19.721 -0.286774 -1.64883 -1.02814
3868 1 5.07121 7.98194 -2.06358 -4.30195 -2.35466 2.92817
1661 1 -24.3304 0.246323 16.6496 -2.90569 -3.53498 -0.668083
1050 1 16.6496 21.3681 15.7951 2.21539 2.66972 -1.98572
1053 1 4.43489 7.43784 -20.7868 -1.87458 -0.803878 -4.04834
1054 1 -18.5729 22.0104 -0.615775 -1.75934 4.35164 -0.590221
1055 1 -7.69054 18.7591 16.1686 -4.12079 3.42948 -0.237461
1056 1 -10.1604 18.1276 4.36464 2.33412 -3.28243 1.88829
1061 1 7.35024 9.35312 -13.9342 2.15132 -3.86021 -6.73137
1063 1 1.3446 19.3661 13.1998 -5.01343 1.5462 -4.4214
1065 1 12.2543 21.0561 -17.4163 -10.8483 -1.32253 1.83341
1067 1 -21.2801 7.47692 9.63626 -0.0507036 3.0939 -0.821723
1068 1 -4.30073 19.1594 -0.0651122 -0.0836485 0.794835 -1.16798
1069 1 -24.3405 16.9795 -19.9359 3.40472 0.0514926 -2.43793
1070 1 -6.24079 6.77757 10.9596 0.273087 0.18279 0.903012
1072 1 13.4813 8.79007 -18.8471 -0.432815 2.80564 -1.97041
1074 1 -11.0541 11.2171 -14.9964 4.48373 2.1267 1.54052
1075 1 1.30445 10.7455 15.1552 4.14906 0.110712 -5.37716
1076 1 20.8383 4.5164 22.7804 2.40469 5.65583 3.05032
3787 1 8.9113 19.8527 -16.2886 0.0258996 3.37002 0.463898
1083 1 -0.572387 19.9074 -19.158 -3.80572 -2.30041 1.11248
1086 1 -10.5803 9.05345 -4.88804 -1.33511 0.985243 2.42948
3314 1 -0.55157 -0.425821 8.10569 0.985773 -3.90044 1.53496
1089 1 -16.5201 8.45074 15.7062 3.50301 1.13406 1.84542
1091 1 -14.9416 9.53582 4.81209 -0.335016 -1.3775 2.91145
1093 1 22.7652 7.03498 4.3129 3.36221 -1.66837 5.52214
1094 1 -23.271 19.5228 -22.7851 -1.29879 1.57212 -6.59756
1095 1 -5.5112 21.9438 -11.5424 1.44273 2.03306 -0.260736
1096 1 8.429 21.291 -12.097 -2.32902 -1.59012 2.97973
2038 1 18.525 0.335946 11.0625 -0.189977 -1.17658 2.39896
1099 1 15.6014 10.9504 15.1005 -1.00927 3.19833 2.415
1103 1 22.8643 9.32912 16.7012 1.4025 0.984907 -1.94251
1105 1 19.541 1.81003 -0.675281 -1.41148 0.932382 0.720973
1108 1 16.9094 14.3002 21.0287 1.76206 -1.86145 0.302457
1113 1 -18.6669 20.2676 23.1673 2.52722 2.75907 5.02957
1543 1 2.8449 0.687932 11.5565 3.22113 3.02987 -0.0314982
1116 1 -16.0383 0.716991 6.72938 -1.83691 0.732326 0.556345
1117 1 -5.94781 15.042 7.66277 -0.5015 1.85985 -0.0623585
3786 1 19.6474 7.66848 16.3805 -4.13235 0.603648 -2.72169
1124 1 -1.5369 14.2556 -15.1247 2.22523 1.69817 -3.20482
1125 1 -22.1392 9.48559 4.06593 0.778243 2.05178 1.09923
1127 1 17.2933 19.487 -8.6422 2.44307 -3.75046 -1.41202
1128 1 0.895497 11.5774 -0.702219 -1.2151 -1.28165 -1.56067
1130 1 -2.20787 13.6524 -12.4585 -1.66366 0.915431 -4.25228
1133 1 9.98339 13.5377 16.973 -0.484926 0.388147 0.517921
1137 1 5.59812 4.63238 0.360526 1.43831 0.357229 -0.646489
1139 1 -6.20502 10.4531 4.31974 6.4141 -0.507772 0.510221
1141 1 -17.9809 8.7882 10.9391 -0.523357 4.23702 -1.03473
1142 1 8.83624 12.8654 5.15246 -4.27264 2.64552 3.45821
1144 1 16.3054 3.21414 -13.3406 0.892094 -2.02231 -0.959191
1145 1 3.51927 19.8767 20.647 0.183654 -2.59794 2.17873
1146 1 10.7019 16.9869 18.6504 -1.38966 -0.00932093 -2.88466
1147 1 -9.54747 9.65343 1.40279 0.89366 2.39903 -0.375551
1148 1 -12.5067 8.81891 12.3982 4.21463 2.16741 -1.96255
1150 1 -10.5793 16.1686 8.58033 -4.20702 -3.02508 -7.0789
1152 1 -14.263 15.6656 19.1608 -4.03791 1.75909 -2.39923
1154 1 3.17056 10.2919 -21.2632 -1.21298 -0.856073 0.298817
1157 1 5.48636 2.41322 -10.7353 -3.29267 1.66926 -1.93994
1158 1 -18.1223 0.984386 17.3513 2.94017 3.62174 -0.136599
1160 1 -7.37052 3.83227 -10.6108 2.12663 -3.53044 0.216319
1162 1 8.35434 11.4833 2.56323 0.186447 -0.518426 -2.81526
2355 1 -9.78235 0.0162474 3.13902 -0.874158 6.59102 -3.70955
2952 1 -12.0112 22.663 -21.7331 1.0467 -0.829631 -1.69232
1167 1 -0.512089 13.4043 19.9129 -1.539 -1.13997 0.545887
1170 1 2.81814 12.9916 11.6506 1.73568 -2.75927 1.10083
1175 1 -10.0644 14.392 22.02 0.353034 -3.61887 2.67153
1177 1 10.9189 0.411712 -20.4791 -4.89499 -1.82375 -4.11591
1178 1 -4.07328 7.69519 7.11972 -2.56471 -4.03681 -4.05534
1181 1 9.99517 19.4549 -8.86499 -0.607819 -4.84211 -0.412871
1182 1 18.8045 7.58103 0.626946 4.14794 0.856091 -1.02482
1184 1 6.63677 20.3502 22.2996 -1.76105 -0.202604 -3.47002
1185 1 17.5621 8.57841 22.6614 2.67441 -2.71622 -1.90036
1187 1 -13.6622 20.0068 -8.17459 -5.68348 -2.05744 -1.53341
1188 1 0.87644 4.62494 0.218027 -2.75854 -0.864739 -0.471578
1189 1 14.0065 12.842 4.39646 3.93541 4.28501 1.41123
3819 1 3.58611 21.825 15.6075 -2.20527 -1.95694 -0.763586
1194 1 8.41945 16.2175 -6.5043 0.447536 -0.461941 -6.07938
1196 1 4.83914 17.5986 -12.6766 -4.38351 3.72305 0.829233
1197 1 -18.7483 19.2429 20.6465 -3.39261 -6.60088 -0.830663
1199 1 -11.5751 4.52605 -12.6993 1.01453 -0.833221 -4.95187
1204 1 -0.574079 20.7201 2.27558 -0.0686625 2.74914 0.747347
1210 1 -2.14052 18.1783 -3.54592 -2.24463 -3.03273 -2.16768
1212 1 20.4132 6.5488 -11.8801 3.28712 2.54537 0.951995
1214 1 8.5245 1.09051 -4.44886 -1.31377 2.81042 -6.7731
1215 1 5.97573 10.8643 -9.78441 -3.58366 1.5348 -0.976616
1219 1 14.0755 11.5804 10.0505 -3.67599 -4.01178 -2.33124
1708 1 -4.52725 22.711 13.8553 -2.8106 -3.2666 -1.92421
1221 1 3.30772 21.9272 -22.0609 -5.60212 1.73371 -0.746064
1222 1 20.6475 20.2544 11.6422 5.75114 -0.449171 0.0552482
1223 1 -22.2426 11.2075 11.9239 0.917098 0.0367309 -2.70608
1226 1 -22.6329 12.3579 0.977023 2.16727 -1.50952 -4.15797
1232 1 -20.5885 18.3876 -22.6759 -2.0837 -3.45535 -1.52728
1233 1 -3.59658 1.40495 -21.7649 -0.886106 -3.51754 -1.48607
1234 1 14.7904 14.2357 7.97488 1.15684 -2.5136 1.41697
1235 1 13.2073 18.186 2.0102 -3.50533 1.27978 -0.787731
1237 1 -17.3695 22.2374 14.4404 4.11081 1.0701 -0.573135
1241 1 13.809 12.8684 -19.1088 -2.13687 1.9454 -0.0140748
1243 1 8.31339 16.8416 -22.3473 0.690997 1.19001 -0.302765
1244 1 -17.7885 1.6367 9.18833 -2.69234 3.8522 -3.23033
1245 1 -18.6398 12.1781 -22.6252 -2.8589 -5.51243 -2.39709
1247 1 -3.37997 2.21795 -11.1148 1.85224 -0.942595 5.7611
1248 1 8.54645 4.69759 19.9143 -1.96826 -2.41711 0.130956
1249 1 7.49968 14.5077 -21.1852 1.56185 -1.76221 -3.70615
1250 1 8.94792 1.37134 21.9491 -0.722559 -0.86161 -5.10709
1251 1 21.8014 2.86596 20.3878 2.39074 5.31191 -3.20654
3784 1 11.5624 0.0847027 2.41273 2.04056 -2.72494 -0.554888
1258 1 -17.3526 8.88135 23.5016 0.879276 -4.5781 1.19347
1265 1 -7.15302 12.4386 -9.31301 3.2581 -1.48507 -2.34956
1270 1 -23.8663 15.0256 14.2092 -2.75528 -3.51729 3.9519
1271 1 0.369055 3.79222 15.4104 0.0612207 3.1497 1.36189
1272 1 -20.0884 10.4159 14.8385 1.98886 0.74158 0.45659
1273 1 20.9268 6.89492 21.394 1.02197 0.973868 1.74807
1274 1 22.1157 20.3333 -22.465 -1.79644 1.60184 3.11504
1275 1 3.50378 5.03142 8.23025 1.07097 -0.196072 2.48137
1279 1 -19.6608 16.0479 -11.2663 -2.76124 -1.86621 0.804333
3415 1 -16.256 0.148665 -16.3935 1.77939 2.32232 -3.71822
1286 1 -4.72317 4.9657 -16.0804 -2.42697 -6.50104 -0.858736
1290 1 1.83005 7.87717 5.66894 3.73536 1.6741 0.439441
1291 1 -19.1235 14.8654 1.0273 2.31783 1.98125 -0.323511
1292 1 -5.06028 18.9904 -3.26973 0.680312 3.12149 0.784028
1295 1 11.8017 6.59777 -1.54822 0.580229 5.06166 0.660831
1297 1 17.2589 14.7284 15.2263 -1.77937 2.72986 -2.56907
1301 1 10.4543 16.8018 -10.4437 3.06363 0.81111 0.75035
1362 1 21.9303 22.6865 6.68634 3.42327 -1.76082 0.782696
1305 1 -3.30062 4.06657 8.97976 2.69527 0.155592 3.09303
1311 1 -2.24562 18.0389 -12.9357 4.68021 6.93595 0.346897
1313 1 17.0967 19.707 22.4544 -3.18526 4.99317 3.615
1314 1 -16.8258 11.3545 -19.016 1.39003 -5.8718 -1.18415
1317 1 -10.4175 8.49131 -11.206 0.526414 1.73929 -2.21985
1318 1 -24.3153 20.1395 -1.0866 -9.74596 -0.929425 -0.610488
3910 1 -8.17623 16.0987 -9.38484 -0.252181 -3.61037 -5.77848
1325 1 -3.48573 15.2054 5.96685 -1.40816 -2.06842 -1.0741
1327 1 -9.3844 21.7873 -20.8848 2.35003 1.94563 2.25215
1328 1 11.7301 13.7455 6.16158 -1.91234 -4.06969 -3.53419
1330 1 -8.02879 16.0897 -6.50747 -0.697835 1.94949 -0.0801938
1331 1 -18.7429 2.73354 -2.23748 -0.603747 -1.47047 2.21219
1333 1 1.3954 10.6153 6.5802 -5.34184 3.77822 0.586464
1336 1 4.07812 20.2157 -4.31088 -3.14729 -3.57724 0.478131
1338 1 -1.73738 3.94351 -0.596776 3.40475 1.52179 -1.83275
1340 1 -19.6199 16.8085 8.77358 -0.729811 0.253904 1.56788
1341 1 3.54659 9.50284 13.5484 -0.475853 -3.9989 0.644543
1345 1 -23.1487 2.59278 -19.5862 1.24568 0.20431 0.229899
1348 1 5.24705 11.6398 -15.9877 -8.20258 -5.90511 3.65314
237 1 -17.7598 22.7679 2.06167 4.7019 1.02732 -1.9478
186 1 13.5269 23.0961 -10.4187 2.11185 5.49998 0.79835
1353 1 5.99843 21.7134 0.645898 -0.979006 2.84362 1.78464
3345 1 13.2327 21.5241 23.6833 -1.6942 4.87992 -0.97898
1463 1 6.39963 -0.612734 13.4424 -0.622922 -0.156602 1.45808
3783 1 20.3785 19.6229 3.16657 -4.17851 2.42947 2.62815
1368 1 -17.9372 17.5313 -3.02988 2.98518 0.156726 2.68451
1369 1 -22.9626 4.60238 -4.30412 2.19448 -0.253965 -2.92876
1371 1 -20.9102 9.67335 -1.59587 -1.81703 -2.83851 -1.10005
1372 1 -11.2113 12.4824 3.70371 -0.753483 -3.57939 0.825375
3163 1 21.1756 0.552905 15.2407 -2.21605 -1.41367 -0.619268
1376 1 7.09474 9.46518 -6.22118 2.4513 -0.539598 -1.22524
1377 1 -11.6329 21.083 24.0345 -0.897283 0.521201 0.110397
1380 1 15.4862 20.9728 -10.0909 -1.03302 0.878379 6.47428
1381 1 19.5756 18.1165 10.0036 -0.667375 -1.92883 1.31733
1384 1 4.31099 21.7094 -14.0125 -3.76005 -1.34998 1.72915
617 1 -14.0966 20.0784 -18.1352 -2.5514 2.44563 -1.17574
1386 1 -13.048 7.47079 1.11701 -1.60725 -2.17872 -1.52245
588 1 -19.407 21.8516 6.17063 4.21791 -3.69697 1.97988
1391 1 -10.6023 20.8214 21.4004 -2.41536 -1.91851 -2.17847
1392 1 23.1591 4.28224 2.93556 0.464678 0.533668 -6.97791
1394 1 3.14591 8.00806 0.107118 -0.430054 -1.15464 -1.91284
1395 1 1.92116 10.2895 -7.95792 -2.42094 1.01139 1.96944
3999 1 -7.32466 17.1975 11.3896 -0.997141 1.95102 -0.0198966
1398 1 3.01206 21.8896 -2.40173 -3.58079 1.52192 4.88697
1400 1 -12.4435 13.7221 -23.0621 1.13714 0.399103 -0.804614
1405 1 19.803 22.0542 -23.8686 3.44271 3.11854 -1.50607
1406 1 -7.9649 1.63528 -12.6441 1.02041 -1.25532 6.37264
1407 1 -21.522 7.2446 -4.70807 1.99184 -1.46247 -4.48763
1409 1 0.712143 4.48208 21.1354 0.834222 0.10918 -0.245749
1411 1 18.826 1.54327 23.0125 2.78109 -2.77985 2.43381
1412 1 -18.5998 12.647 -11.8182 0.864513 -1.77387 7.73314
1413 1 -12.4855 1.90317 -19.7153 -6.11819 -0.0274337 4.19021
3901 1 -16.4258 14.8556 -12.7578 1.00483 6.35705 -1.98487
1417 1 10.5069 5.38585 13.6519 1.22938 -1.66113 1.67616
2375 1 10.6793 23.0823 14.001 3.78615 0.756005 -3.50341
1420 1 -10.4545 19.2414 -22.316 -2.03084 -0.0989558 3.73043
1423 1 7.56841 21.1016 -20.0522 -3.13545 1.03753 2.37042
1424 1 21.728 10.9615 -10.4581 2.42385 6.0071 1.24505
1425 1 -2.50397 6.13571 -11.4567 8.65728 -2.16093 1.8321
1430 1 1.25375 15.2624 4.73561 -1.20878 -0.976567 -7.09112
1431 1 -8.58612 1.08347 -9.8118 4.92799 4.01058 -0.0989644
1432 1 -8.63539 10.2934 21.3231 -1.70638 4.87091 4.08551
1434 1 -22.3966 3.55065 22.1585 0.977571 -3.36437 -0.566139
1435 1 18.3758 20.2775 -6.1109 2.38426 -1.96362 0.436161
1437 1 4.24519 14.6257 -21.9132 -2.92331 -1.2003 -4.80636
508 1 -1.7227 23.0906 -10.2459 -0.148496 -3.96604 -2.64973
1439 1 -17.6408 9.91099 -12.8667 -7.99366 -0.601505 -1.55575
1440 1 -22.0873 14.2395 -2.97337 1.54342 0.619375 5.08294
1444 1 11.3324 19.5991 23.0545 -2.60074 -2.70228 -3.64246
1448 1 -15.9886 3.803 6.27339 -0.608391 -0.107668 -1.31926
1451 1 12.8537 20.6299 -8.51615 -2.04593 -1.297 -1.11028
1456 1 -14.7435 16.3776 9.13927 -2.13151 -1.76039 1.58983
1457 1 -19.4083 0.757316 -20.7206 0.426687 -2.54453 -0.915998
1458 1 -20.2455 13.1516 6.66142 3.06897 -0.896702 0.256315
1460 1 -13.6399 6.63346 -12.5501 -2.90886 0.41685 1.46454
1461 1 -14.0219 16.0339 22.0165 -3.2663 1.75563 -0.0471154
1285 1 -9.66724 22.2614 15.3742 -0.632472 1.0371 -3.38246
1465 1 -22.3991 22.9165 -14.5232 4.51075 3.58575 -3.07518
1469 1 19.1454 11.4587 7.40995 1.92763 0.0656423 6.20736
1472 1 21.373 5.5186 14.7866 -2.06163 -0.940422 1.11906
1474 1 -0.427777 21.3975 -21.4841 -6.34203 -0.498021 3.75798
1476 1 -21.0318 14.6247 -20.9939 1.74043 2.75603 6.10597
2435 1 -15.331 22.6225 9.76879 1.165 -1.06901 -1.89293
1478 1 0.185923 4.5257 3.15891 -4.16847 -0.424024 1.03128
1480 1 2.02898 13.5826 -4.80961 2.67346 1.28448 -2.15351
1481 1 -6.73879 15.4401 -3.21058 2.66478 -3.51 0.688475
1104 1 -22.6987 -0.120946 9.05196 -4.33118 -2.70572 0.368276
1484 1 -6.45669 10.3997 8.69403 -0.250889 2.09791 0.063493
1487 1 -1.55103 4.90726 -16.0346 -2.08306 3.46848 4.58374
1489 1 -23.5617 16.3604 -1.77022 -4.0208 -5.19196 -3.3148
1490 1 -22.8147 4.56513 -1.639 -2.81512 7.49982 2.07457
1491 1 9.92863 8.28015 -6.67093 -1.8374 -1.9648 -0.975888
1492 1 -10.7444 11.9666 10.2646 -1.29024 -4.31222 9.69394
1494 1 -7.81982 5.45563 -18.5686 -2.6048 0.431244 1.64584
1496 1 -2.48466 9.2359 -8.54195 1.42003 -0.688938 0.0714832
1498 1 -13.9735 5.5515 12.5015 0.550317 -1.86918 -0.701725
1499 1 17.0215 3.87757 21.0092 0.63371 -0.467732 -0.333666
1500 1 -17.8931 20.0532 12.6876 -1.6402 -0.405715 -0.719261
1501 1 6.81094 16.1495 -14.4193 -2.4143 1.67423 -0.887031
1506 1 14.6289 12.867 -2.89506 5.79269 0.930692 -1.61155
1507 1 -20.1719 21.9984 -8.58365 -3.06867 0.659383 3.42797
1509 1 12.4056 21.8386 -5.88045 -1.37325 -2.94809 0.587058
1513 1 -20.9098 1.38757 17.7151 -1.0736 -1.04777 -1.91219
3780 1 22.7223 19.8297 -19.3923 2.02369 -8.35902 7.40174
1518 1 -1.64979 10.9563 -23.4662 -1.6602 -1.03941 0.422819
1520 1 11.6504 4.6999 -13.2439 6.91236 1.40449 0.395864
1523 1 -5.98214 6.75382 13.5552 2.07359 0.792271 -3.3229
3875 1 23.476 2.3698 5.09288 1.46233 0.89799 0.452759
1527 1 2.82554 0.721165 -10.5492 -5.68805 -0.396677 -2.16227
1528 1 10.7018 15.1957 14.7025 -6.74628 -0.788309 -1.2896
1529 1 -7.80469 2.62132 12.8931 2.91166 3.06341 0.281693
1530 1 17.158 17.5921 4.66793 1.0637 -0.106131 2.16161
1533 1 12.0956 21.5838 12.0257 3.33965 3.63378 -1.75452
1536 1 -7.04131 0.501912 -24.0093 0.855052 -3.45798 -2.89931
1538 1 6.3784 17.3734 17.0804 1.75543 -3.73295 -1.10874
1539 1 2.2012 6.92853 -16.5895 0.250848 2.49166 -1.33282
1540 1 -20.2583 5.60783 -22.9763 -0.0289712 -0.393396 1.61356
1544 1 -2.4732 21.2577 -17.5266 -0.99022 -2.496 -5.19162
3948 1 9.30936 16.2158 -18.0826 -0.0482167 2.14975 0.388331
1552 1 17.8802 10.0817 -20.031 -2.62697 -0.910369 3.3441
1553 1 -8.71198 20.5643 -14.0847 1.39523 0.213664 1.71255
1559 1 21.2961 16.9075 3.86684 -3.32906 -0.64452 1.08421
1561 1 20.4076 17.8357 -6.8739 0.729284 -3.22386 4.41137
1564 1 8.52745 15.0053 -9.0678 4.91959 -3.78871 -3.02665
1565 1 -5.49612 14.8546 -10.9147 -3.93335 5.35664 -0.557362
1568 1 17.109 21.1417 -12.1735 1.95705 1.95819 -4.16786
1569 1 7.03375 14.942 4.33236 1.14198 -2.01963 -2.06803
1570 1 -21.5901 2.05273 -12.9025 1.4686 4.92783 -0.411006
1575 1 -17.59 15.6817 3.38976 5.04721 -3.0071 4.25518
1576 1 11.4452 20.2998 -19.9753 0.528196 2.09589 -4.23141
1578 1 16.9521 1.01121 -14.9669 -2.88854 2.99763 0.311287
1579 1 -4.75176 13.3611 -5.37455 3.80261 -1.57952 -3.00739
1582 1 -12.6705 4.71864 -3.61373 1.12991 -0.428136 -0.152362
1588 1 2.54418 17.2037 -21.8516 -4.53626 1.83958 -0.0883413
1590 1 21.3764 9.03403 -17.7662 0.803183 1.35741 -2.63764
1591 1 14.056 13.0685 0.0604765 1.73358 4.99519 -2.14456
1592 1 17.1363 7.18292 14.909 1.58112 -1.1345 -1.69437
3899 1 5.19248 8.80908 18.1671 3.31091 1.70369 3.49467
1594 1 10.665 4.07364 -2.55384 1.68751 -2.60989 0.326978
1595 1 6.90808 16.5846 -4.17919 1.25533 -3.34048 1.53566
1598 1 3.37733 13.0243 1.93888 -3.86375 -4.4074 1.34736
1601 1 6.82834 15.0414 -16.9264 -0.243175 4.94132 -0.637525
1606 1 -20.8667 18.4682 5.18347 2.28431 -3.73191 -4.49396
1608 1 23.6888 4.70596 9.75447 0.931127 0.344426 -0.984029
1609 1 -22.805 19.7398 -19.8971 -0.532946 -3.69841 1.20162
1610 1 -11.5173 19.6348 -15.0762 0.115906 1.26973 -1.05335
1611 1 4.76183 11.8607 -2.12247 1.72352 4.013 0.105899
1618 1 10.4903 17.6636 13.2113 2.44049 -0.175244 -0.483654
1619 1 14.1982 13.8237 17.1844 3.52786 -0.467961 -2.8585
1621 1 -20.1424 4.58204 11.929 -1.55883 4.47416 -2.10012
1622 1 -14.583 22.52 14.2044 2.56032 2.21167 -2.02081
1624 1 5.3581 20.3969 -21.4186 -0.0147652 2.45978 2.27884
1625 1 12.7155 13.7793 -10.5413 3.16231 -0.674735 -1.92213
1626 1 15.6856 0.713641 17.8112 2.27697 -3.22256 0.355668
1628 1 18.9643 4.66905 0.151023 2.87435 -4.46303 2.3431
1632 1 -5.86776 7.53099 -21.9846 1.24566 -3.19282 -5.56258
1633 1 18.4816 19.7302 -22.4922 -1.87013 -0.994511 -3.74158
1637 1 -1.92827 20.8868 -0.376944 1.38469 -2.09337 -0.937921
1639 1 14.2099 11.2596 20.2818 4.55505 0.0731567 0.288173
1387 1 -20.0409 -0.378574 0.131777 -0.443373 -2.22479 -1.31873
3932 1 22.268 7.30664 12.5818 4.69164 3.45035 -0.666234
1647 1 16.484 11.9067 -18.2058 -2.96759 -2.76863 2.54637
1652 1 13.6568 5.79042 -19.4781 0.831188 -0.538626 -0.101788
1655 1 -0.462045 13.1622 14.1396 1.40537 3.20419 2.91266
1656 1 -4.52844 13.5109 19.1297 4.31091 -4.99067 0.246336
1657 1 17.8649 8.17849 -13.0216 -0.248859 -1.14593 3.72078
1658 1 -18.8291 19.1064 7.18162 -4.55473 -1.59568 0.285669
215 1 8.83412 23.2108 16.2123 -1.30142 2.14314 -0.942829
1665 1 -4.42292 5.19443 17.8233 0.317715 2.48845 4.09333
1668 1 -9.84034 18.3726 7.18316 7.8264 -0.875592 0.77175
1670 1 3.42858 14.6529 -2.35984 0.192463 -2.81195 -1.28503
1671 1 -13.842 8.77806 21.8384 1.19947 2.01965 -1.39557
1672 1 3.44326 10.4836 22.8373 2.87343 -1.21467 5.86136
1675 1 0.879692 8.26699 16.3946 -0.491936 1.77425 -2.70715
1676 1 -19.9101 2.00026 -4.59498 -2.87217 3.7931 -1.19537
1678 1 2.32539 20.7212 -18.6458 -0.0843497 4.54704 -0.385016
3813 1 18.6322 5.72372 -3.19966 -5.31709 -1.42455 0.0877344
1682 1 6.18128 9.81022 1.80025 1.97177 4.61302 -1.14136
1684 1 4.91696 16.2357 14.7912 -0.510926 3.57919 5.42724
1685 1 -21.3233 17.0456 23.0715 2.99914 0.000225571 4.81757
1692 1 0.218388 20.0087 -5.72187 -4.50367 -4.36404 -0.631682
1693 1 20.4037 9.33175 23.0807 2.55 4.4924 -2.64731
1694 1 -15.1619 2.51444 -12.9702 2.42169 -3.47898 2.40663
1698 1 -9.1047 13.3763 -0.601763 1.45347 1.98759 -1.36675
1699 1 13.7963 2.53706 14.404 3.20197 0.237362 3.07938
1703 1 1.84201 4.43875 -12.376 3.17429 -3.41161 -1.91168
1706 1 7.02024 10.0558 -19.7492 -2.67892 -5.87765 -2.51177
521 1 -9.29292 22.6224 -7.64405 -0.153291 6.21823 1.09946
1709 1 18.8737 18.3861 -3.05987 1.20587 5.69101 0.997012
1711 1 -5.6575 5.9591 0.095871 -3.15337 -3.34776 -2.38812
1712 1 11.8968 13.7409 -20.7763 -0.706666 -0.120371 -0.349409
1713 1 23.5578 16.6626 11.9416 -1.82229 1.06903 -0.010578
1719 1 21.0062 5.88879 -1.5975 2.32679 -4.37464 2.33882
1721 1 5.53761 3.04564 11.1879 -1.5472 -0.850888 -4.60191
1723 1 -24.4114 16.4513 2.86625 6.74632 2.47615 -0.252618
1725 1 -14.3902 5.46634 -16.7287 3.01611 -0.534335 0.283608
1726 1 18.908 21.6635 21.7604 -2.64911 -0.841501 -7.27468
1729 1 -13.8266 9.07366 14.9923 -2.23214 3.4944 -0.309712
1731 1 22.7181 4.06077 -5.49824 3.56943 -0.95567 0.826438
1735 1 0.506408 19.2655 -16.5422 0.792381 0.794423 -4.14032
1736 1 16.1513 3.38015 11.4151 1.03443 -1.1069 0.855308
1737 1 -18.0604 0.590643 -6.08954 1.51371 -2.32726 2.05504
1738 1 4.86309 8.99572 -23.2453 -4.26375 -3.52344 -1.60958
1740 1 2.49074 17.9446 18.1595 2.12287 -1.43466 0.324407
1741 1 12.3147 13.8589 22.9181 0.015027 -0.815986 -6.24711
2600 1 4.25186 23.2316 2.44867 -0.97584 1.83071 0.573555
1745 1 9.06826 13.131 -6.74656 2.7586 3.58258 -1.1218
1748 1 17.6213 0.452933 -4.40628 3.06895 -1.61195 2.44316
1749 1 21.9717 11.5769 15.1338 -1.67181 5.77991 -1.48725
940 1 22.0653 0.842912 -9.19211 -0.90829 -2.16904 4.00308
1752 1 21.0128 17.0721 -19.7071 1.93145 2.00629 -0.895049
1754 1 -20.7866 9.73377 23.8711 3.88282 1.17919 4.75719
3992 1 -24.0254 8.28508 -3.77783 -5.00373 -2.02243 -0.355627
1756 1 -14.9422 2.4351 8.87338 -3.0034 1.97992 -4.9773
1759 1 22.3349 11.43 10.8799 3.73507 4.19047 -3.76783
1762 1 4.90774 21.0186 4.8435 0.139111 -1.46863 4.13111
1763 1 -3.21363 3.37241 11.8069 4.15273 -1.33768 -1.66863
1764 1 -15.4324 18.6834 -12.5238 -4.00181 -4.63864 5.09423
1766 1 -17.6081 1.09379 14.6569 -3.94863 2.2153 -4.2919
1769 1 -20.9533 17.8438 14.8059 1.63271 -3.76358 1.54584
487 1 2.90683 21.8868 18.5218 1.43247 -6.81481 -0.448614
1773 1 17.6518 13.981 7.51788 2.73364 2.05863 -4.17537
1775 1 9.99928 12.6854 -10.3804 -4.2879 -2.60232 -0.662722
1776 1 10.8185 13.0435 -2.83919 -0.786112 0.981783 -2.02567
1779 1 5.61504 4.93759 -8.2433 -1.35641 1.33598 -6.03301
1780 1 4.9912 6.63538 -5.78256 -8.29375 -2.53793 0.592022
1781 1 6.29334 18.6865 -23.3931 1.55712 -2.21057 0.77464
1783 1 17.7192 7.51208 -5.33003 -0.989568 0.214705 -3.12092
1784 1 -9.76031 14.9698 14.0775 2.78071 -1.82838 3.08846
1785 1 -8.94505 5.5273 -8.93463 -1.55485 -2.56616 2.71929
3518 1 -1.45182 -0.198681 1.66062 4.49036 -0.0551292 -5.05674
1787 1 5.78881 20.3551 -11.8874 -3.67658 1.7576 -1.86864
1790 1 8.92351 3.73122 -12.735 -1.91805 -0.540307 -6.14077
1792 1 -15.1344 6.65172 6.98335 -1.48566 1.67111 0.274023
1793 1 18.3785 6.07001 24.0882 0.884174 -1.35723 -1.06967
1794 1 18.5494 3.56389 -20.5041 -1.9999 -8.09109 -1.67694
1797 1 0.933939 16.4164 16.1042 2.69418 -3.75979 2.05449
1799 1 -12.4034 9.31611 -13.1257 -1.67106 -1.08348 5.01247
1800 1 0.954325 2.00644 9.29673 3.06111 -0.0935161 0.11249
1803 1 -15.1665 17.3447 -8.24587 2.41816 -2.38075 1.80053
1805 1 11.287 4.55783 -6.94445 0.646882 -0.74928 -1.93506
1809 1 11.1916 19.0043 0.310757 -0.921589 -1.32343 -1.07156
1811 1 -2.47872 3.28495 19.2624 -3.71283 2.76263 1.23099
1813 1 -16.6138 9.29037 18.5717 1.98384 0.669317 -1.48936
1814 1 13.0183 3.41611 -11.0602 -2.16051 1.12008 -1.54146
1816 1 1.94547 18.1059 -10.1983 4.85418 2.62638 3.06556
1817 1 -0.315336 16.5494 -16.0688 6.43119 -0.182587 -2.42005
1820 1 16.9432 11.0816 -11.1366 3.88007 3.61495 -3.85591
3842 1 -22.1784 1.35068 20.2888 3.33245 3.49315 2.34412
1826 1 19.0376 9.11693 3.08192 1.12911 1.52921 -2.96537
1829 1 4.5883 17.7973 6.52489 1.95188 3.30032 -0.238924
1830 1 -18.2096 2.34963 -16.6222 1.04508 1.51539 -1.02402
1833 1 -11.7755 3.95028 18.5408 -2.13178 2.35428 -3.76787
3818 1 12.435 16.8804 23.2373 -6.37137 -2.9646 7.67191
569 1 -6.45792 22.7397 -15.873 7.10105 1.76316 -2.78271
3867 1 22.3113 -0.535313 1.78719 -3.25799 2.51428 -2.24981
1845 1 20.6035 18.2058 -23.7039 2.08845 -3.41199 -2.01364
1848 1 6.79967 7.0427 -16.0307 -5.94215 -5.79491 -1.7622
1851 1 -9.0212 1.28887 0.774442 -3.35475 -0.468614 -0.565031
1852 1 0.93151 0.470813 -20.0552 -5.99169 -3.28138 3.13957
1855 1 0.0678214 22.0288 -15.8155 5.66448 0.122485 -2.99592
2750 1 -14.2969 22.0005 -20.3896 1.31317 0.0447766 -0.628228
1864 1 -6.85497 11.3807 19.5083 0.277054 3.9128 0.254455
1866 1 8.36978 22.4392 12.3041 -2.28206 -1.6588 4.93092
1868 1 -6.51021 3.15958 17.3387 1.136 5.30166 1.88125
3291 1 19.896 21.635 -11.6122 -0.366333 1.43372 3.80642
1870 1 -17.6211 11.0213 16.3526 -4.73738 -0.757482 -2.0928
1873 1 -9.431 13.6467 8.63132 -3.06117 -2.03443 7.23269
1876 1 -21.8319 9.51218 -21.7243 -2.7945 1.62711 -5.51726
3779 1 -9.36798 1.40526 7.422 0.436858 -2.32327 4.22695
3888 1 -5.08778 4.52604 -18.8605 1.22926 -7.00628 -2.13794
1881 1 10.766 3.98963 17.7561 -3.35616 0.665486 0.255736
1882 1 -8.97593 7.73156 17.8676 -1.96099 2.59255 -4.56573
1884 1 17.5764 16.1049 9.53667 0.432873 0.953344 -2.28489
1885 1 -7.81772 17.6043 23.3597 0.723115 -4.66338 4.52542
1771 1 0.278121 22.9086 10.1267 -0.30538 -1.29524 -3.23105
1889 1 -11.1268 1.91824 11.0759 -5.12481 -0.140653 -1.47928
1890 1 -23.8281 7.13166 22.3614 0.51058 2.12464 0.180474
1893 1 5.49507 -0.122816 18.7112 0.145314 -1.63614 -3.58651
1896 1 16.7592 20.2172 -1.99276 0.31931 -2.28349 4.65832
1898 1 -20.6508 19.7026 12.8393 2.56129 -0.251451 -0.741199
1899 1 -5.60449 17.8011 -6.0872 2.81464 -4.11362 -1.56375
1900 1 -12.3538 0.715456 4.12404 -0.621296 3.41236 1.82247
3793 1 -14.2725 20.5491 2.72127 -0.0568642 0.754769 -0.341903
1905 1 -12.0781 7.99131 -8.05175 -4.13497 -1.85836 -0.272993
1912 1 -15.3546 5.04604 -0.415456 -5.04154 -2.53316 -2.53455
1913 1 -0.442048 18.375 0.173962 -2.14026 1.17986 6.57787
1914 1 20.9773 5.99937 6.01908 3.23754 0.424757 1.00463
1916 1 -4.79739 16.1894 3.75535 1.33411 0.540519 -0.0262725
3873 1 -3.4376 5.78581 13.2268 -1.79078 -0.55792 -4.84985
1919 1 -21.1885 10.2563 -15.9969 0.408364 -1.66885 -1.16137
1921 1 18.3122 13.0971 -6.60924 1.65523 1.39083 6.26102
1922 1 9.38733 14.7877 19.7404 3.27565 -2.04339 2.8373
1923 1 12.9429 0.488474 -12.0945 -2.10024 0.848123 -2.04308
1929 1 6.6728 18.0427 2.68496 -1.8085 -2.43739 -2.28964
1931 1 -9.79575 5.67987 -1.29131 0.690209 -3.10616 -0.951942
1932 1 1.12646 18.5982 8.74696 3.91268 -2.84158 -0.867276
1933 1 -4.12525 20.1563 -19.7257 1.21344 -1.83629 1.49592
1937 1 1.71523 3.00423 18.7315 -4.12144 -2.54949 0.540838
1938 1 1.81076 5.63265 16.986 -0.339866 -0.654328 4.14027
1939 1 10.9999 11.8273 1.62041 -0.0240632 3.19133 -3.35966
1942 1 -2.79163 4.78814 -3.25813 0.599043 -2.24398 0.954179
1943 1 5.33856 18.1976 -5.96723 2.49941 -2.93754 -3.31326
1946 1 10.5601 10.7759 -8.21124 1.28126 -2.56897 -2.52346
1947 1 -18.4207 13.746 -14.5455 2.16274 -0.448044 -3.0226
1948 1 11.3911 3.06713 -15.8215 -2.25225 3.41279 -0.340294
1950 1 22.8964 20.3796 -6.70207 1.14199 -0.300247 0.771592
1954 1 5.99667 6.84384 10.0642 1.17939 -1.92426 -1.00469
1956 1 -7.55682 0.592733 4.72317 0.188259 4.34392 1.0965
1957 1 15.0489 17.2857 8.49487 -1.62194 2.22017 -4.29122
1958 1 13.4949 6.81266 16.2058 0.283747 1.10992 2.16723
1963 1 -2.87436 17.3166 1.60052 4.08071 -5.53146 0.0427046
1968 1 -19.8202 13.9536 11.8348 2.41482 -0.519914 -3.61573
1979 1 -0.775005 20.3235 9.70657 6.30925 4.9131 0.0383959
1980 1 -22.2658 4.9178 -20.9847 2.08142 -0.473757 -3.97991
1984 1 5.01445 17.4663 19.5529 -4.72183 -2.16167 1.18548
1987 1 -21.7148 3.87971 9.73109 -3.84333 -4.76028 1.45425
1988 1 8.21777 19.4621 8.5934 0.350343 -2.49016 -2.59745
1992 1 13.1682 21.131 3.11707 1.55033 3.33398 1.24715
1993 1 5.54741 14.6132 -12.1247 0.887817 0.290431 -0.0845818
1995 1 2.75422 4.10397 13.7778 5.47654 1.28877 4.47179
1996 1 -9.93113 8.06134 23.2803 -3.64804 8.59466 2.48992
1997 1 23.0651 22.208 9.19116 1.59139 1.01327 0.0601497
1998 1 -12.957 9.62459 -1.05404 -3.13791 4.37213 3.47902
2000 1 4.23201 2.64524 -19.7807 -0.254984 1.95783 5.37392
2002 1 -22.8112 21.3599 -9.52334 -0.223509 -0.59412 1.91257
2007 1 -9.36586 13.8728 -10.8704 1.92365 0.139425 -7.4431
2009 1 -5.2926 0.0671737 -1.42848 -4.4534 -4.71312 4.17466
2010 1 -7.58954 2.67801 22.5251 4.15624 -0.389895 2.73088
2011 1 -1.56167 8.73386 17.7955 -0.949777 4.26046 -4.12224
3817 1 7.65198 8.53761 -0.756218 -1.55591 -1.75051 0.794747
2017 1 12.7445 9.15909 21.3572 1.32295 -3.55623 -4.65566
3862 1 -3.5368 0.824135 -18.8766 -2.11109 2.31913 -0.687136
2021 1 -4.67762 11.8275 10.6712 0.227123 1.60118 -3.42307
2138 1 16.4578 21.9079 -16.106 -0.668279 -1.70076 2.43001
2024 1 11.3218 9.9236 12.9041 -0.0432756 3.72731 0.680969
2026 1 9.26491 21.7064 9.83443 -2.21878 1.16472 0.636913
2027 1 5.73996 18.2698 -10.0048 -0.741389 0.823475 4.42649
2032 1 -7.84096 5.32925 9.04501 4.09035 0.413711 -0.0137025
2033 1 10.779 15.0577 -0.645657 3.54291 -2.13706 -3.88681
2036 1 -11.5676 9.17943 -23.2096 1.32369 1.39147 0.415559
2037 1 -15.3345 10.1512 10.1733 -4.0699 -0.254873 -0.553877
1643 1 -6.19511 21.9241 -7.26079 -1.82908 1.36868 -5.38771
2043 1 20.4833 13.3352 13.2257 0.789427 2.79692 1.71111
2046 1 -5.99202 15.8738 18.0215 -2.20827 4.32168 -5.1623
2048 1 2.92631 13.4241 -15.9342 -0.903682 4.33299 -0.216619
2049 1 16.4401 20.3905 -18.7391 -0.470533 2.34741 4.59532
2050 1 -11.3585 5.81893 -10.0089 -2.223 1.40396 2.0045
2051 1 -22.6116 9.75638 -6.08363 3.70304 1.53171 0.616439
2052 1 -8.3675 4.16298 -21.1004 -0.637899 -4.41582 0.420006
2053 1 -22.9254 12.3977 -19.8733 3.22306 3.2722 2.40888
2054 1 15.819 4.94743 -2.60683 -0.471824 6.18501 -2.59743
2055 1 4.90099 15.187 7.88064 0.223604 4.08234 -3.97444
2058 1 23.0493 10.032 -14.125 0.944844 2.46693 4.33072
2062 1 -18.3384 20.3365 -7.1141 -4.46506 -2.33706 0.273305
2066 1 19.0948 6.66548 8.23396 -3.29794 -0.0400448 2.60443
2067 1 22.9466 9.80379 21.5804 1.34366 -4.62207 4.30017
2068 1 -14.345 7.72922 -4.58739 3.83316 5.56176 -0.804614
2070 1 22.3224 0.612893 -1.52793 0.153917 0.536157 -5.65733
2072 1 -18.4658 6.75769 22.0623 5.63481 -1.2758 -0.993139
2073 1 -18.362 6.76546 -17.0414 2.99189 0.68534 6.75799
2074 1 3.86719 12.1456 -11.3837 0.458612 -0.156162 -1.15798
2078 1 -10.6526 1.71984 -21.9256 0.836268 3.4993 -3.36122
2081 1 22.8543 19.473 -16.4741 -2.99473 1.67319 -5.40144
2082 1 -6.74391 17.2891 1.71012 -1.49364 0.80711 -0.446922
2083 1 20.3754 9.36147 -8.51905 2.13403 1.08086 0.705136
2084 1 15.3822 18.7795 20.2299 1.07001 -4.3702 1.4164
2087 1 -9.92444 6.41369 -16.8847 -5.11627 -2.00068 5.89515
2088 1 8.5561 20.5176 20.1775 -1.46113 -1.11958 -1.69101
2089 1 9.4072 13.6828 -19.4383 -0.67444 -1.02015 -2.0668
2090 1 15.5518 8.54766 16.857 0.695065 -1.07604 -0.259062
2091 1 -9.69001 8.17555 12.8152 0.237535 2.04586 2.53462
2974 1 23.4063 0.429681 19.6575 -0.102563 1.60086 -0.776329
2093 1 -4.1243 13.1483 -2.4146 3.64583 -2.79527 -0.951791
2094 1 23.3369 13.5601 -4.43789 -1.8955 1.47299 1.01937
2097 1 -3.89708 6.66611 9.66705 -1.43324 4.86638 0.382529
2102 1 6.10239 7.9141 -8.36976 -4.78095 2.52394 -1.41532
2105 1 14.4073 10.8558 -12.4952 1.55592 -3.58136 -2.4984
2107 1 -8.79802 4.62259 -13.2166 -0.702549 2.6516 2.61036
2108 1 -10.1793 10.7419 -1.16426 -2.80632 -5.59126 -1.66942
2109 1 -4.21751 8.33769 20.8258 -2.19814 -3.62077 -1.36191
2110 1 1.28526 9.70172 1.74384 1.53016 -2.45365 -0.987025
2112 1 -11.2499 4.42775 12.5723 2.17162 4.71207 -2.27747
1869 1 -0.708518 22.8128 17.3956 -4.08007 -0.0630625 -3.16459
2119 1 -9.60477 17.7615 1.49451 -0.954475 -2.05424 0.0139575
2122 1 13.0149 7.26682 -9.94202 1.8642 3.16023 1.22662
2130 1 -21.6098 10.1364 -8.78637 0.370289 2.08251 0.494572
2134 1 12.0902 21.3448 7.13908 -1.7111 -2.12066 0.0803592
2135 1 18.731 12.0721 21.8303 2.22354 -0.0424459 -0.50694
2137 1 17.491 17.3443 -24.0018 -0.80881 -0.673264 -3.3081
3854 1 18.4308 11.9046 -3.92323 -1.67316 4.75534 1.11564
2139 1 -8.21221 3.12531 -16.7339 -1.55947 -1.09334 -1.09726
2143 1 18.517 4.29146 -16.2132 0.818583 0.316771 -0.258133
2145 1 20.9201 13.1596 20.5684 -1.58702 2.01103 -0.469171
2146 1 2.72634 9.74953 19.8406 0.825731 1.12029 0.671704
2147 1 3.77396 7.60055 15.878 -0.90469 -4.57996 -5.57477
2151 1 6.07869 4.6859 -12.7141 3.23219 6.12907 0.939056
2152 1 9.90008 21.4039 -4.43973 2.78613 1.19265 1.56888
2154 1 -9.43093 16.714 -22.4991 1.21375 0.628636 -2.03722
2155 1 13.4663 3.79323 19.1558 1.1541 0.64249 3.14838
2156 1 -20.4317 17.9284 -9.03574 -2.59936 -9.30763 -1.41838
2157 1 -2.06771 17.3973 20.9015 -0.385369 -3.36788 2.41355
2158 1 -17.2624 13.0178 13.1608 -0.678221 0.8944 4.18924
3804 1 12.6885 15.0795 11.6394 2.19219 1.37383 -2.97663
2161 1 0.286479 8.50906 -6.12818 1.63797 -1.59737 -2.20185
2162 1 22.2051 11.5964 -2.61571 0.582884 -3.90785 2.3593
2164 1 15.77 0.710603 -11.3961 3.08514 5.10733 3.21194
2165 1 18.2752 18.7059 -13.5393 -2.17366 -0.0447891 1.68876
2166 1 -16.3404 19.4334 -16.7075 -2.27465 -1.28727 -0.859153
2168 1 -20.5233 20.272 3.05821 0.241297 -1.53998 -2.38191
2171 1 -6.59316 3.20544 1.24271 -3.80418 -0.191196 -1.74538
2172 1 1.93764 18.162 -4.31264 -3.57741 4.10116 1.51211
1789 1 23.6554 0.170066 -5.73899 -0.157113 -3.28454 2.14013
2174 1 4.50545 9.34127 -4.81832 -3.40836 -3.34937 -4.83041
2177 1 18.3792 19.1215 15.472 -0.644776 -1.00292 -1.47422
3502 1 -6.39874 22.7567 -4.40746 -3.38988 5.91516 2.33701
2184 1 14.2214 17.1852 -19.3571 -4.08028 -0.632648 0.0357144
2185 1 7.29086 7.32165 19.4536 -2.02858 -1.71227 -1.7479
2188 1 -12.0515 2.11222 8.47894 2.83935 3.00138 4.19059
2189 1 3.50174 21.4337 -10.2443 1.56817 -0.606217 1.673
2190 1 -0.809694 3.77197 -11.4053 -4.07719 -0.211557 -0.435071
2191 1 12.2007 9.68647 3.61553 3.74595 1.60942 -0.850967
2192 1 1.59074 1.03764 -24.1073 -0.969325 6.35842 -0.884897
2194 1 -20.5354 2.96755 -23.8493 5.303 2.48916 0.623919
2196 1 -4.84736 6.32499 -9.76248 -5.0739 -0.0232858 -0.27537
3947 1 -18.5806 11.5619 22.8138 1.5047 0.843636 1.92828
2198 1 2.57882 11.065 -3.50082 2.54895 -0.152258 0.169989
2199 1 -17.0288 11.0966 0.252894 2.46121 -1.17488 -0.822887
3807 1 -6.6625 20.324 -17.9172 2.59314 -0.571325 -2.23722
3987 1 12.6727 16.3308 16.696 0.0413424 4.53563 -1.44538
2205 1 -22.6409 8.3471 -17.5936 3.79387 -1.55365 3.10563
2208 1 14.823 19.2228 -7.07056 -2.97567 -5.84026 2.24629
2211 1 -16.3845 4.35225 -20.4176 3.89335 -5.57985 5.78258
2213 1 20.628 10.3967 -4.64067 1.56511 -0.354582 -0.754551
2214 1 10.0814 8.99989 20.1059 5.83841 -0.71495 -3.05868
2215 1 8.96658 17.3297 0.088083 -2.41987 4.36755 0.601054
2220 1 2.25463 18.5831 -13.0575 0.15714 3.49288 3.48489
2221 1 19.7663 5.83661 18.5916 -0.0966777 -3.96874 0.010008
2222 1 0.966387 7.25108 2.94145 -2.03641 4.95276 0.89043
2223 1 -20.1684 14.5891 -23.7173 -8.30472 1.8181 -7.04253
2224 1 -15.3727 14.5125 -4.10435 -5.13089 -3.59797 5.64827
3984 1 -4.88299 12.9977 -18.9242 0.780509 -2.40758 3.09908
2227 1 8.39628 3.73826 -5.69391 4.26441 -1.92478 5.71995
2229 1 18.2642 4.35743 14.86 -0.497472 3.05174 -1.43085
2230 1 -1.04187 20.7056 -3.17593 5.95585 1.14701 2.10872
3798 1 2.22889 3.85361 -2.29047 0.51197 -3.27204 -2.13411
2233 1 -10.356 1.22774 -15.9597 -2.2304 -2.32798 -3.4567
2234 1 -4.22751 0.339203 -4.08262 -2.4092 2.25651 1.95902
2236 1 20.7821 4.88902 -17.687 2.8461 -5.05777 4.3134
2238 1 13.6237 14.3338 -16.6919 2.98944 -0.597495 -1.68869
2240 1 13.9875 18.5862 15.5022 2.43727 2.19534 -6.05235
3946 1 -4.83095 14.608 10.3318 -0.23911 3.30785 -2.01819
2244 1 23.3569 21.8798 -14.8598 -0.758099 -2.95418 -0.2872
2246 1 2.6361 17.3567 -15.5095 1.20389 -0.784789 3.08194
2249 1 -15.0263 12.1987 -16.5217 -3.99134 -2.3061 -3.28936
2250 1 -0.551112 1.84787 5.82788 -3.83919 2.1763 -3.05828
2254 1 3.61308 17.2742 12.1715 -1.22223 2.69463 2.3203
2256 1 14.2562 19.5042 -20.7609 6.50592 -3.31448 -1.2312
2257 1 -1.18783 2.74287 -8.73535 -1.70335 1.5844 2.47044
2258 1 -8.92092 15.1646 -20.1728 -1.87494 0.207024 -3.2074
2260 1 19.1105 17.4798 -17.4689 1.55099 6.9741 0.491949
2264 1 -3.36038 18.8944 4.18738 3.30969 1.31326 -0.541306
2265 1 -0.726942 1.98706 17.3507 -1.39727 -3.16553 0.260043
2266 1 -22.4886 8.70888 13.0224 -2.73366 1.4188 -1.07371
3309 1 4.32349 0.521321 8.85577 1.40185 -1.43554 0.0275157
2269 1 18.3956 10.1196 -22.9263 -0.303631 -1.67382 2.7281
2270 1 -5.64226 19.9598 2.44741 -0.0892702 -1.13777 9.28116
2272 1 -0.0394423 12.7446 11.2715 0.264525 -0.810407 1.84617
2274 1 -6.28515 -0.137144 19.9483 -0.0771045 0.821656 2.98064
3907 1 -21.791 1.33478 11.0186 4.13104 -0.800871 3.68447
2276 1 -0.825701 13.3104 4.97904 -2.31469 1.07211 2.87905
2277 1 -14.033 4.27584 21.3966 3.01442 1.78866 1.09061
2279 1 -13.1696 -0.269181 6.62545 3.17209 1.00038 -2.29946
2281 1 20.9608 14.6795 23.0116 2.74553 -1.88301 3.64391
3831 1 -4.53194 22.0796 -0.765822 -2.52176 -1.31336 3.42986
2285 1 -21.5592 16.2389 1.23142 7.59615 -2.4168 5.11083
2287 1 21.0105 17.7178 15.1763 -0.560783 -4.36129 2.10419
2289 1 -4.08772 11.7871 -21.4374 -4.04421 -5.96132 -0.654558
2291 1 0.758559 20.4172 20.7193 0.754297 0.113359 0.438001
2293 1 2.95369 7.1556 10.397 1.84365 2.32557 1.7887
2294 1 -18.1736 8.79305 -19.2921 -1.87351 4.98604 1.37931
2295 1 -12.8686 11.1418 23.6588 -1.07393 -4.91806 -3.83176
2297 1 10.0564 6.1283 -20.9115 -2.5076 -6.17762 3.59769
2300 1 6.24731 13.6278 2.03678 -1.09539 0.342998 -1.17756
2302 1 15.8735 10.4573 -15.8701 -3.02854 3.57571 -2.38575
2303 1 -13.3306 17.0294 -11.4356 -1.78384 -5.86015 -0.715843
2304 1 9.46206 16.8982 7.44757 0.132619 3.13954 1.66279
2305 1 -12.3497 19.3657 12.1289 0.0374558 -0.823032 -0.182967
2307 1 -15.1374 14.0113 23.7452 -0.0358349 -3.65321 1.31574
2308 1 4.85459 2.67296 -16.8969 -2.6355 -4.44395 -0.273484
2309 1 20.6835 18.3935 21.5072 -0.623271 3.80676 4.53323
2311 1 6.52116 2.14626 1.67698 -2.44113 -3.58619 -1.29146
2313 1 -7.27065 12.1073 -17.6744 -0.843347 -0.929361 -0.77032
2314 1 -16.4756 6.46951 9.39511 -2.10002 -7.29746 -4.86081
2315 1 -11.4657 14.4623 16.1796 -0.325303 3.39363 -2.20742
2320 1 22.0496 2.60381 -18.9349 1.07597 3.04274 -0.379009
3991 1 -15.7556 6.1464 -22.8423 5.63954 2.46681 1.44244
2322 1 -4.86188 20.781 19.9346 2.72117 -3.50088 2.10707
3791 1 -8.7464 16.6013 -12.3596 -0.167073 -4.09642 -4.94883
2329 1 7.30971 7.26648 12.3224 1.50757 3.36937 -2.19758
2334 1 -10.0219 19.4335 15.0393 -0.524966 -4.75734 0.124818
2335 1 -1.78793 19.8402 23.8151 0.550286 4.08828 -3.74765
2337 1 9.36546 7.73021 1.3736 3.76716 -2.53611 -0.348535
2339 1 6.949 9.98602 -3.19879 4.87536 -4.43091 4.79542
2340 1 8.794 9.94304 14.382 1.5271 0.0483352 -2.25144
2343 1 10.186 21.2031 2.14995 -4.29021 0.254876 -2.64598
2345 1 8.07134 13.7455 -13.3556 0.622357 2.55163 -3.80517
2347 1 -15.0431 10.0101 -14.3221 6.11487 1.07826 4.99692
3826 1 0.0160176 16.3809 -13.071 -3.35891 -0.350927 -2.73134
2350 1 10.7771 7.29549 -12.1687 1.77548 5.13209 4.12005
2351 1 17.9209 10.7996 -13.9087 -2.97873 -3.12464 -2.39112
2352 1 -3.11852 21.0323 -22.1667 -1.93805 -1.65357 1.14621
3822 1 10.1631 7.2059 8.91748 -2.60161 -0.735684 0.946153
2359 1 9.70369 10 8.09406 2.14044 -6.35229 -5.86632
2360 1 15.0349 15.62 3.54348 2.02665 2.49618 -1.4869
2361 1 -21.3556 8.71143 -13.4436 3.52057 1.25248 -4.73681
2362 1 -19.2162 11.0255 12.1546 -0.440792 -7.65562 1.91312
2366 1 11.6127 5.84265 1.29472 3.01215 -2.93541 -0.99521
2367 1 5.6468 18.6591 9.31922 2.62844 0.92476 -1.76764
2369 1 20.6716 3.02757 13.5591 4.06342 1.95614 2.82535
2372 1 23.1326 4.9163 0.130407 -2.27449 -4.084 -0.505387
2373 1 12.2085 12.1957 18.1732 2.69422 1.78353 1.19
2374 1 -5.64695 8.14756 -3.16444 -2.61385 -1.79566 1.96404
3852 1 -5.15615 20.3344 17.0701 0.72784 -0.178979 -1.87309
3970 1 -5.86611 19.5337 22.7109 2.27271 -2.23149 -5.205
2379 1 -21.4097 13.5667 9.32401 1.98649 -3.55103 0.907375
2382 1 -12.1189 16.244 -16.4843 -4.04281 -0.658046 0.457674
2385 1 -1.83697 7.93071 2.55235 0.833001 -2.46792 -2.88929
3941 1 -17.7207 2.67364 23.9552 -1.89134 2.14922 1.33867
2394 1 15.4659 13.5137 -5.96065 0.477819 -6.32901 -0.76221
2395 1 3.70511 15.064 20.0706 -4.32571 -0.671828 -3.26123
2401 1 -18.2369 21.8845 -3.42279 4.91409 -1.44208 -1.49251
2402 1 15.6721 14.9868 -19.9606 1.20683 0.548685 -2.92639
3883 1 22.0408 15.1798 -9.4323 -1.10148 -3.34495 -3.5094
2406 1 -23.8305 8.4328 -11.9979 -5.61157 -1.15762 2.60373
2409 1 7.60576 12.4889 13.2295 -1.10395 3.57628 3.23003
2411 1 9.3761 11.0714 -18.3821 -6.55115 -0.883881 -0.480745
2412 1 9.70845 19.5488 15.1293 3.58313 -5.65412 0.853901
2413 1 -5.27031 22.4017 3.53339 -2.25137 -2.64885 -1.57574
2416 1 7.87476 12.1757 8.99846 -0.634252 -2.01782 0.460989
2418 1 15.347 1.27431 -8.38211 -3.82638 -1.62952 3.00971
2419 1 22.5079 8.28309 -20.3473 -0.683972 0.783403 0.777473
2421 1 -23.3568 16.3372 -6.90687 -1.08536 -2.35965 0.741248
2422 1 -16.1538 5.16592 16.2095 -0.172448 7.00893 -0.121694
2423 1 13.9624 20.0132 5.63344 0.336571 2.19028 2.5948
2424 1 -23.9233 16.3909 7.59913 5.13242 4.26502 2.94942
2425 1 -14.5717 8.86376 -23.3743 -0.689251 2.19618 1.71073
2426 1 0.601661 17.2617 21.1563 1.04201 -1.19323 -2.81595
2427 1 13.1426 3.4766 4.84301 3.53149 -0.831267 -7.58285
2431 1 -17.8825 19.4572 -9.82644 2.47174 6.573 0.79562
2432 1 18.8939 13.5832 -18.5604 1.75551 -2.07353 0.875009
1088 1 -20.9336 23.0162 3.89873 -3.27931 -0.178498 -3.29291
2436 1 -6.8847 9.57629 17.259 -0.1276 -2.15103 0.969354
2439 1 -14.3116 20.1611 10.3627 -2.94256 -3.73248 -4.07579
2441 1 -23.3141 17.2213 18.3451 2.89199 0.2452 2.70982
2443 1 6.55184 11.3934 -22.2284 -1.26258 3.03774 -0.59985
2444 1 12.6838 22.0446 18.1195 -1.56065 0.0129051 3.6828
2445 1 2.71856 2.06002 21.4351 0.605946 0.961069 4.20473
2450 1 9.04153 10.9812 22.0356 3.00274 0.633683 3.63866
2452 1 12.8502 15.9558 -14.2566 -0.220063 2.11331 3.85095
2453 1 -1.56801 10.1518 14.1718 0.618251 -2.31422 1.87077
2454 1 -4.74669 8.87894 -17.8345 -0.974106 1.30926 -2.37337
2455 1 13.299 9.33383 15.1582 1.36214 3.71108 -0.807724
2456 1 21.2617 20.9755 20.0522 0.157766 2.42504 4.55935
2457 1 -5.35597 1.69952 11.4289 -3.9214 -4.0679 -2.74057
2458 1 -23.672 21.9181 -3.35543 -5.14671 -0.535345 3.278
2459 1 -20.7437 15.3645 -7.51434 -0.78753 -2.71387 -3.05916
2460 1 9.39841 10.219 -15.4309 1.51825 -4.45912 1.02215
2461 1 -20.648 18.2449 -3.34283 4.27705 -2.5664 -2.3114
2464 1 7.88735 18.8307 -13.6399 0.704088 1.71189 -2.91112
2466 1 -0.397923 2.98748 -2.9688 -1.66112 0.826531 3.11521
3906 1 -14.7134 8.88318 -8.31497 7.65423 3.15616 -2.10119
2473 1 15.0208 8.21213 -7.73393 0.588833 -0.283941 -2.39074
2475 1 -16.0068 12.4628 8.40424 -4.91164 -1.52937 -2.28144
2477 1 10.2815 8.88546 -1.39653 -0.85027 -1.24358 -1.1862
2480 1 0.731762 22.789 -6.33055 3.12489 6.6161 1.4872
2483 1 1.12275 9.03332 -12.032 2.66238 3.67462 -4.57364
2487 1 3.53876 17.8974 -0.99219 -2.81129 -2.35096 -2.03945
2488 1 -7.75714 20.2486 20.5477 2.3586 -3.73421 2.73064
3882 1 22.8475 18.3584 -3.29142 6.6873 -4.35956 1.56232
3828 1 -17.9522 18.7433 -19.0291 2.5515 0.218805 -1.14404
2492 1 21.7882 12.9501 1.78511 2.9926 -0.43539 1.52699
3956 1 -12.9351 12.799 -3.79396 -0.732124 0.0624112 1.07844
2496 1 5.54904 1.12583 -23.6542 -2.32092 -3.08948 -0.332362
2497 1 4.46213 6.40159 19.7169 -0.112409 4.445 -3.68889
2498 1 -5.86488 7.4962 4.64827 4.09176 0.672411 2.93324
2022 1 17.3162 22.9351 8.42685 4.23908 -5.80517 2.39133
2501 1 4.07846 14.2036 4.84607 2.51605 4.61245 3.70076
2503 1 17.0646 14.0857 -2.46086 -0.0555585 1.24856 -3.86214
2504 1 11.0245 11.044 10.2597 0.592326 1.68146 -1.1554
2505 1 -10.1533 18.0408 22.1136 0.896191 3.59344 -0.174182
2506 1 -23.6288 11.9185 -10.2192 -2.19096 1.64572 -6.7633
3827 1 1.43828 7.07503 20.1096 2.16328 -2.72566 3.12791
2510 1 -23.3019 0.742538 -1.52231 -1.58023 -0.0830291 -5.26532
2511 1 4.45908 4.1837 17.8495 5.20991 -1.41855 0.41252
2512 1 -9.91329 10.7006 14.326 3.58805 4.29023 -0.922624
2513 1 20.9357 8.73066 7.34111 -0.585149 0.222872 4.7023
2514 1 23.2585 11.5252 23.8377 -1.16784 4.53389 3.87755
2516 1 4.52563 11.3812 -18.9076 0.657846 0.680139 -2.52987
2519 1 -22.0876 22.0256 13.6368 -0.399205 -0.341322 -0.947772
2520 1 -23.3882 1.41014 -7.97399 2.48458 1.40519 0.0422724
2521 1 9.87457 7.43172 15.7204 -5.82523 1.28398 -6.27871
2522 1 -5.60955 9.06751 -0.175196 -1.39936 -5.78341 4.41301
2524 1 9.50928 21.8669 -21.9744 -2.84337 -5.89943 -4.6174
2527 1 6.25577 4.18014 8.64549 0.381851 1.82263 -3.58293
2528 1 -8.47398 12.6781 5.92872 -2.2422 2.66574 -2.03948
3449 1 6.61872 23.0778 -18.2694 4.48261 2.6238 3.60898
2538 1 -6.43918 4.71333 24.0861 7.11446 -0.645206 3.65278
2541 1 6.26524 8.52562 14.7915 1.90669 -4.02774 -3.04444
2544 1 12.7521 1.39053 6.78239 -1.97127 -1.6312 0.299978
2545 1 -12.2978 10.5146 -19.873 0.478408 -3.34264 2.90833
2546 1 -15.2811 3.31201 11.8874 -0.528373 -4.13901 -3.64975
2549 1 7.87805 12.5238 -15.9785 0.496987 1.70724 1.37787
2551 1 -5.37685 12.0368 -15.4385 -3.30238 2.03559 -0.031792
2555 1 6.47997 12.0367 -7.49273 -0.185947 1.11346 2.77093
2558 1 -18.8105 9.34217 -22.2419 2.27701 1.18083 0.326271
2559 1 -17.796 7.43038 5.76521 -1.34156 3.13379 0.995331
2565 1 13.4936 17.5036 13.0275 3.81757 -2.21011 0.536199
3931 1 -1.18056 9.44864 0.0810449 -1.64075 -0.376608 -1.54141
2570 1 -19.6977 16.9895 -17.6356 -2.85301 3.13408 -1.18981
3820 1 21.9106 12.2516 -6.57721 1.06192 -1.37834 0.929853
2575 1 2.25011 15.4875 0.485104 -3.48243 0.169112 4.52499
2576 1 23.5667 21.2049 14.7401 -4.82302 -2.69355 -2.83331
2577 1 15.8565 20.8726 -4.59044 -4.64589 -0.0481001 0.902493
2579 1 -11.4739 8.7312 3.02994 0.158688 -2.2714 4.42256
2580 1 -23.7766 14.5679 -21.6898 2.33955 0.529979 5.92615
2581 1 -6.16517 15.7304 22.117 3.08333 -3.68658 -1.9882
3983 1 -20.7064 10.4617 9.32969 4.8376 -0.144538 0.0491978
2583 1 6.34494 18.7943 -0.12859 1.15408 3.01665 -0.691036
2586 1 -13.2942 14.713 12.3753 0.172121 3.21237 0.439858
2590 1 15.633 4.08573 -9.26512 5.29475 -3.35696 2.57565
2596 1 -14.7824 10.918 -21.0804 0.102013 -4.03519 0.737642
3940 1 -2.16096 23.1278 -6.28983 1.13751 0.713906 -6.64224
2599 1 -6.31448 3.16928 5.9728 -0.333182 -0.716959 1.19611
3968 1 -3.5806 3.05763 -5.42889 -1.611 -1.23366 0.732066
2601 1 -2.01602 6.91666 5.28335 -0.119282 0.866108 -2.81296
2603 1 -22.5522 19.1189 -7.58841 -2.87913 1.33976 1.42206
2605 1 -16.5999 9.18817 -5.98905 -2.98276 0.174511 -0.707276
2606 1 16.9597 16.8045 18.7757 1.15046 -3.44875 4.28204
2607 1 11.0241 0.429443 23.6204 -1.47047 -7.73543 -3.24137
2610 1 1.1451 3.94541 -16.9498 -2.09011 -2.98321 -0.77355
2613 1 -22.4223 5.49051 15.9983 -1.40909 -2.41722 -1.67151
2614 1 -12.2544 11.9635 -17.4217 -0.08914 1.4069 0.98892
3890 1 3.23079 18.819 15.238 -1.09549 -0.420207 -0.281465
2617 1 -3.34573 11.2215 -17.3305 -2.7688 -4.64533 -6.42498
2619 1 -0.567179 9.03974 -21.7291 3.00952 0.665957 0.0677929
2620 1 -7.36074 15.3548 4.95712 2.96899 -1.18451 1.46805
2623 1 -19.7531 21.1795 -22.5544 -3.17165 3.26988 0.462542
2624 1 -20.076 20.4884 -4.89735 -2.67194 -0.981311 0.550628
2626 1 -2.23437 3.91595 22.078 4.49721 6.80705 1.10103
2631 1 19.4589 16.2953 1.76875 1.37454 -1.41649 -0.363973
2634 1 -6.41188 10.1971 -21.95 -1.72567 -0.300342 -0.458024
2635 1 -0.355578 9.83944 22.4756 -4.97881 -2.40299 -0.468389
2638 1 11.1628 6.46064 -4.49969 -4.62731 -2.10148 -1.44381
2640 1 5.1854 14.2265 -19.2703 5.96127 -4.05709 -3.13424
2641 1 23.2304 8.06931 -16.0732 0.408609 -2.17442 2.76649
2646 1 -2.85281 8.77013 -3.58997 -1.92969 1.23156 1.25619
2647 1 -9.95064 6.54489 4.49212 -4.0061 4.56039 5.56657
2648 1 17.5814 0.522679 1.21386 -0.456286 0.753944 2.77747
2649 1 -18.9057 19.9256 -12.7154 -1.73439 1.20548 5.63212
2650 1 -3.54934 10.2478 16.0339 -0.474142 -1.84073 1.11561
2653 1 -8.72442 9.01204 -2.74039 3.39682 -1.09743 -1.59948
2656 1 -4.36165 7.04186 -19.7527 -3.81634 4.71254 0.505947
2658 1 -4.89711 0.980363 16.7862 -1.65058 2.72408 -0.683318
3806 1 -1.39863 -0.0391861 -2.83511 -5.83159 -1.18069 -1.37922
2661 1 8.25099 5.92971 22.7381 2.88226 2.94607 1.50691
2663 1 -7.51957 11.4745 23.9492 -1.27405 2.10773 0.223909
2664 1 -15.604 18.1653 22.3368 6.47099 -2.14438 3.30602
2665 1 -21.2766 2.17677 2.40453 -0.825439 -1.54802 2.77902
3902 1 13.213 10.1121 -9.07789 1.61915 -1.52838 4.74339
2671 1 11.321 21.0458 20.6009 0.253947 3.36861 3.65108
2675 1 18.1871 3.54706 -10.7941 0.660023 1.871 -2.46175
2676 1 20.5709 22.0129 -19.4516 -1.09097 -1.62622 -4.69784
1192 1 -14.9047 0.93393 -9.52621 -3.34272 -2.20255 3.62707
2682 1 -20.1227 2.64367 14.0993 -0.701108 -2.69412 3.26796
2683 1 -16.7815 4.58953 -17.8515 -4.06933 0.703989 0.491225
2692 1 6.22267 0.562818 -12.5862 -6.60696 0.885584 0.43724
2693 1 7.97 18.6218 -18.5604 -0.894773 6.8549 -2.78163
2695 1 14.8544 6.23116 11.297 -1.98718 2.73379 -3.13219
2697 1 4.64146 2.59343 -6.25397 0.780426 -0.597331 0.108071
2699 1 -16.6396 15.7624 -1.55869 -4.84971 1.57937 5.03782
3978 1 -0.995618 20.8804 -12.2992 3.99687 3.28587 -2.98853
2702 1 -6.5679 17.5035 -17.9967 3.7014 0.845926 -2.9334
2708 1 -12.8916 1.6785 22.3629 5.01429 -2.60332 4.19284
2710 1 -3.80276 17.8665 16.8862 -2.69769 -5.3714 5.39325
2712 1 16.755 13.6659 4.60557 -0.475556 -0.143238 -4.54165
2713 1 -23.8666 4.21788 -7.91402 3.95459 -7.35433 1.85864
2714 1 -19.9118 5.14991 -11.1697 1.65736 0.817066 -1.66472
2715 1 -11.2968 11.8404 21.2059 -4.52484 2.21992 1.9192
2716 1 16.8232 13.7642 0.298333 -2.14906 2.22562 -2.12811
2717 1 11.7489 19.9251 9.68321 3.77737 -0.955516 -1.61997
2722 1 -9.5832 18.6265 -6.29964 1.68545 -1.18416 1.10686
2723 1 -5.06762 16.0275 13.1792 -3.99754 -2.78046 -2.31068
2724 1 -5.63557 4.71509 3.71499 -2.07506 -2.03352 1.64701
2725 1 -0.689999 9.58029 -17.3169 -0.646654 -1.31018 3.44637
3894 1 11.0357 11.7681 -13.8018 2.33145 -0.824556 0.716279
2732 1 1.61225 4.19468 5.81231 -5.398 1.42131 3.68011
2733 1 -7.65624 8.44566 -17.7422 -0.586552 -1.20438 -0.485476
2735 1 -4.64288 7.66551 -15.4379 -3.57149 1.75902 -3.7335
2736 1 18.7898 16.2438 22.0031 -0.667387 4.11868 -3.08742
2738 1 -5.70478 9.18604 14.6927 -1.81891 -3.05608 1.78636
2741 1 -7.71999 6.46376 2.58004 -1.35386 -0.546335 -1.33889
2742 1 -13.7817 13.9106 4.07578 0.00164756 -3.9536 1.52726
2745 1 -9.70137 20.7007 1.73165 -2.33942 -5.20103 -0.0779241
2747 1 -0.815019 2.68033 13.0013 -3.65574 3.99928 2.01269
3966 1 -18.5289 20.3823 9.74963 7.65623 0.626468 -3.33276
2752 1 -9.2433 19.3982 -11.4518 1.36727 0.911914 -1.23366
2756 1 -24.3821 12.2154 19.7028 1.14455 -4.60738 1.63454
2760 1 0.0809066 12.6002 -16.7543 4.5538 -2.73929 1.60159
2762 1 -9.79828 9.34518 8.98346 1.50825 3.58887 0.343007
3788 1 7.68968 14.4044 7.44285 -0.38553 2.30698 0.682385
2766 1 11.2111 9.71492 17.2692 0.255059 2.25918 2.67199
2769 1 -15.5092 17.7093 15.2993 1.59835 2.53811 -8.02338
2770 1 21.4838 9.63339 4.615 3.63869 0.0779219 4.17616
2772 1 -12.32 18.1418 -20.6419 0.289143 1.81431 -1.97546
2774 1 22.105 0.22603 -17.2717 -2.22931 2.21599 -1.70664
2776 1 10.2165 6.36968 -8.71165 -2.11591 0.798956 -0.556343
2777 1 -13.1007 15.9387 2.40569 4.49004 -3.014 0.868712
2778 1 -21.351 18.7905 19.7389 1.60881 -1.6355 -0.879633
2779 1 20.8548 15.59 18.4099 -3.92306 -1.27306 1.26317
1419 1 10.3696 22.7478 -1.85309 -2.37534 -4.13673 2.09023
2784 1 -12.7576 0.975833 -0.211436 -5.08542 6.86196 -2.8053
2787 1 -13.9814 14.104 -1.35174 4.78529 -1.47761 0.652919
2788 1 -17.8572 15.9199 10.9902 -1.09511 2.1355 -0.5486
2791 1 20.3551 14.4385 -4.96164 -3.23913 1.15216 -2.76241
2793 1 -3.38416 3.31429 6.13751 1.08263 6.99503 0.152462
2794 1 7.44089 18.5216 -7.84762 -1.29858 1.83674 1.42997
2795 1 19.4652 12.2504 -21.1453 -1.04039 3.41002 -0.385072
2798 1 -22.1252 0.404985 -4.06387 -0.255043 2.30936 0.466476
2801 1 0.0447443 16.9742 6.73522 -0.411139 -0.777844 -5.96698
2802 1 7.97932 11.0756 -11.6674 -1.28208 -0.00314299 -0.388688
2804 1 -16.7363 16.4358 -10.3272 1.55974 0.154975 -3.26956
2805 1 -15.208 6.86821 -10.1323 -0.458996 2.72951 -2.22002
2806 1 -2.33619 18.7005 -15.8108 -0.0220867 1.28097 -3.94436
2807 1 -21.7523 18.2238 -0.716167 -2.6508 -3.34794 2.66364
2809 1 -11.9994 16.6345 17.9456 0.221109 -3.38913 0.360267
3815 1 1.19777 20.6447 -23.7267 0.618694 1.48225 0.288374
2811 1 -13.3115 11.0106 2.99593 -2.86967 -1.13595 6.18939
2815 1 23.0801 9.40747 8.88438 4.06014 -2.10407 1.9881
2819 1 18.3316 12.0941 15.0015 -3.71234 -0.433651 4.0662
1714 1 8.71644 -0.620352 -11.6882 -3.08596 1.91319 6.10268
2824 1 7.68223 15.2323 14.6215 0.436763 1.20951 0.396795
2825 1 13.4565 18.7996 -10.858 2.89914 -0.118509 0.73659
2830 1 -20.8896 7.56759 0.501563 0.401817 0.574593 -3.65803
2831 1 19.2519 4.11196 -13.4618 1.66634 -2.41204 3.46188
2833 1 -23.0968 4.47604 6.33335 3.31813 -0.426511 -0.997854
2835 1 -8.06861 7.64049 -0.142195 -1.7256 -1.78583 1.06184
2836 1 -14.1041 19.1967 -5.31737 0.915349 -1.00227 -0.450692
2837 1 -14.482 11.4347 -9.54005 -3.79964 -3.13216 3.28382
2843 1 16.4692 4.06776 -22.6726 -3.24773 0.604144 0.352393
2844 1 21.6871 17.55 8.09433 0.855119 0.404113 -4.47591
2845 1 19.4484 3.30827 -23.2927 3.22597 -1.15293 0.53219
2846 1 -23.8001 0.639907 3.10756 -3.47025 0.333885 1.90917
2847 1 7.78655 14.576 -0.273946 1.87362 -0.168449 -0.119611
2850 1 1.2245 4.16811 -9.37061 -3.82748 -1.71675 2.32749
3893 1 -6.46198 11.1229 12.7064 -1.02589 5.45776 1.6269
2857 1 17.9716 12.089 11.9056 -0.463543 -0.626027 -2.8031
2860 1 -21.7336 8.07749 19.0784 -3.45822 -1.33136 -4.75475
2861 1 14.8565 13.0694 22.2525 -1.68529 6.42798 -6.33756
2864 1 -15.2406 12.6303 15.6036 1.68203 2.79996 -0.935422
2865 1 3.91014 10.7028 0.431923 -0.40976 -2.68606 5.20917
3923 1 -22.9347 4.44981 -13.8162 1.49805 3.59608 -2.62382
2867 1 -17.8006 17.352 -13.3429 0.49809 -6.2661 -4.04556
2870 1 -12.5922 15.7979 -8.95154 1.94692 -0.640666 3.66995
2871 1 -14.3398 20.3359 23.6305 -0.170833 5.26699 4.85833
2872 1 6.01834 8.83831 7.82636 1.29585 2.94684 0.0428474
2878 1 -17.3053 22.1762 -12.9887 3.0438 -3.22679 -0.626557
2879 1 1.11613 17.2891 2.55818 -1.62423 8.39947 -0.57365
2275 1 -12.104 22.3764 -14.7024 -0.995409 1.61807 0.632626
2881 1 -15.5108 15.542 -20.1642 6.01026 6.01666 4.71827
2885 1 -6.72633 0.783436 -5.59731 -3.17844 0.755898 1.41584
3986 1 16.003 19.4064 -14.9339 2.68263 1.4872 -1.0877
2887 1 -24.4344 19.4767 19.9877 -0.670228 6.03056 -0.467149
2888 1 -10.3917 4.30492 -23.5627 0.214574 2.39552 0.217793
2892 1 23.4562 19.5641 -11.0028 -0.126981 -0.354609 -2.83965
2894 1 -7.23955 6.01645 16.4424 3.00955 -4.50463 0.910792
2895 1 -17.2916 21.2094 19.0886 -1.41827 -1.51487 -0.893277
2896 1 -13.8594 5.97145 18.0841 -0.67099 3.55777 3.54859
2897 1 -4.07839 15.2699 -0.601641 -3.59362 0.977904 7.28321
2900 1 15.1692 3.45798 22.9613 1.26916 2.25504 -0.722602
2902 1 -21.8885 1.43364 -22.0045 2.84111 0.383139 -0.605876
2904 1 -6.83332 12.8115 -2.26302 -7.1553 -2.91097 3.41116
3839 1 20.1975 4.09026 2.66981 1.90633 0.245553 -0.662722
2906 1 10.9445 0.802199 17.9075 -2.54417 2.68746 0.617795
3838 1 -6.28487 2.79415 -1.50199 0.140269 -2.34382 -0.810506
2908 1 0.838862 10.6245 18.1289 1.97592 2.22211 2.563
2910 1 -13.9565 8.47617 19.1053 -2.61597 5.74391 -4.15874
2911 1 1.41528 3.08137 -19.6439 2.43523 -0.378533 -0.782891
2913 1 15.8506 5.09256 -5.53263 -3.30001 -1.2135 3.30588
1642 1 -1.37032 22.5443 5.86831 5.34612 -2.75442 1.17383
2916 1 18.4738 17.2057 -9.72921 1.10415 2.23721 1.89028
2917 1 -7.98814 6.92149 6.47424 -3.93525 -0.277372 -0.663796
2918 1 20.5843 7.07651 -6.3776 0.592045 -2.43502 0.794703
2920 1 22.5942 13.9124 6.98745 -1.2635 0.197697 2.20272
3851 1 -5.61916 5.11596 -2.69488 -2.87398 0.508359 -2.28604
2923 1 -14.3251 0.947004 18.2657 0.146001 0.56337 -3.0871
2926 1 -8.27652 7.4826 -12.5592 -3.79682 -2.59169 4.0198
2927 1 16.2004 4.77657 0.0751894 1.60276 -5.09864 -0.251737
2930 1 -20.1846 5.20283 -0.958139 6.85174 -0.530592 3.90238
2932 1 8.71434 18.6708 17.7087 0.658766 -1.00662 -0.978932
2934 1 8.69525 2.1436 -20.416 7.81072 3.59971 2.75032
2936 1 22.7063 9.43392 -6.41238 -0.00663766 -1.91359 -1.23098
2937 1 -17.7238 3.12384 -14.0069 1.55746 1.11197 -0.402319
2939 1 -11.6261 21.1497 3.99144 4.68854 2.39715 1.20027
2940 1 14.7378 16.9275 -0.830054 1.19184 -3.55999 3.61197
2941 1 -5.19026 3.06404 -8.61689 -1.50325 -1.06792 -2.79003
2942 1 -20.2993 15.9565 20.3117 2.92858 7.11999 3.12323
2943 1 -23.9387 7.56791 10.6151 -2.28616 -0.617235 0.0404346
2945 1 -4.49799 11.1568 -8.78176 -0.926008 -0.394413 0.523128
2946 1 10.9837 1.16953 10.6851 2.12717 0.636655 1.95853
2950 1 -21.2063 15.8239 4.22837 0.949371 -0.655255 -2.82247
3778 1 5.91893 15.5145 -9.67245 9.83949 -4.27437 2.90937
2953 1 15.1682 2.30001 1.21343 -4.90669 -2.73825 3.00475
2956 1 -15.7587 21.2781 -1.06713 0.501074 0.749792 0.846289
2959 1 -16.589 17.9272 -21.1813 -2.9962 3.02294 4.57477
3990 1 9.9534 3.47821 -22.5128 1.5119 1.70892 6.51995
2963 1 -22.4136 12.5541 -5.60228 -1.41329 -0.758559 -1.69336
2967 1 0.293659 10.4923 9.57076 -1.04525 -4.03328 3.42449
2971 1 -2.48425 19.1823 11.6802 -1.97018 1.08176 -0.385843
2972 1 -7.91146 7.87743 -7.5818 -0.886268 2.80908 1.14972
2973 1 -11.6716 16.1323 23.7899 1.03063 -2.54371 -1.59154
3988 1 -21.3789 21.4924 18.4155 -4.65628 0.843447 1.99142
2975 1 18.0723 9.92367 -0.723798 -3.0745 -4.62397 1.23383
2976 1 -20.4237 20.9606 -14.8516 -1.60051 -0.0242563 0.475223
2978 1 11.4999 19.1062 -15.5086 1.91379 4.59886 0.374909
2979 1 7.51175 6.48077 16.6199 -0.53253 0.80674 -3.35648
2980 1 -3.57515 10.6118 -1.29159 2.334 -0.980791 1.40943
2981 1 -11.6989 9.0494 17.1635 -5.61937 -1.35233 -1.78377
2983 1 -5.77656 14.204 -23.3797 1.83286 -0.269438 -6.07158
2986 1 -4.75902 17.4211 -20.2751 5.49505 4.14836 -1.01625
2989 1 22.3873 18.4964 -13.655 -3.3117 0.0322551 -1.35481
2991 1 2.80088 3.77339 10.7889 0.548363 2.34439 1.83193
2992 1 23.0028 12.8463 -12.5219 0.15707 -0.499432 -3.95396
2993 1 -23.8221 18.6345 15.8964 -2.77706 0.0530486 3.04294
2994 1 17.7651 1.91332 13.3816 -5.40888 -2.16841 -1.33521
2995 1 -3.5513 10.903 -5.16612 1.06575 -2.8238 -1.76521
2996 1 14.3973 5.92771 5.59513 -2.15618 -3.08222 -1.30503
3000 1 -3.83306 12.7503 16.6551 -3.30661 -2.57729 0.143795
3001 1 12.0742 13.7822 9.15985 3.03564 -3.24617 0.346561
3002 1 -19.8898 18.1059 17.2151 -0.0947179 1.76787 -3.57756
3003 1 15.9684 13.6775 10.6838 2.68546 -4.51591 -0.368953
3004 1 16.3355 17.6215 -17.3323 5.49352 1.41211 -2.09402
3005 1 2.70461 1.77488 -8.00323 -3.57548 -2.44844 0.489558
3006 1 20.3852 7.65192 -22.6739 0.168452 -1.20272 -4.93457
3014 1 -22.8511 14.8033 20.5154 2.60488 -2.631 -1.03587
3015 1 -5.79877 12.3442 6.70341 -0.790329 -1.23471 1.66248
3017 1 -12.4685 6.4309 22.5954 -0.889786 1.23242 -1.48764
3023 1 1.33424 19.5224 -1.82557 -0.29647 -3.50171 -1.99063
3024 1 22.9818 7.55861 1.4985 0.901985 2.70986 1.5089
3027 1 13.562 3.90394 9.67839 0.855018 1.08042 3.06539
3028 1 -14.5943 12.9512 18.4668 3.1956 2.95492 -2.80716
3029 1 7.10701 4.49313 12.8341 -1.57059 2.34043 1.29854
3030 1 -15.751 21.0427 -10.738 3.0186 -0.278463 -3.09757
3033 1 -11.6251 4.63075 7.13626 -2.20326 2.43377 -3.05256
3035 1 19.2552 15.8844 5.49037 -4.12777 -0.840753 4.10665
3036 1 12.524 18.1161 20.5509 0.399714 -2.65048 0.259849
3041 1 -22.3842 20.6675 0.91984 -2.11924 1.79905 3.83081
3042 1 -6.37374 20.4196 14.1688 1.31758 0.922476 3.25483
3044 1 -4.24724 16.1047 -4.0868 -0.252977 -2.15748 0.519492
3047 1 7.49921 20.5544 6.14239 -2.39918 1.79374 3.54315
3849 1 16.9066 12.3981 -24.1546 3.89389 2.75458 -7.71146
3052 1 -21.4769 14.6161 -14.138 -4.42143 -4.24339 -4.38278
3055 1 18.2679 2.29798 3.68052 0.186017 -1.21906 1.96875
3056 1 -20.9844 14.9965 14.2812 -5.89547 0.0725057 0.987733
3057 1 18.1831 6.34285 20.8555 4.781 -2.86733 -4.45287
3061 1 -9.47303 22.8369 -15.928 -1.87632 0.36471 -2.16546
1062 1 -8.08888 -0.0516709 11.0425 0.348064 4.27392 1.45978
3062 1 -8.55213 14.2433 -16.2022 -2.00019 2.81459 3.47103
3064 1 -1.7689 10.79 -19.6841 0.7795 4.84234 0.758311
3921 1 18.6998 7.97681 -17.9952 -0.809639 -4.40346 3.59726
3067 1 17.6637 16.0861 -12.4318 -2.65228 -0.220198 2.48182
3068 1 20.9809 18.2046 -1.04218 -3.51766 5.76802 3.78089
3072 1 1.81527 8.03937 22.8146 -4.55496 2.29236 -2.89577
3073 1 3.16927 20.5496 0.23677 2.78812 -5.4049 -1.46307
3075 1 20.5395 12.2174 -23.9176 -0.612601 -3.62519 -0.97587
3076 1 -10.7808 20.9095 10.0738 0.822918 4.61811 0.755983
3078 1 -21.3017 6.11015 -16.7521 -2.07212 0.46969 -5.05549
3080 1 -18.3221 14.2445 -9.32449 2.96103 -4.40467 0.156493
3081 1 -18.8397 8.20938 8.11069 -1.70806 -5.44946 0.187261
3082 1 -1.53838 3.31818 -23.2694 0.0557547 1.09982 -1.11062
3086 1 15.9215 21.359 2.12881 -1.13632 -1.30726 1.87623
3088 1 8.78477 3.96602 15.7385 0.324064 -0.113193 3.52128
3091 1 -2.63094 0.904063 21.909 -3.55654 -2.49662 -4.03887
3093 1 -13.564 4.25236 -20.3295 -2.49033 -2.27941 -2.37638
3094 1 13.3802 6.51082 20.2191 -1.79841 -1.11591 4.82457
3096 1 6.13549 4.55057 -22.5441 -5.0117 -0.284303 2.85809
3099 1 -21.0827 6.92555 23.0396 -1.26734 3.94687 6.35258
3102 1 5.35618 3.04125 22.2466 -2.60497 3.84666 -4.10334
3109 1 2.64658 0.200511 0.436876 3.25066 2.01171 -6.56771
3110 1 6.49071 6.92698 2.06448 -4.5919 3.35325 1.85693
3114 1 4.11368 5.31115 -18.3597 -1.17563 -0.451656 2.148
3115 1 -17.2087 16.6393 -16.1001 2.38468 0.663352 -0.772664
3116 1 -11.9985 17.9672 -1.54473 -1.88471 -0.23486 1.61824
3118 1 4.36251 7.09961 6.26566 -3.68073 -6.29753 3.4081
3938 1 19.6577 12.7381 17.6068 -1.00583 0.361416 5.84945
3123 1 15.5406 15.2616 12.8882 1.58861 -0.914242 -0.981626
3124 1 -12.0558 12.9585 -6.61759 1.50888 -3.43157 -1.79314
3126 1 1.28698 6.76979 -8.40917 -0.175494 -0.550709 -8.29738
3127 1 18.6696 6.3977 4.02608 -3.48047 2.70063 0.933033
3128 1 3.05887 9.52805 -16.0079 2.8682 2.36395 1.23237
3131 1 -10.5136 14.8994 1.77699 2.01195 0.44399 5.08478
3132 1 1.36781 11.7776 3.774 -1.4814 -1.05187 3.22536
3133 1 -0.376762 13.9874 -9.38338 -0.565506 -4.07257 0.145565
3134 1 22.093 6.48226 -4.18361 -2.52685 0.683201 -0.0425942
3139 1 4.64312 10.1879 -13.4879 -4.75026 -5.38392 -3.90795
3140 1 0.293908 15.7249 -18.6805 -0.522714 -5.63245 2.45782
3920 1 -11.9702 11.6459 18.5954 -1.47822 0.554178 2.02831
3930 1 14.7866 19.6944 -0.0356386 -0.580787 1.66925 0.75399
3144 1 -2.29074 12.0006 1.20882 -1.62201 -1.00707 3.54656
3146 1 -0.797874 7.78989 -10.1536 1.6573 -2.30103 -1.00602
3149 1 11.609 8.40489 -16.4699 3.37792 -2.63153 0.238848
3150 1 23.7369 11.3385 3.10736 4.74965 -0.743948 3.09882
3152 1 -12.6467 15.5201 -20.9583 1.51732 -3.78943 -3.6594
3153 1 17.5334 7.50644 -21.4461 3.6267 1.87114 0.728345
3154 1 7.2086 20.8761 3.07473 3.27595 2.83291 -1.22875
3157 1 11.0624 3.20315 2.5398 -0.627202 -4.52503 4.39326
3159 1 20.3767 4.28581 -7.24854 -0.132448 0.731844 1.13829
3918 1 12.4248 11.0618 -17.3857 -0.460076 -0.0141253 1.73976
3164 1 -19.7329 4.14155 21.0846 1.31148 4.92489 3.87512
3165 1 -4.72557 20.4933 -15.7405 0.580881 1.17527 1.28318
3170 1 4.46676 22.6139 21.6926 1.80271 -2.14176 -2.34108
3171 1 -6.12067 14.9498 -20.6321 4.72555 -2.41099 0.432049
3172 1 -8.954 4.13108 6.22487 2.25432 -3.68399 5.71865
3173 1 11.0057 17.1109 10.186 4.17511 -5.20663 1.45592
3174 1 22.7518 15.3935 -13.5436 -0.598686 1.99894 -2.45476
3175 1 19.2807 2.90892 -3.33921 3.64201 0.743986 1.12713
3176 1 21.4933 2.06007 17.6724 5.67953 -5.70027 0.707344
3178 1 16.3212 20.3193 11.8283 -0.415589 4.52951 -2.45226
3800 1 14.8606 2.07528 -2.96219 0.572468 4.64092 -3.42682
3180 1 -1.06266 15.343 2.79756 -3.23307 -3.59848 2.80922
3183 1 22.4321 16.1525 -5.21609 -2.78884 5.98179 4.86941
3185 1 -14.3844 19.405 -21.9424 -1.72731 -2.9527 0.247447
3186 1 -5.12831 19.6679 6.57916 0.278397 -0.995554 2.86311
3188 1 -21.3523 12.4694 -12.0133 -2.36757 -4.29336 1.47706
3189 1 14.3912 11.4115 6.87879 -6.02053 -4.5454 0.0989347
3190 1 -22.0743 20.7031 -17.3785 -0.504346 -3.66777 -1.47067
3192 1 21.3799 8.71878 -0.537124 -0.200878 4.2767 -3.00643
3195 1 -17.1664 0.952139 3.98269 -1.82345 0.537745 4.06546
3197 1 -1.46886 10.6403 3.40043 -3.88224 2.25714 1.7429
3198 1 9.27571 3.52239 -18.0508 -2.67719 2.02976 -0.479759
3203 1 17.8167 9.91453 20.0879 5.03131 1.45045 -2.97617
3205 1 -13.6656 2.03881 -3.07014 3.0198 5.7108 -1.02235
3206 1 16.0578 10.437 -2.77214 2.97226 -2.94724 3.46852
3210 1 -13.0951 10.0285 -3.66348 -1.23545 -0.804929 0.72275
3211 1 -0.602358 16.9496 12.6891 -0.658577 -1.40446 1.47633
3212 1 -12.2333 6.24387 -18.6199 -0.0248229 2.68568 5.40902
3213 1 -1.76653 2.78119 -13.849 2.61362 -2.93199 -7.21063
3214 1 -1.99504 16.521 15.1881 -2.31121 1.9378 -1.16135
3215 1 10.7033 4.56134 9.57474 0.801352 7.30183 -1.11442
3217 1 8.92551 3.15042 7.61474 -4.24178 2.95357 -4.79409
3218 1 -3.77472 20.5249 -6.32203 3.70802 -2.01467 -8.45031
3223 1 -22.6643 10.5293 17.7514 -0.0424526 -4.29995 2.60704
3964 1 8.39423 10.9364 16.9007 1.30343 2.14793 -3.77905
3227 1 7.04755 20.9927 -4.02762 -1.90968 -6.25872 1.40406
3228 1 -9.7979 10.9317 -9.86581 4.15116 -2.29172 -1.16685
3229 1 -8.20562 1.68703 -3.05791 -1.32471 -3.39521 3.74469
3230 1 -23.109 13.6476 23.8937 0.577661 2.25896 3.70714
3232 1 -23.5951 14.7548 5.26494 -4.81795 4.65028 -2.58112
3233 1 -2.87697 17.6298 7.13396 0.189976 -2.70404 2.23406
3235 1 -5.7383 10.6325 -11.4046 -4.16113 -0.957441 3.41701
3236 1 19.1335 21.8197 6.48681 -7.2421 5.08104 -1.77926
3238 1 20.9244 20.0967 -4.46891 -0.374924 -0.250105 -2.41204
3243 1 7.96634 15.4382 21.9669 4.48624 2.32888 4.49932
3244 1 19.948 14.94 -14.6386 -3.8006 -1.04654 -1.08897
3245 1 -8.41338 19.9038 9.10895 -3.22446 -1.3699 0.420093
3246 1 16.6765 3.82872 5.6958 3.16315 -3.07987 -3.84026
3247 1 -6.78281 8.28444 -10.2113 -3.23499 1.68592 2.4811
3248 1 7.96227 0.0994359 -0.120588 3.67139 -6.71617 0.193151
3250 1 13.4283 5.23907 -16.5599 0.724159 1.6664 3.87154
3251 1 1.73135 15.1116 13.2371 -0.785578 2.74753 -2.69661
3253 1 9.00806 16.1063 2.71316 2.49612 -3.42301 1.81011
3254 1 20.7057 3.15623 -9.84148 -1.66853 5.39038 0.565453
3255 1 -19.2663 12.6108 -19.7727 5.50781 -1.43038 3.43515
3256 1 -6.13236 19.1639 -11.1495 0.562511 0.247326 5.72669
3257 1 -10.5309 5.36618 20.8621 1.11297 -6.84451 -1.76895
3259 1 17.8158 19.0397 2.27165 3.0905 -1.85361 1.78696
3262 1 10.0929 7.67733 11.7754 4.71424 1.44302 -3.36315
3263 1 22.5002 5.41636 19.352 2.83907 -4.11693 0.131458
3264 1 10.1652 7.93463 22.792 -1.45409 -3.96485 1.09869
3267 1 -17.4786 8.87343 -1.02429 -3.48554 -4.93115 -3.24702
3269 1 8.05149 18.6504 -2.61547 1.26659 1.43289 -0.23619
3272 1 3.66152 11.8173 -6.46939 -1.75207 -4.07193 -0.914772
3273 1 -16.7203 9.27889 -16.5979 -5.13449 -3.24654 4.87571
3275 1 20.5711 9.42709 11.6111 -0.718329 2.0151 3.02527
3276 1 9.3925 3.12973 11.8729 2.42171 6.64254 -3.57927
3280 1 8.60328 15.6822 10.1272 -0.57257 1.49588 -1.69091
3869 1 -6.00596 3.07012 8.69043 -5.49116 -3.25007 1.2219
3285 1 1.54078 21.3588 -13.5558 3.78846 3.11511 5.42
3286 1 -16.0779 18.313 3.81298 -4.3334 1.57394 -2.83092
3288 1 1.44796 8.04977 -20.005 0.551392 -1.98887 2.35419
3290 1 -12.343 19.2145 16.8689 -2.70922 -0.609862 -1.75078
3889 1 -15.9055 17.5631 18.1369 5.68392 1.44732 -2.58862
3834 1 6.94796 5.87085 4.77162 -1.61941 0.00024608 -1.55689
3293 1 -8.5481 14.2557 -23.7815 1.21335 -4.07729 0.757936
3294 1 -20.7539 1.63024 -15.6732 -5.99957 1.118 -2.22383
3297 1 -16.2948 22.1905 23.3763 0.174718 1.30345 2.44921
3799 1 20.2909 20.0998 -8.57825 4.55195 1.83769 -6.9318
3300 1 -3.19343 4.75034 -7.93703 0.934366 0.387669 -4.35572
3301 1 -24.3363 9.26572 -9.19724 -3.83738 -0.234812 0.109565
3304 1 -1.08221 14.3732 16.9474 -1.81324 1.95018 1.94879
3305 1 0.517216 5.4693 -5.93409 1.97308 0.475593 2.02168
3306 1 -8.24956 10.4562 -19.8566 0.956738 -0.875229 -4.9689
3307 1 -18.2049 13.5833 20.6631 -1.17001 2.90412 0.146017
3308 1 -16.2285 19.8286 -3.28947 1.5627 0.350525 -1.72445
3310 1 16.2884 21.5542 5.1982 1.92538 -1.16541 4.27504
3311 1 9.17508 3.88812 -9.97762 -2.01711 1.52546 -0.274002
3312 1 23.6804 7.34395 15.0407 0.944804 -5.56075 1.0584
3313 1 17.2416 9.60832 13.0811 2.97105 -2.25738 3.29628
3317 1 4.63641 1.98775 5.11412 0.681031 -1.25519 2.14109
3837 1 11.389 14.401 3.25545 2.60691 1.21724 -1.3505
3319 1 1.08639 1.30294 -15.995 -4.77237 -0.317713 -4.0697
3320 1 4.04257 5.15723 -10.7468 -0.396731 -1.66395 -3.89771
3323 1 -3.97015 18.434 14.1101 -4.46961 -3.47418 1.22755
3325 1 -10.1163 15.2862 4.74854 -4.80616 3.78334 -2.91491
3326 1 -24.539 3.97452 -22.7463 -3.38573 2.64659 3.98833
3329 1 12.8441 7.08781 -14.4093 -2.71627 0.256099 0.650469
3330 1 -6.47616 18.7753 -14.0566 0.896577 -4.08219 -0.428082
3332 1 -4.62407 7.74501 23.7831 -1.48956 -0.145994 -2.16085
3805 1 -4.7092 16.9061 -15.9921 2.07266 2.97686 -2.6603
3335 1 21.551 1.47823 -4.42181 -0.289875 0.997155 -4.29222
3337 1 -13.1115 11.2512 8.63145 1.72158 -4.25044 -4.15659
3338 1 11.951 20.978 15.5669 -0.535186 0.254988 1.56252
3339 1 10.1039 17.8739 -20.3686 2.25357 1.46008 -1.39295
3340 1 17.0984 0.0110394 -21.3587 -3.06201 -0.628566 0.995246
3341 1 20.0753 19.4006 -15.4268 1.14262 3.92863 0.674564
3342 1 1.61147 0.716898 4.10494 0.901884 1.16711 -2.82872
3539 1 14.0857 23.0631 -13.0923 2.24152 -1.26907 2.78886
3347 1 -23.0592 11.994 -14.2308 3.4597 2.82148 0.0982091
3349 1 15.0209 17.3513 -13.0058 -1.86618 0.119197 -1.70391
3352 1 4.10897 16.9713 3.68075 -0.563058 -1.10228 -1.00275
3353 1 -23.0505 5.40343 20.0459 -0.0396766 2.00616 -1.46183
3354 1 -15.1405 7.7041 -1.73819 0.588135 -1.25666 3.7693
3356 1 -8.56374 21.08 4.5825 -1.52791 -0.174911 1.48194
3358 1 -0.448682 19.0881 15.6016 -0.0686958 -1.63081 -0.902773
3359 1 -4.3975 21.248 11.2132 -3.16178 -4.13305 -5.18885
3362 1 -6.21396 3.30485 -14.4722 -1.99291 -1.50797 3.52668
3371 1 -8.71313 5.36328 13.9174 1.95158 0.458977 -2.30673
3376 1 -15.2514 10.9083 13.0934 0.388137 -2.7159 -2.95245
3380 1 0.899869 16.1214 -24.081 -2.35226 -0.998388 -1.55641
3382 1 -18.0981 14.9856 15.1972 1.00781 3.46471 -0.33926
3877 1 -21.0947 3.7747 -6.40413 1.82181 -0.872082 2.91823
3392 1 -7.22171 0.827374 -18.3473 -2.99433 1.28686 -1.56065
3393 1 -11.3906 14.4622 -18.6014 0.837643 0.160375 -0.928822
3396 1 -19.8634 6.5334 -7.15717 -0.838157 -0.177211 3.70539
3397 1 -3.41418 0.548636 19.3394 5.45875 -3.79185 -1.14765
3405 1 17.7472 5.89701 12.2909 3.06896 2.86832 3.45801
3929 1 -1.119 10.8708 -6.91275 -0.734749 0.366489 4.52763
3408 1 -17.6916 15.2483 23.1735 3.82269 3.71569 0.129162
3414 1 -17.6657 5.57408 -9.0736 -2.20435 -2.44599 0.49127
3845 1 -3.37615 5.45232 -22.884 -6.09798 0.666356 -0.402944
3418 1 22.7969 19.0131 13.2853 -0.555289 -0.847505 3.24914
3420 1 -18.2146 11.2776 7.61181 -0.848154 0.188476 2.01615
3421 1 10.4406 17.4957 -13.2193 0.773777 1.08947 -0.723131
3423 1 -13.4695 3.40679 1.24824 -3.72135 -0.765494 -2.01034
3427 1 -22.4815 13.107 -17.0118 2.63357 -3.33248 0.235878
3428 1 -5.94308 13.2761 14.6539 0.546788 0.25515 -2.09122
3432 1 -3.36506 10.13 8.44832 3.98947 -2.64782 1.87365
3434 1 13.102 16.2327 -9.41455 0.115918 -2.25012 1.37711
3435 1 -3.5645 21.6258 -13.4122 3.85383 4.5192 -5.14045
3436 1 -4.32887 7.93654 17.8852 -3.32375 -2.38222 0.0138793
3437 1 12.6259 15.7485 -6.59461 -3.79988 1.91494 4.56756
3438 1 -18.4431 11.6186 2.62714 4.0245 -0.302294 -0.396925
3440 1 3.10246 21.308 -6.71513 -4.5036 2.20742 0.589716
3801 1 3.70763 19.1374 -8.28248 1.3632 -1.60274 0.259687
3443 1 21.9384 2.25073 0.784534 -3.65209 3.1633 -1.49572
3444 1 -20.9009 13.3222 2.84724 1.40138 -1.27958 -4.04889
3445 1 -11.2803 0.298191 -9.55597 -3.40991 4.26894 2.96978
3447 1 -6.49943 3.62557 -6.07035 -4.77614 1.72043 -3.33627
3448 1 -19.268 5.02922 15.3887 -0.596952 -0.395593 -1.59955
3617 1 15.528 1.15367 -19.2666 -0.533259 1.36275 -0.775113
3928 1 -17.8214 17.8831 -23.7757 2.1623 -2.09572 2.0538
3453 1 15.0972 10.564 -20.3375 -1.67427 0.795043 0.0546255
3454 1 -21.0553 18.8641 10.2392 0.944281 1.11763 2.56264
3455 1 -17.5278 16.7038 20.3803 3.10275 4.79659 -3.15759
3927 1 12.0522 17.1997 -1.76774 2.32693 -5.72621 2.78178
3457 1 23.4757 15.6332 22.8043 1.74341 1.92483 -1.05078
3458 1 14.9962 6.51807 -22.6601 2.11021 -3.26199 -2.64097
3459 1 -2.16479 19.3531 18.8323 -0.94106 -2.49653 -0.608714
3460 1 0.535373 20.1747 17.9924 4.79179 2.40232 0.866875
3462 1 -11.25 20.9864 -6.56223 -3.44144 -2.80301 2.5846
3463 1 22.6803 6.35143 -23.8367 0.679476 1.3587 -1.30051
3466 1 -9.61131 0.22254 -7.11065 1.63895 -3.07786 1.36049
3467 1 14.0629 13.3033 14.4365 -1.52086 -2.17802 -4.76427
3472 1 -15.2935 7.03726 -14.7447 1.75713 0.519208 -1.95616
3934 1 21.795 3.08574 -14.6019 4.76832 -1.95223 -1.81577
3476 1 3.75055 13.8693 15.2137 -1.85146 0.282962 3.18647
3859 1 22.8986 19.1227 10.2985 3.2265 -2.48771 -3.22533
3482 1 19.0436 20.3804 -0.124073 -5.32823 1.47298 -2.93056
3483 1 12.6098 21.1267 -1.00844 -2.55624 -3.2275 -3.55802
3484 1 3.45086 12.4816 7.50147 3.52052 5.88659 2.37062
3485 1 1.94538 8.01088 -3.97841 4.25345 3.58578 -2.76757
3925 1 -22.2754 4.57087 3.37516 1.38067 -0.470412 2.23957
3488 1 17.2014 13.8141 -14.2503 6.61228 -1.10421 -0.89588
3489 1 18.0534 0.783254 -9.1304 1.01738 -1.13216 -2.96745
3490 1 -18.6633 4.67628 5.7461 1.09141 0.483639 -3.89207
3491 1 -9.09581 7.55014 -20.1901 -3.19425 2.15846 0.987273
3493 1 5.63051 11.0517 16.5023 -3.52308 -7.46178 -0.393072
3494 1 -16.5009 4.91507 22.8546 3.22561 0.475109 3.9302
3496 1 -10.0784 8.35729 -14.5477 4.2312 1.05389 8.06301
3497 1 -16.3682 11.5838 20.0034 3.71409 -1.28655 -2.78158
3498 1 -16.646 12.9135 4.56644 4.22635 -4.39568 5.42879
3499 1 -22.0177 22.4563 -23.3838 4.56618 -2.2496 -0.0282358
3500 1 18.4724 15.7942 -7.36451 -2.64139 -0.426064 -1.09779
3501 1 -18.71 17.4434 -6.66078 0.405839 -4.5808 -2.86404
3841 1 21.1539 3.42611 10.7528 -1.33291 1.93537 -2.8705
3506 1 -23.2406 19.6689 -4.8128 -3.42994 0.455801 -2.67382
3507 1 9.34919 8.96683 -10.1685 -1.04877 -1.92971 0.894704
3510 1 -13.5982 6.26921 15.058 2.85497 1.65139 0.630759
3511 1 13.9445 8.9972 -1.56624 0.229998 -3.47411 -1.33957
3512 1 -18.5351 3.31709 3.00333 0.024044 -2.32672 -0.739894
3514 1 -1.87363 18.885 -7.61812 -1.9196 -0.470232 -0.154636
3516 1 -20.0907 5.14892 -19.2336 -6.32106 1.52186 1.0439
3517 1 -7.85403 18.08 18.7512 1.26482 1.71404 -1.1464
3955 1 -6.90673 20.0855 11.4962 5.95462 4.23997 -4.60262
3519 1 -2.08427 5.27864 15.5748 -4.69631 2.83809 -2.22596
3521 1 3.05498 15.1552 -13.5328 0.413484 -0.845556 -0.420153
3522 1 23.355 17.0319 -22.9618 1.74619 0.124345 2.68718
3525 1 -15.9999 13.2814 -22.0471 -0.243326 -0.151418 -1.09284
3526 1 10.6985 17.7054 -6.60834 1.20514 -1.72374 -1.09964
3527 1 -1.13034 11.6486 7.47247 -2.46695 4.89889 1.69534
3529 1 -22.4511 9.77384 21.5293 -5.43995 2.26627 2.0841
3530 1 -11.4423 12.4368 6.589 -3.38305 -2.7884 2.45363
3531 1 5.33722 5.92474 22.3386 -0.00119645 -2.92464 0.227057
3532 1 -7.36644 13.1488 -6.6141 -1.48754 -2.23639 -0.790393
3533 1 14.4843 11.2191 2.21161 -1.13021 1.7558 -5.29582
3897 1 6.71519 12.9711 22.3125 -2.35112 4.09941 -0.832944
3913 1 -9.54737 4.24259 1.32831 -0.376833 6.45548 -3.24302
3540 1 -1.63812 12.734 -3.94322 2.09793 1.1642 2.89563
3541 1 12.4238 2.01687 -22.2671 3.79304 -2.78027 0.268201
3542 1 20.4448 1.52956 5.2791 3.04508 -1.79388 -0.29564
3543 1 -14.1648 14.7854 -6.78238 -0.363065 -0.612422 1.04639
3544 1 -7.68871 20.4588 -2.37285 -3.7451 2.88924 3.4367
3545 1 3.55347 22.1366 13.0466 3.78299 3.70274 1.48347
3546 1 20.2023 13.0534 -9.01483 1.15998 1.29263 0.245919
3549 1 -8.24025 9.64866 6.54135 -1.0459 2.55576 -0.275615
3550 1 -13.6484 17.8186 6.71318 4.97336 3.49176 1.47177
3551 1 14.3212 3.39761 -20.9303 -1.43192 1.90561 3.62634
3552 1 16.4215 19.0197 6.8071 -1.8936 3.87225 -1.67712
3553 1 -9.28223 16.7114 -3.8846 1.8261 6.139 1.82147
3554 1 14.5105 13.8981 -12.6946 1.52135 6.36064 -0.876982
3557 1 8.76174 8.1454 -17.8866 -1.82813 3.32863 1.9347
3560 1 -16.636 14.2263 -17.8941 3.48617 -1.32899 3.61519
3561 1 -17.8336 20.6706 3.81261 0.603688 0.707095 -3.28666
3562 1 18.271 11.8402 1.54108 -1.09536 0.633327 2.39652
3564 1 20.6591 12.0322 -14.2242 2.94488 0.362601 6.16544
3568 1 15.6016 0.405022 14.8221 -0.297873 -4.05394 0.475449
3569 1 -5.01063 4.51286 -12.0093 1.24254 1.78996 -1.65876
3858 1 16.9905 6.85808 6.37221 -2.38497 1.09802 -2.40432
3576 1 15.3453 4.76319 15.8475 -1.1688 1.81743 -1.25727
3577 1 -9.2254 6.33519 -4.14823 2.53202 -3.14055 1.73488
3578 1 22.35 8.29181 19.173 3.20347 -5.56113 0.178383
3581 1 -10.9245 9.85176 5.48101 -2.21726 -0.935801 -2.85694
3583 1 -16.7406 17.2993 6.5157 -2.15788 3.89593 -2.54462
3584 1 10.9246 5.07159 23.3479 -1.99912 -6.77406 -2.0631
2472 1 -20.0033 -0.36385 13.7109 -2.34082 -3.80345 2.43196
3589 1 -12.8729 1.55114 -7.54405 1.62504 4.47111 3.31158
3590 1 13.0576 1.28375 -6.88955 0.702783 -1.74577 -1.75621
3594 1 13.3826 -0.168471 4.61193 -6.11246 -0.976609 0.427689
3597 1 -3.85097 12.4687 4.52544 -2.79599 -0.305876 4.96252
3599 1 13.6863 11.4122 -5.18709 1.96057 -3.99033 0.100688
3954 1 3.34154 3.72065 -14.8093 -2.35856 3.00157 1.93825
3911 1 21.8133 20.2756 0.749281 -0.775534 3.97488 0.123305
3604 1 11.8157 12.2706 -23.1092 0.716877 -2.86642 -1.52863
3605 1 18.4576 21.3868 13.4973 -1.29079 0.273438 -0.213347
3606 1 3.83184 7.9635 -11.9566 -1.30273 0.359724 1.15846
3607 1 -18.8228 7.5639 19.5091 -0.552693 1.96692 -2.91402
3608 1 19.166 21.8498 -16.7167 2.68236 -0.176215 -5.4214
3610 1 14.5215 8.64525 23.7014 2.21294 2.35197 2.15326
3611 1 -17.8289 21.825 -15.9374 1.29215 -0.188514 3.37425
3612 1 -1.70438 16.4303 -5.93219 0.538626 -2.31018 -0.26528
3836 1 20.4935 11.4012 -0.27264 -2.86069 -1.7702 0.684717
3615 1 3.24689 19.4958 2.92921 -1.05816 -2.29226 4.75023
3958 1 -2.0473 6.4706 -5.58757 6.857 0.276788 0.818286
3619 1 3.20559 20.1053 7.19357 0.857119 2.66695 -3.37552
3620 1 -3.20825 13.5662 -9.55722 5.11608 -7.00705 3.98978
3621 1 -8.79132 12.8878 12.4812 0.296155 -2.39736 -3.0557
3626 1 -15.4692 3.25197 -6.97833 -0.474297 1.60531 -3.23818
3627 1 -3.65717 17.417 9.93125 -1.10786 -4.9867 1.78887
3628 1 10.1936 0.567832 7.87272 -0.806887 -2.66879 0.140551
3631 1 7.53204 10.2105 19.5181 2.98391 -0.843853 -5.29461
3633 1 8.8603 7.90916 -3.88405 -2.96236 -8.44557 3.21611
3634 1 -0.638585 4.12672 8.81918 -1.15539 1.18066 1.83347
3637 1 -4.45751 11.9158 23.783 -1.14245 -0.255351 -2.81882
3641 1 4.91657 11.6827 20.3758 0.439353 -1.99023 1.35045
3643 1 0.314088 6.22469 7.14058 7.50378 -1.91461 -0.747878
3644 1 20.4802 22.7654 -3.55488 -0.520859 0.463249 -3.94761
3646 1 16.83 3.56848 -18.3019 -5.99924 0.140429 2.90436
3651 1 -10.0155 6.21272 10.8406 3.42093 -0.504775 4.3706
3653 1 -1.54609 16.2111 -1.58521 0.679991 2.36937 1.78587
3802 1 7.51906 0.193384 -21.7833 0.756861 2.14614 -3.80568
3814 1 3.02935 10.1957 10.8477 0.403841 -4.71962 3.09218
3892 1 -12.6926 22.2214 6.30282 -2.13891 4.22908 -3.44758
3658 1 22.8253 15.986 16.4204 -0.381731 2.66321 3.45223
3659 1 19.9903 6.37837 -19.9518 -4.06427 6.63181 -0.512334
3660 1 15.7617 9.1208 9.51941 -2.42922 3.62715 -5.0174
3661 1 22.841 13.208 -18.302 -0.00169896 3.28813 -5.67808
3662 1 -0.841247 0.724978 -22.5222 1.69247 -2.75832 -2.15847
3664 1 7.62581 17.0987 12.3942 -2.69313 4.42998 0.767193
3667 1 12.0988 16.8151 -17.17 0.673342 0.0684181 -1.43986
3669 1 1.16992 21.4079 5.65632 1.18489 -1.44341 -2.12366
3670 1 15.5121 5.39692 -11.8105 -3.78461 2.13806 4.32152
3671 1 -1.13305 9.78759 -14.2505 -2.61191 -3.24123 1.04762
3672 1 -12.5572 11.7184 12.6155 -1.0502 1.11796 -0.757502
3675 1 -15.8768 21.8211 -7.80812 3.19415 -0.0813463 2.36581
3676 1 17.0106 13.2425 -9.48046 -4.19566 -2.14937 4.45366
3677 1 -7.10625 16.0061 15.131 -3.77387 2.09166 -1.22049
3678 1 -19.2231 7.75768 14.6768 -1.35999 4.98045 -0.0420364
3680 1 13.657 5.97402 23.1812 2.30555 6.22518 4.02795
3681 1 -7.40922 0.204989 15.1844 0.478073 4.49086 -2.23551
3683 1 3.92635 11.2812 4.9577 0.450545 1.14908 -0.147574
3684 1 14.5973 17.4616 -22.9035 -2.36276 -0.437167 1.43401
3686 1 -24.2018 9.65164 -1.44675 2.78576 2.83958 0.269822
3689 1 20.9893 15.2639 -17.2234 -0.532366 -0.999435 2.85678
3690 1 -9.18581 3.0479 -6.98801 3.13563 2.98682 2.85417
517 1 -15.6014 -0.322246 -22.4102 2.51138 2.39872 2.95692
3985 1 -12.571 20.0143 7.96046 0.425371 0.953203 -1.17642
3694 1 -20.7897 2.30379 -8.98686 -4.54122 4.38248 0.436976
3696 1 8.99556 1.15033 -16.269 -4.93236 3.18509 -1.46691
3697 1 9.76052 7.01979 5.40811 -2.07338 3.51367 0.134459
3698 1 -22.646 2.30137 15.4937 1.05283 -3.54632 -0.798206
3703 1 22.1061 12.9856 -21.3463 2.98624 2.05425 -2.51594
3976 1 -4.55527 13.7704 1.8251 -1.94632 1.33291 -6.43694
3706 1 -13.3947 3.45322 -15.0698 -2.12004 3.64686 -0.304277
3707 1 17.6585 6.88948 -15.4876 -0.468398 0.911134 -0.811529
3708 1 6.6131 1.42448 7.33442 4.06509 -3.87069 -0.0449261
3709 1 -18.9255 15.6059 5.99435 -3.40819 -1.80157 -0.740552
3711 1 -12.3175 11.8229 15.6926 -3.16188 -2.59588 -1.0838
3951 1 6.95124 2.50819 -14.5178 1.41636 0.100757 -0.674897
2615 1 -2.34828 1.21056 15.1176 -4.28784 0.360775 2.93976
3714 1 -12.1269 0.253825 19.8358 1.85421 2.71384 -1.89451
3715 1 20.8712 20.0593 17.1593 -0.350699 -4.74412 3.11976
3716 1 4.74233 5.31627 -2.29397 -2.5238 -2.23201 -0.210635
3717 1 -3.36228 14.9769 -17.3474 -1.41843 -4.11372 4.02494
3718 1 -17.2463 7.70703 1.66216 -2.89569 0.167869 -1.05246
3719 1 -0.694778 13.5989 -6.56958 3.09367 -7.28752 4.81748
3720 1 16.2782 17.3227 16.0858 3.95616 1.19955 -0.960056
3721 1 -0.294935 19.771 -9.85334 1.93236 -6.19191 -2.82351
3723 1 7.15614 4.53132 -16.6645 4.06285 -5.62363 -0.901391
3334 1 -20.9693 22.7384 15.8637 1.79777 -1.57869 -3.47291
3725 1 -13.3133 21.7671 -4.31663 -2.67188 -3.05062 0.6649
3732 1 20.8275 19.1888 6.02532 -4.46863 0.627418 -3.45119
3734 1 14.4173 12.5755 -8.47698 -0.119396 1.01354 3.25088
3735 1 -7.05799 21.3277 0.254152 1.28039 -4.45217 -2.07759
3736 1 -22.1515 14.56 -10.1213 0.367865 -3.58714 -0.249087
3737 1 -3.15166 5.71212 1.11808 -2.16893 -5.0165 -0.405192
3741 1 -17.8813 11.647 -6.1299 0.446371 -2.46312 2.72259
3744 1 -17.2528 17.4262 0.989722 -0.432375 -5.04119 1.55097
2008 1 -8.29843 22.6675 11.9358 3.4069 -1.08163 1.15398
1821 1 21.0506 22.9835 10.9923 1.09055 0.895187 1.77298
3752 1 -19.5542 14.2018 -17.3887 -0.0845322 4.49658 -3.29392
3754 1 -11.7553 7.19209 8.7091 2.78737 0.634165 -0.220698
3755 1 17.5409 5.33878 -7.71978 -4.56851 -0.128962 -0.330955
3880 1 -6.9892 18.5011 -21.9631 -0.393757 -1.42303 2.27676
3759 1 -11.7075 7.81694 -20.8199 1.78377 0.714791 -1.9896
3763 1 11.7553 10.3484 6.35447 3.01156 -0.640477 -1.86063
3766 1 -10.6697 21.4528 13.033 1.17366 0.396367 6.06063
3768 1 -0.387519 6.67224 -18.0172 1.86705 -1.47141 -0.145722
3771 1 -15.1105 19.6691 19.9371 2.56015 1.61224 2.16738
3774 1 -8.48527 11.8317 3.0316 -2.63263 7.83669 2.67132
1679 1 -8.76769 22.9188 20.4151 4.56369 -2.7458 4.39394
3486 1 17.1853 23.0572 18.1567 -0.239388 0.434224 -2.66505
3693 1 5.91295 22.9579 -2.03565 -0.736709 2.33617 0.18696
1165 1 18.2158 22.7462 -1.46612 0.693529 -1.2125 3.62388
2554 1 20.4961 22.961 -8.82725 -1.41764 1.96056 -3.52606
1397 1 5.26674 23.1082 -7.37898 3.31318 0.457813 -2.85684
1878 1 22.2385 23.1151 1.10241 2.59662 -1.21881 3.32441
275 1 12.2709 22.4305 -22.0545 2.46851 4.34185 0.0506127
2935 1 8.62076 23.0513 0.540978 -3.79705 0.995325 -4.23441
2731 1 23.3559 22.8987 -7.75247 -0.434627 -0.701145 0.0688555
3712 1 18.0878 23.1168 -7.437 1.45652 0.884698 -2.54236
2810 1 6.98303 23.0981 -14.0866 0.807405 -4.18328 3.61273
354 1 10.1481 23.1705 -7.04361 3.58798 -2.46027 -1.28949
3600 1 -19.1093 23.1427 -10.865 -4.95788 1.58946 -1.41472
2820 1 -17.161 23.157 7.51669 0.600561 -1.39678 -1.44095
1683 1 14.3444 22.8682 -17.5557 -0.141256 -3.54092 0.511743
567 1 -21.1487 23.2009 -3.75691 0.334981 -0.447539 3.00664
3282 1 3.99036 -0.586223 -14.2745 -3.37384 5.47622 -3.22811
1049 1 -22.4645 -0.661466 -12.3527 -1.8682 0.505239 6.03747
2679 1 8.74638 -0.592352 2.49742 5.44701 -0.74302 4.75112
2327 1 13.0411 -0.543931 -18.9257 1.8255 3.26876 2.22848
167 1 -14.6768 -0.548245 -1.75026 2.66642 2.48425 -2.24241
2268 1 12.0203 -0.6192 -4.86122 -4.32805 -3.86558 1.37851
809 1 -5.47044 24.8025 -17.7038 3.77413 -0.888656 -4.23462
963 1 -15.8647 24.5741 -13.3347 1.91925 3.78085 5.34324
103 1 19.593 25.0863 20.1429 -0.148616 -4.0932 1.35563
169 1 4.56765 24.3357 -12.5016 -2.32605 7.20461 -0.00388675
2851 1 -4.92224 23.4468 18.7536 -3.72461 -1.36899 -0.218972
194 1 -0.135452 24.2454 -20.9998 1.66049 0.368118 6.13127
4358 1 6.63643 46.0975 5.27955 -3.08127 2.06867 0.883982
4357 1 5.26821 43.7314 4.8762 0.920827 0.422336 -3.95242
805 1 9.90325 24.8394 22.7702 -3.47616 -1.83124 -5.61948
2321 1 -3.3257 24.6546 -23.9328 -1.3919 4.53008 0.851186
1355 1 -6.99446 24.1614 16.9919 2.0248 -0.823211 2.66463
2768 1 -4.08982 24.8432 0.0595521 -0.300435 -1.54201 -1.30083
4356 1 10.4869 44.5394 8.41154 -1.12573 1.22665 -2.12895
435 1 5.14704 23.9167 5.20527 -2.53939 0.811244 1.39019
2209 1 -23.6315 26.2728 20.7314 -0.0981745 2.38888 1.2168
379 1 -24.5239 24.3414 3.22408 -3.20901 1.03931 2.619
4354 1 6.55727 46.4191 8.1689 -0.33369 2.77143 3.39372
1715 1 11.8862 25.6503 16.4594 -3.95176 1.9095 2.97454
3284 1 14.512 23.3847 -20.4392 -1.13079 -0.208646 3.14968
4353 1 5.79951 43.9676 9.54081 -1.16227 -1.21153 -1.71905
1414 1 7.66325 23.8092 3.37928 1.56181 -6.86205 -3.28891
974 1 -0.6992 24.9582 -12.2921 -4.33638 -2.9544 0.766311
4360 1 10.3756 44.0463 5.44769 -1.0814 -0.733064 5.16205
1004 1 -24.0266 25.5252 7.32519 -3.01601 -1.65263 -0.707126
1374 1 -16.6896 24.7783 16.9927 -0.0293732 -2.68177 -4.72409
912 1 -17.0781 24.1812 -9.46075 0.745388 -0.880845 1.50953
443 1 20.5498 24.4134 13.3298 -2.22076 -3.59427 2.93095
968 1 -1.98571 23.6922 -14.5264 3.09815 -4.97532 0.348141
1503 1 8.51178 24.1234 -23.4091 2.46401 2.75898 1.1319
1220 1 -18.7731 24.5053 15.2021 2.73962 0.450222 -5.76842
3750 1 13.4214 24.3815 -15.3944 3.69156 -3.09469 -3.88254
2117 1 -23.4263 23.2393 5.69585 1.07537 0.153242 -1.83185
1701 1 12.4413 25.5281 -4.7894 4.70372 1.38054 0.916584
1705 1 -0.687776 24.2061 19.8642 -2.62766 -2.73347 -3.59832
646 1 15.2584 23.7137 14.8807 0.411128 2.35064 -0.587605
2056 1 -6.07923 24.0145 23.9946 -2.94854 -6.93461 1.94672
703 1 6.15192 24.8982 -22.5434 -0.385272 -6.21861 -1.48527
1981 1 18.715 24.3411 -4.88701 4.43738 -1.27292 0.468648
1964 1 21.3682 23.569 -15.6044 -2.05663 2.64595 -3.57161
3021 1 -19.0466 24.8805 -0.946511 -2.41577 1.12435 -4.26635
3122 1 -13.0612 24.5255 20.9149 3.11997 2.59753 0.125306
2284 1 -20.6041 24.8907 -23.858 -4.32684 -1.73718 0.325839
754 1 -11.9656 23.6783 14.2963 3.84409 2.34397 0.716757
4352 1 9.89896 44.1608 -2.21871 0.533018 0.182535 -1.40054
1593 1 1.30293 24.3259 -17.141 -0.212366 -7.60739 -0.587955
3143 1 21.1379 25.7221 -21.9355 2.87925 -0.394883 -2.09635
1115 1 21.6427 24.3237 23.9123 -0.442916 1.94373 1.43915
2462 1 -12.3619 23.646 2.45245 0.609295 3.75176 4.96911
4351 1 8.69753 45.9692 -3.8415 -2.36737 -2.39785 1.22387
1253 1 16.4768 24.1652 -3.14474 -3.09913 -0.205879 -0.282255
4350 1 6.34497 46.4572 -2.50103 3.89833 2.26419 2.31596
4348 1 9.66474 44.3246 0.612424 4.89502 -1.62532 -2.16515
903 1 -5.66585 24.1192 -20.3611 4.82427 0.190892 -0.910834
1767 1 10.4929 23.9198 18.3449 6.62061 -1.63296 4.82944
2493 1 19.263 23.3266 -21.3761 -0.942511 -3.55068 4.51755
3602 1 1.4615 23.2375 23.584 -1.05832 1.74274 -7.29912
4346 1 5.85519 46.6525 1.66784 -0.108869 2.53236 -0.416849
2344 1 13.3588 25.3048 2.79871 -3.11917 0.84045 -0.297194
2553 1 0.94976 23.5949 15.5457 2.88679 1.15984 6.88932
3063 1 10.6561 24.6561 -15.4318 -6.31097 -2.88587 -1.35103
2197 1 17.3128 23.7773 20.7787 1.38482 6.38769 -2.80332
4349 1 4.86073 44.107 -2.952 5.56249 -2.08712 -1.79541
1468 1 20.1267 23.6142 17.74 -4.1542 4.47461 3.15049
413 1 -24.3442 23.7377 -1.09785 3.12853 1.82725 3.34809
1886 1 20.0056 23.956 8.699 1.89556 2.42683 4.18221
1516 1 -10.5411 24.4338 -23.221 0.381401 0.865612 2.95032
3789 1 19.9201 23.9953 -13.2872 0.797952 -1.90172 -0.765407
3885 1 12.9435 25.0026 13.6828 0.418684 0.210253 0.31424
3524 1 1.49788 23.2828 0.198695 0.452638 1.52305 -2.73544
4001 1 -11.0114 25.3531 -4.35209 -2.83033 3.07257 -0.961982
4002 1 -9.6957 27.5091 -5.6827 3.54899 6.38219 0.177075
4003 1 -7.12591 27.4429 -4.46376 -2.90276 -4.49612 -5.36538
4004 1 -5.64444 25.2205 -5.56964 0.365183 2.07113 -1.94038
4005 1 -10.5999 24.7487 -8.98208 3.5432 -3.79189 3.36794
4006 1 -9.72139 27.1541 -8.47403 0.944987 -1.98544 -2.1856
4007 1 -6.98039 27.2115 -8.64471 -0.981355 0.522201 -6.47406
4008 1 -5.85544 24.7206 -8.23662 -2.06409 2.78878 1.27187
4009 1 -9.8341 25.0256 3.06667 1.08487 -2.92226 2.18947
4010 1 -8.99405 27.5145 2.50789 -0.859633 -0.427194 -4.39889
4011 1 -6.40414 28.0278 2.79378 -0.443948 1.4576 -5.86507
4012 1 -4.98875 25.6032 2.77886 -0.778349 1.03597 -1.4697
4013 1 -10.2216 25.2873 -1.71662 -2.90314 0.848879 -3.26396
4014 1 -8.78676 27.253 -0.291078 -3.44123 -3.16891 -0.607123
4015 1 -6.3838 27.9192 -1.88372 -0.433283 1.11979 2.78246
4016 1 -3.84842 26.4694 -2.22452 0.126612 0.443241 -0.152084
4017 1 -9.6718 24.6008 10.3579 1.80189 0.116976 1.41168
4018 1 -8.0238 26.8265 9.6 -1.12189 2.28893 -1.00752
4019 1 -5.62725 26.9622 8.64098 0.894459 1.04343 -0.376306
4020 1 -3.37728 25.3038 8.30435 3.35829 -3.87406 -1.20821
4021 1 -10.0713 25.6243 5.79936 0.486016 4.17921 -2.08492
4022 1 -8.8649 27.7865 6.97844 6.70759 -2.81312 0.332459
4023 1 -6.31841 27.832 5.82285 0.394438 0.958072 -2.42909
4024 1 -4.96481 25.2297 5.74643 -1.94439 1.01165 0.952901
4025 1 -9.88445 29.7004 -4.11116 -1.24978 1.41559 0.245985
4026 1 -9.76758 32.1901 -5.11272 0.289093 -7.90132 -4.71752
4027 1 -7.15318 32.3847 -4.37536 0.0898441 2.67379 2.86589
4028 1 -5.8994 29.8932 -5.54993 -2.8388 0.210034 -4.98711
4029 1 -11.2199 29.4506 -8.30534 -5.04861 -3.62337 -0.172771
4030 1 -10.1202 31.9127 -7.80532 4.06295 -5.54897 -2.05679
4031 1 -7.49133 32.0733 -8.69891 3.04664 1.61493 2.56892
4032 1 -6.08697 29.8618 -8.29341 0.235318 -5.66635 -5.08209
4033 1 -10.3228 29.5952 3.48923 -1.52253 -2.00238 -2.92273
4034 1 -9.13514 31.9197 2.52721 1.80408 0.841948 -0.441335
4035 1 -6.5585 32.1121 3.26333 -4.30087 5.70796 -0.262881
4036 1 -4.94459 30.1567 1.84061 5.23191 0.904729 -2.3938
4037 1 -9.67667 29.7556 -1.42183 -0.906309 -0.365619 -2.36672
4038 1 -9.37721 32.2296 -0.237734 -1.00828 0.773407 -0.417505
4039 1 -6.91227 32.5805 -1.6312 1.33091 1.86729 -1.42392
4040 1 -5.34849 30.3871 -0.975817 3.55987 1.18514 -4.27393
4041 1 -9.10951 29.0421 10.9303 1.0658 5.18241 -2.17191
4042 1 -8.09625 31.4122 9.85096 -3.06036 -3.27927 -3.19659
4043 1 -5.46064 32.2701 9.83793 2.3201 2.27923 -1.28057
4044 1 -4.46773 29.7357 9.25173 -2.01569 -2.46452 -0.799599
4045 1 -9.97015 30.1488 6.16547 1.0949 -4.49387 3.22879
4046 1 -8.65398 32.5422 7.24547 -7.47317 -7.68818 -1.95729
4047 1 -6.0765 32.3995 5.90471 5.9425 0.0317263 1.65014
4048 1 -4.77772 30.1039 6.43963 -3.97625 2.92117 0.300821
4049 1 -11.0791 34.3295 -3.85638 -0.805384 -3.16117 -0.316671
4050 1 -9.72097 36.2436 -5.26766 -2.25365 -0.873245 1.28474
4051 1 -7.00856 36.5557 -4.21837 0.848582 1.00074 1.34353
4052 1 -5.62121 34.3778 -5.2747 -0.139671 3.2671 5.93726
4053 1 -11.3569 34.0878 -8.8727 -2.78319 -1.37108 3.7744
4054 1 -9.76856 36.3298 -8.12562 1.27853 0.178704 -3.57722
4055 1 -7.26278 36.5103 -8.96972 -3.50513 1.32815 1.45555
4056 1 -5.98801 34.2775 -8.10141 -3.10693 -5.33774 -6.8234
4057 1 -10.6306 34.3027 3.22781 -3.60624 -3.11206 0.162306
4058 1 -9.30972 36.7116 2.75113 -2.62918 -1.45096 2.63656
4059 1 -6.68199 36.8664 3.28686 1.10554 2.04021 4.15656
4060 1 -5.12924 34.6057 2.53672 0.571224 2.39416 -4.73741
4061 1 -10.8087 34.5041 -0.971683 2.62075 1.9573 1.0907
4062 1 -9.29135 36.8124 0.00689295 -1.84747 -5.13147 3.02447
4063 1 -6.86246 36.8231 -1.37814 -9.19539 -0.499925 0.549106
4064 1 -5.18556 34.6192 -0.375407 -2.79469 -2.80877 -8.97764
4065 1 -9.56612 34.1365 9.61505 -2.74328 1.47929 0.90316
4066 1 -8.64465 36.8233 9.56954 -2.19875 -5.3607 -4.90284
4067 1 -6.05499 36.8483 10.2735 -2.56847 -3.63025 0.318495
4068 1 -4.35348 34.822 9.36539 1.96794 7.58799 2.6806
4069 1 -10.1915 34.4574 5.91983 0.656084 1.64658 -0.187243
4070 1 -8.98962 36.6729 6.59096 5.81755 2.21478 -3.23717
4071 1 -6.34516 36.9754 6.01972 2.67521 3.78609 -2.3166
4072 1 -4.51737 34.717 6.58678 1.34205 2.37011 -1.05203
4073 1 -11.0305 38.4079 -3.96701 -2.98778 2.41692 -3.66529
4074 1 -9.80017 40.7545 -4.981 1.3344 2.76723 0.440318
4075 1 -7.29304 41.0279 -4.14078 1.51051 4.55351 2.7063
4076 1 -6.027 38.8387 -5.27418 0.129486 -1.4472 1.49539
4077 1 -11.1465 38.6953 -9.11977 1.14507 1.06035 -1.42262
4078 1 -10.0549 40.6746 -7.66174 2.85946 -3.26335 1.25625
4079 1 -7.57665 40.6607 -8.77905 -0.594726 1.67031 -4.54494
4080 1 -6.00282 38.6844 -8.05985 0.738757 0.674174 2.0877
4081 1 -10.3412 39.0975 4.00294 -3.2787 4.05699 -0.629945
4082 1 -9.30764 41.235 2.53076 -3.6626 -0.901015 0.253331
4083 1 -6.57037 41.3436 3.38454 -3.98421 0.920979 1.8056
4084 1 -5.38051 39.182 2.19337 -0.192656 -3.43966 5.40711
4085 1 -10.7856 38.7084 -1.01004 3.42126 2.984 3.399
4086 1 -9.59054 41.1506 -0.282215 -4.18854 5.08631 -1.62175
4087 1 -6.78411 40.9319 -1.49002 2.56414 -1.53261 -0.435772
4088 1 -5.23681 38.8741 -0.464825 1.04256 -2.92207 -3.33902
4089 1 -9.70801 39.1841 9.59885 2.2696 1.35783 0.935814
4090 1 -8.61728 41.7135 9.82629 3.30296 0.280073 -4.41545
4091 1 -5.90649 41.5768 10.6659 -0.601846 1.19081 2.23428
4092 1 -4.53917 39.2989 9.62765 4.32857 0.207187 -1.00928
4093 1 -10.0696 39.0952 6.70779 1.85617 5.72727 -3.75308
4094 1 -8.96709 41.5304 6.94767 -0.907639 5.09864 -6.48193
4095 1 -6.17911 41.3995 6.18766 -0.691194 -0.223965 3.25326
4096 1 -4.63066 39.0869 6.83882 -1.70795 -0.809828 1.40837
4097 1 -11.3324 42.8811 -4.50891 -0.910163 -0.6248 2.1267
4098 1 -9.84634 45.3269 -5.8166 -2.05119 -0.294514 1.79713
4099 1 -7.48369 45.6544 -4.33677 3.6878 2.41214 3.5653
4100 1 -6.21696 43.3334 -5.30142 3.44671 2.30093 -3.91066
4101 1 -11.089 43.2081 -8.52778 2.67453 -1.72286 -1.43057
4102 1 -8.56048 44.591 -8.21792 1.33106 -1.00046 1.33222
4345 1 4.97064 43.8756 2.14093 1.14485 -1.03969 -2.67159
4104 1 -6.19478 43.0809 -8.26879 -0.875815 1.89977 4.0606
4105 1 -10.5483 43.6213 3.96201 -2.34352 -3.22513 -2.77562
4106 1 -9.56595 45.6809 2.34381 -0.967349 -2.18053 3.53834
4107 1 -6.7738 46.0546 3.17991 1.77332 2.06841 -0.59526
4108 1 -5.7785 43.7865 2.0524 -0.958555 -0.988573 3.20491
4109 1 -10.4531 43.3115 -1.88437 -1.48326 -4.13309 -4.27027
4110 1 -9.89322 45.7952 -0.317264 1.25223 0.483191 2.51409
4111 1 -7.31365 45.3789 -1.62154 -3.72247 1.06578 0.734344
4112 1 -5.54846 43.4388 -0.669897 3.069 -2.61447 -3.6526
4113 1 -10.2952 43.914 9.55867 0.455457 3.55042 0.170273
4114 1 -9.26453 46.3915 9.9593 -1.72601 -1.89081 -1.03653
4115 1 -4.23065 46.6622 10.0716 4.23527 1.91354 4.28633
4116 1 -4.48703 44.064 9.29091 -2.16316 -1.4401 -1.1052
4117 1 -10.4769 43.8292 6.7135 -0.722264 -7.02967 -2.48502
4118 1 -8.78418 46.146 7.11478 0.366301 -3.70109 -3.41253
4119 1 -6.26208 45.8904 6.13772 1.1382 -3.11623 -1.5678
4120 1 -4.90247 43.7206 6.67939 5.01675 0.0462927 -0.951205
4121 1 -2.91835 25.3127 -4.57726 -0.424334 -3.01705 0.31529
4122 1 -1.93451 27.5885 -5.8661 4.30568 -3.74917 2.12238
4123 1 0.698478 27.73 -5.00842 -1.96591 0.223366 1.01192
4124 1 1.94589 25.4749 -5.87843 -3.44021 -1.35167 0.260081
4125 1 -3.04964 24.7994 -8.64296 1.09592 -0.780301 1.93614
4126 1 -2.0132 27.3424 -8.59805 -0.413896 0.731474 3.05189
4127 1 0.607966 27.2718 -9.53719 4.69162 -0.26264 -0.519784
4128 1 2.20039 25.1448 -8.68024 -5.50841 -2.28065 0.790709
4129 1 -2.0464 25.0393 2.90209 4.21416 -0.326241 1.0782
4130 1 -1.41047 27.5261 1.78081 -0.693616 -2.78035 -2.60672
4131 1 1.28752 27.7493 2.22473 5.96034 2.53068 -2.26768
4132 1 2.97728 25.6043 1.31592 -0.474009 -3.04689 1.55012
2243 1 10.8064 23.7349 -10.6017 7.13064 -4.45644 -4.95055
4134 1 -1.68421 27.9076 -1.04874 2.25594 -1.44068 5.30623
4135 1 0.923447 28.0981 -1.97497 -0.00153093 -6.2982 -0.583314
4136 1 2.21346 25.7066 -1.69672 0.818847 -1.11383 -0.471109
4137 1 -0.882066 25.3475 9.1996 -4.77182 -4.31899 -1.34271
4138 1 -0.100877 28.0633 8.92452 1.62937 -4.04973 2.24004
4139 1 2.59683 28.0065 9.16871 -0.598742 3.46691 -2.87642
4140 1 4.01732 25.7135 9.14327 -5.59366 0.564024 -1.15162
4141 1 -2.07996 25.5964 5.61111 2.46006 -1.5751 3.80054
4142 1 -0.647646 27.9972 6.29949 -4.75728 2.60642 -2.52634
4143 1 2.02356 27.9737 4.96839 4.94438 -0.940045 5.00917
4144 1 2.92979 25.6024 6.55945 2.98547 0.532852 -2.40757
4145 1 -3.2815 29.8772 -4.72579 0.442182 -0.921206 2.19432
4146 1 -1.68035 32.2246 -5.61198 1.10383 2.02526 -1.24505
4147 1 1.14804 32.2468 -4.75569 -2.05256 4.30186 -1.89776
4148 1 2.26826 29.875 -6.33334 -0.955791 -4.67103 -1.17684
4149 1 -3.30396 29.8168 -9.35306 3.0605 -0.161506 2.66738
4150 1 -1.95538 32.1465 -8.34302 -5.80082 -1.8063 -2.68286
4151 1 0.233602 32.2161 -9.82581 -1.46194 -1.32792 0.963736
4152 1 1.94584 29.8487 -9.02463 -1.70581 -2.82255 -3.29647
4153 1 -2.32526 30.0548 2.68303 -3.94961 0.683341 1.22162
4154 1 -0.872978 32.2351 1.73189 1.17524 1.90487 6.65714
4155 1 1.744 32.4713 2.23957 2.8076 3.75879 -1.03132
4156 1 2.82691 29.876 1.45217 -1.24424 -2.30883 1.09455
4157 1 -2.82316 30.3958 -2.0136 0.124101 0.882676 -2.53873
4158 1 -1.18918 32.2617 -1.07243 -6.90227 -1.48909 0.738612
4159 1 1.42679 32.3227 -1.93125 0.265692 2.93914 -1.18027
4160 1 2.68894 29.8731 -1.42596 -1.51568 0.3974 4.0327
4161 1 -1.86759 29.9012 10.0859 0.306443 3.30859 -3.22241
4162 1 -0.849975 32.3014 9.28243 -2.2325 -5.13138 2.49437
4163 1 1.89834 32.3392 9.04701 -0.0689886 4.1894 -2.43672
4164 1 3.9251 30.2381 8.4499 0.26555 -4.17621 -3.31665
4165 1 -2.14583 30.11 5.43043 -3.81667 -1.73926 1.68131
4166 1 -0.724068 32.178 6.56997 0.470194 3.52916 5.15993
4167 1 1.64476 32.3791 5.23268 0.297522 -0.806632 2.44567
4168 1 3.21822 30.3252 5.84549 1.8371 -1.84435 -2.47847
4169 1 -2.95073 34.422 -4.46547 3.23775 -3.22678 -0.589975
4170 1 -2.08312 36.6631 -5.66339 0.547088 -1.18865 1.43564
4171 1 0.60573 36.8923 -5.27826 2.23774 3.40823 3.34853
4172 1 2.16824 34.6269 -5.86983 -1.86713 2.3499 2.51773
4173 1 -3.43945 34.3277 -9.1524 -3.00274 2.86021 2.09359
4174 1 -2.02764 36.5391 -8.43263 -3.37377 -0.619541 4.01789
4175 1 0.555399 36.61 -9.25019 -4.67247 4.1913 2.20249
4176 1 1.82225 34.3075 -8.8455 -1.04639 1.77862 -1.41904
4177 1 -2.16431 34.2911 2.71076 0.531189 -1.92048 0.269578
4178 1 -0.915768 36.8286 1.8991 -0.995209 -1.55832 1.77781
4179 1 1.82173 36.9327 2.71833 0.409326 3.31177 2.96041
4180 1 3.0874 34.7592 1.50119 1.50136 5.84125 1.00065
4181 1 -2.76815 34.7513 -1.57748 2.02417 -0.775528 0.202238
4182 1 -1.16624 36.8596 -0.887415 1.61608 -0.726535 -5.51122
4183 1 1.15312 36.8422 -2.44135 7.3716 3.80436 3.10058
4184 1 2.75397 34.7871 -1.14647 -5.84135 -0.182452 5.6552
4185 1 -1.64397 34.7626 10.313 -3.45223 -1.69234 3.65016
4186 1 -0.436382 37.2311 9.36653 3.05669 0.656039 0.284983
4187 1 2.25493 37.2339 9.91825 -5.40902 0.800353 1.59915
4188 1 3.35707 34.8694 9.17744 -0.839989 2.61332 -0.719009
4189 1 -2.05196 34.4574 5.58158 2.31567 4.15922 -4.0977
4190 1 -0.65692 36.6813 6.63307 0.391616 0.47156 -2.50314
4191 1 2.03376 37.1451 5.54819 -2.73757 2.20285 -1.98263
4192 1 3.00947 34.6825 6.38297 1.95305 -1.46936 0.664594
4193 1 -3.23506 38.8093 -4.54541 0.319971 -1.70609 -1.56066
4194 1 -1.96339 41.3307 -5.44239 1.25109 2.21558 0.415625
4195 1 1.03294 41.8199 -5.34222 -0.965612 -3.81391 2.92529
4196 1 2.0418 39.1688 -6.17766 -0.824057 4.66852 0.315644
4197 1 -3.37534 38.9122 -8.92607 -7.93756 2.43751 -1.65959
4198 1 -2.00927 41.0901 -8.18434 -2.29015 -2.60842 0.10917
4199 1 0.331603 41.2418 -9.60333 -0.259272 4.31624 2.50481
4200 1 2.04814 38.937 -8.87672 2.24035 -0.960265 5.53001
4201 1 -2.53783 38.9588 2.75535 5.45804 2.28166 0.923604
4202 1 -1.50507 41.4141 1.70826 3.5605 1.85599 4.11287
4203 1 1.25084 41.7529 1.97304 -2.56359 2.28038 -0.441831
4204 1 2.37194 39.3031 1.15768 -0.407737 -0.788809 -2.70025
4205 1 -2.92813 38.9183 -1.8842 -3.36418 -2.76516 1.81578
4206 1 -1.55341 41.2991 -1.12624 -3.75415 -2.13162 -1.43409
4207 1 1.14702 41.4905 -2.55355 1.17314 1.19618 2.565
4208 1 2.56885 39.0663 -1.72211 10.6518 -1.69196 1.80052
4209 1 -1.74104 39.2753 10.258 -1.92515 -1.01186 -0.551878
4210 1 -0.407938 41.134 8.90882 -5.36499 -3.61886 -2.84341
4211 1 2.18861 41.4105 10.1502 -5.02263 0.435789 2.63255
4212 1 3.60717 39.4171 8.71454 1.38193 -4.64543 -2.89453
4213 1 -2.13441 38.8272 5.71674 -5.25435 0.0105531 -4.47928
4214 1 -1.22661 41.4526 6.27139 2.43527 2.00141 2.96948
4215 1 1.27535 41.6302 4.93161 -0.763358 1.55894 5.28434
4216 1 3.01277 39.777 6.09873 1.49364 3.13252 -4.24468
4217 1 -3.36771 43.657 -4.34923 -1.96063 0.6347 2.66973
4218 1 -2.0219 45.6086 -5.94024 -0.275329 -2.73173 -0.440786
4219 1 0.734544 46.3417 -5.45819 -1.49267 0.165232 1.50443
4220 1 2.1472 44.1976 -6.28357 3.45729 0.38054 5.7849
4221 1 -3.5101 43.4613 -9.23435 4.30105 -2.25892 1.14145
4222 1 -1.97788 45.7673 -8.7541 0.961981 -0.0227692 -3.67062
4223 1 0.512685 45.8897 -9.72132 0.801987 2.24389 3.34767
4224 1 2.10047 43.3566 -8.93176 3.99447 -3.85872 -4.58778
4225 1 -3.01492 43.5516 2.46275 2.1069 3.6871 3.514
4226 1 -1.54483 45.8932 1.41129 -3.52162 -3.85263 -0.425779
4227 1 1.18794 46.0484 2.32898 -2.40967 1.2038 2.24984
4228 1 2.4039 44.052 0.98403 -0.615791 3.06698 -2.55874
4229 1 -2.98355 43.6893 -1.55162 1.3206 -3.23509 -0.418961
4230 1 -1.72715 46.0993 -1.20608 0.744199 0.00837761 2.45932
4231 1 0.769369 46.1038 -2.55451 0.883935 3.15193 -1.53584
4232 1 2.2652 43.9237 -1.76759 0.864578 2.35453 -4.32285
4233 1 -1.84145 43.5678 9.71447 0.420495 -1.39747 1.47307
4234 1 -0.580281 45.7813 9.24758 3.97913 -4.31862 5.79269
4235 1 2.15523 45.9201 9.62393 3.29871 4.83403 5.59461
4236 1 3.09505 43.5771 8.50146 -4.62932 0.171202 -6.0808
4237 1 -2.3806 43.6631 5.31227 -0.0803753 3.07885 -0.601693
4238 1 -1.06888 45.925 6.24863 -2.88612 2.25623 3.15722
4239 1 1.48086 46.1092 5.07891 1.31679 2.22769 2.9825
4240 1 2.74596 43.7425 5.89876 -4.26566 -2.44543 1.27141
4241 1 4.69314 25.4766 -5.58557 4.98036 -4.20387 1.79513
4242 1 6.15153 27.8376 -6.20643 -3.09618 0.927263 4.46132
4243 1 9.04507 27.9245 -5.98373 -1.47155 2.12368 -0.0751788
4244 1 10.6816 26.0757 -6.92617 0.969231 0.419745 0.800537
4245 1 4.93677 25.5729 -9.65873 1.02014 3.40097 2.25263
4246 1 6.18858 27.8822 -9.1152 4.06688 2.69219 -0.622888
4247 1 8.65964 27.9553 -10.2338 -0.698578 -0.362375 -0.863289
4248 1 10.8559 26.2861 -9.67111 4.13709 -4.58856 1.42212
4249 1 5.6407 25.8476 2.25886 -1.75662 -1.56295 2.62951
4250 1 7.01738 27.845 0.930042 -2.91183 -1.1815 -0.69077
4251 1 9.51824 27.7513 1.54738 1.43102 -0.22022 0.484093
4252 1 10.4469 25.2848 0.548863 5.18427 3.85362 0.0351842
4253 1 4.86845 25.4397 -2.73039 -5.03486 0.0189016 -0.629091
4254 1 6.5515 27.5452 -1.90151 -1.28436 -1.9116 -1.60613
4255 1 9.09854 27.9305 -3.09624 -1.15631 0.95609 -3.4647
4256 1 10.5934 25.6127 -2.43714 0.500449 1.23966 -2.93699
4257 1 6.79511 25.3908 8.76363 -7.43943 3.99582 -0.290696
4258 1 7.76917 27.9443 8.65225 -3.29212 -4.84991 1.65178
4259 1 10.6771 28.1935 8.99592 -1.32583 2.98409 2.43764
4260 1 11.5121 25.756 7.89333 -4.12131 -4.19059 0.298471
4261 1 4.80815 26.7894 4.67321 7.00513 -2.94753 -0.498304
4262 1 7.06879 28.1735 5.80705 -3.43126 0.86207 -3.82435
4263 1 9.65156 28.2082 4.2709 -3.47007 -3.01546 0.887186
4264 1 11.5051 26.1207 5.02238 -1.09162 2.31774 4.91141
4265 1 5.07985 30.1577 -5.26953 2.42367 2.33659 0.987862
4266 1 6.15963 32.4631 -6.38754 -0.96856 -5.58866 -3.5115
4267 1 8.89592 32.6481 -5.74406 -2.75342 3.24782 0.652488
4268 1 10.1307 30.5058 -6.93114 -1.07855 -0.902999 -1.12943
4269 1 4.7025 30.1526 -9.73136 1.51923 0.046671 4.58672
4270 1 6.16824 32.387 -9.04591 0.431725 -4.89348 1.29
4271 1 8.50713 32.5132 -10.4606 -2.1489 1.85034 4.29699
4272 1 9.95078 30.3304 -9.7892 -1.75249 -5.04926 3.76189
4273 1 5.42158 30.2545 2.11995 0.15755 4.87763 1.07393
4274 1 6.47284 32.5931 1.16988 -0.691343 -2.57393 -1.2595
4275 1 9.19943 32.5002 1.58615 5.86346 -2.80805 3.28316
4276 1 10.6785 30.2492 0.766379 1.25185 0.300527 3.73498
4277 1 5.18218 29.9715 -2.49199 -1.59803 2.97356 4.52003
4278 1 6.31632 32.4417 -1.63433 2.27737 -3.09994 1.30896
4279 1 8.73627 32.4164 -3.02526 -4.0407 1.89064 1.4221
4280 1 10.3015 30.0246 -1.99938 3.85633 -0.71239 -0.704884
4281 1 6.68803 30.3371 8.91222 -0.292637 2.03437 -2.6151
4282 1 7.5715 32.7373 8.45904 -1.50588 -4.19859 -1.57867
4283 1 10.2218 32.8109 9.16377 1.82586 4.25989 2.57301
4284 1 11.6751 30.722 8.16353 -7.78865 5.21724 1.30374
4285 1 5.76103 30.5243 4.80036 -1.30481 -0.351993 6.2524
4286 1 7.16392 32.6874 5.73155 3.51272 -1.00249 0.607944
4287 1 9.50787 32.9387 4.47729 5.50284 -1.57966 -1.86447
4288 1 11.0354 30.6893 5.21067 0.219596 2.76045 0.975806
4289 1 4.84353 34.8694 -5.5124 2.39881 2.68318 0.522727
4290 1 6.13847 36.9086 -7.00197 -3.68636 -5.16712 -1.46226
4291 1 8.84969 37.4566 -5.9562 2.40977 4.7867 1.159
4292 1 9.87995 35.0982 -6.79069 0.976269 -4.57393 -4.61003
4293 1 4.39892 34.4955 -9.64108 -0.970963 0.28373 2.61616
4294 1 5.68123 37.2286 -9.66976 -0.274186 2.64352 -1.08619
4295 1 8.36939 36.9524 -10.268 -0.364757 0.154593 -2.95843
4296 1 9.75448 34.7564 -9.60408 1.36806 -4.62978 0.324381
4297 1 5.64735 34.9857 2.33418 -3.70371 -2.96951 5.53449
4298 1 6.60139 37.1403 0.903565 -0.441625 -0.000562577 -2.3077
4299 1 9.36407 37.3535 1.90746 -0.943258 1.14932 1.4307
4300 1 10.0235 34.9075 0.487989 0.397235 2.2286 5.87435
4301 1 5.0917 34.5866 -2.78352 6.09626 -4.72947 2.46964
4302 1 6.29834 36.931 -1.82245 1.87226 -0.262961 -1.09605
4303 1 9.01448 37.2795 -3.17985 -1.56947 -0.335866 1.73996
4304 1 9.91949 34.7508 -2.31344 1.73791 2.88591 4.21827
4305 1 6.24944 34.8357 9.73193 0.0406032 -2.39902 3.58
4306 1 7.45019 37.2622 8.52173 -2.75384 0.596289 -3.03585
4307 1 10.2138 37.2234 9.49004 3.60374 3.9409 0.796486
4308 1 11.3752 35.0853 8.27541 2.89629 0.860609 0.0646571
4309 1 5.56038 34.9217 5.1462 -0.864708 -2.77384 -0.317167
4310 1 6.90845 37.2445 5.54636 -2.98435 2.2918 -2.29596
4311 1 9.61492 37.3082 4.77749 2.13352 -2.43426 5.13627
4312 1 10.9474 35.006 5.6061 0.0276658 -3.20205 2.23587
4313 1 4.90918 39.0587 -5.55072 -1.74504 5.0832 6.40038
4314 1 6.16674 41.4548 -6.51919 0.0507648 -1.2932 -1.73842
4315 1 9.01217 42.211 -6.27801 0.211135 -1.31802 0.648001
4316 1 10.017 39.7628 -6.73462 3.46401 0.0788394 -1.33203
4317 1 4.22548 39.4556 -10.5475 -0.0249459 -5.01684 -1.10058
4318 1 6.0828 41.1405 -9.43518 5.20393 0.752464 -1.78867
4319 1 8.75619 41.411 -10.9918 1.42636 -0.117195 1.8152
4320 1 9.5089 39.2757 -9.41882 -0.955744 -4.34388 -0.611857
4321 1 5.26815 39.2804 1.75879 -0.635962 -0.785372 -1.2949
4322 1 6.05114 41.6908 0.931514 1.01457 -0.538289 0.880664
4323 1 8.71158 41.9886 1.76039 -1.86603 1.90185 -0.384199
4324 1 9.42596 39.7518 0.496809 0.616972 1.15191 2.86922
4325 1 5.12251 39.3282 -2.70618 -1.6098 6.29856 1.73218
4326 1 6.29391 41.8986 -1.90284 -3.37585 4.70044 0.705902
4327 1 8.84532 41.5744 -3.35016 -2.95313 2.60143 -1.18842
4328 1 10.116 39.6292 -2.05223 -1.42778 -3.20228 1.92923
4329 1 6.16192 39.325 9.81813 -4.16976 1.74325 -0.74732
4330 1 7.05542 41.6772 8.70523 0.462225 2.79647 0.976795
4331 1 9.94817 41.8765 9.16955 3.03363 0.783358 3.59817
4332 1 11.3408 39.6346 8.18168 -0.455956 -0.375433 -0.250034
4333 1 5.37129 39.4437 4.71031 0.160335 0.934578 -1.15852
4334 1 6.52242 41.6655 5.96657 -0.0623254 2.95257 -6.67893
4335 1 8.98879 41.7029 4.51791 -1.79172 -0.148099 2.16129
4336 1 10.7611 39.7366 5.48011 0.723097 0.361238 2.4781
4337 1 4.69426 44.0038 -5.72748 -3.36001 1.62198 0.492101
4338 1 6.07442 46.0444 -7.23537 1.85153 -1.99246 -2.46178
4339 1 8.53734 45.1903 -6.3643 -0.297075 -1.46432 0.777509
4340 1 10.5711 43.9857 -8.1614 2.83199 -2.67881 -4.33444
4341 1 4.3445 43.3089 -10.1736 -3.18176 -3.35597 -3.22856
4342 1 5.82918 45.6081 -9.92566 -7.55483 3.38381 -3.2221
4343 1 8.54743 45.6288 -10.7834 -2.18285 2.61278 -1.87335
4344 1 10.5096 43.5961 -10.7697 2.55438 0.00659077 1.2373
25 1 6.79333 24.6324 15.6565 1.16744 6.78438 -0.319564
18 1 21.2441 24.7149 4.52528 0.0162826 1.90013 0.342852
2781 1 13.6774 23.8972 11.1623 1.10033 -1.44451 6.41325
3657 1 21.4035 24.8574 -10.7588 -1.20897 1.46585 -1.00535
3974 1 5.92497 23.9308 13.1156 -0.328899 0.350293 1.85908
2611 1 -21.8974 25.6133 -21.4771 -1.50375 1.80022 -1.06003
2349 1 -7.24822 23.4151 14.3427 1.37487 -2.6533 0.2922
600 1 -21.4419 25.5589 16.6664 1.27593 -1.66492 0.459766
2886 1 12.6403 23.3284 1.07766 -0.539913 -2.24224 -1.63242
1917 1 -22.677 24.2773 18.9679 0.615725 3.26795 0.76814
2508 1 14.5196 23.6006 -5.24921 -1.71239 -4.36218 -3.86559
2471 1 -3.16238 23.5748 -21.2717 3.22177 1.22788 3.59095
1482 1 4.06514 23.8758 -23.9948 -1.06458 -1.19275 3.3222
979 1 5.22086 24.8485 -19.9143 1.20158 4.6414 3.55711
1854 1 2.51615 45.7224 12.4234 3.2564 -0.528312 -1.00865
1537 1 -2.80257 24.1122 -17.0909 4.39483 4.60224 -5.72925
951 1 -10.4609 46.1345 -13.5487 0.0891285 0.495663 -0.505779
3473 1 23.5356 24.9789 -20.5897 1.75093 -3.52399 6.13305
212 1 -16.5727 25.1185 -2.46029 -2.13374 1.4756 -3.84272
2627 1 15.6148 23.8486 6.5388 -6.14531 -1.22549 -1.87218
604 1 -0.46083 25.0484 -23.6371 1.92823 3.52168 -0.551186
1352 1 5.91227 24.2863 19.9091 2.59472 0.984121 1.14934
1180 1 -11.1944 44.5971 -11.2542 -2.13109 -2.77293 -0.224641
3193 1 -19.7224 24.7618 1.94443 -0.966652 1.35927 0.0622136
1897 1 -12.5724 44.4815 -6.59214 0.279153 0.610238 -5.08975
3383 1 -20.8195 24.9829 -18.7724 -5.29752 2.62715 -3.53887
1823 1 5.16935 45.4004 11.9977 1.65492 0.211158 -0.796314
84 1 22.1348 25.1413 21.2745 -1.5394 -2.12819 0.725055
2701 1 -21.7054 24.8824 -1.49165 2.20325 -0.122596 -3.79382
3691 1 18.9564 46.6391 -6.44718 -2.46133 3.13952 4.6498
1110 1 -10.5504 23.7023 7.5594 7.04972 -3.5052 -1.21643
2582 1 13.3078 23.6614 8.08379 -2.69493 0.7767 -6.27617
1097 1 17.643 24.268 13.4403 0.885304 1.38068 -1.61085
1166 1 -13.9485 24.4327 16.4387 -5.62143 -7.97976 -4.09985
1122 1 -7.78813 23.3862 -1.80887 1.03026 -1.41007 -0.320186
3060 1 -20.771 24.099 -6.48443 0.202978 1.69937 0.902606
1839 1 21.4441 26.1159 7.44636 0.0183732 -0.0697196 -5.99362
1880 1 -0.772417 25.4981 -18.4392 -2.96588 3.32908 3.53736
288 1 16.0259 24.9421 3.72449 4.62834 -1.44607 -0.568138
3226 1 -24.187 23.7597 -10.6326 0.574374 -2.09062 0.161639
3292 1 -22.4207 23.4009 1.20635 -0.139876 -2.09756 -0.148396
769 1 14.5223 24.3024 17.6244 0.284651 1.75492 2.6036
2907 1 -16.9656 24.0491 -4.96739 -2.5091 4.47441 -0.300223
2853 1 -3.24219 23.89 21.2526 -6.12234 1.70601 1.81252
219 1 -6.25932 24.3714 21.2589 5.08351 -2.62205 5.76895
583 1 -21.2717 23.7735 11.7207 -0.310664 3.04711 1.41343
1734 1 -8.08385 24.2749 -22.2461 -3.34118 -3.93979 -2.84812
3571 1 2.99709 23.5724 10.6644 -2.33907 2.5676 -1.78898
2490 1 -9.689 23.5979 17.7883 -3.73859 4.99914 -2.10689
1358 1 -10.7579 23.5515 22.3941 -4.93054 5.06757 1.11575
2905 1 -15.6032 24.0667 21.4831 1.76335 1.16354 -0.249443
577 1 -7.07196 24.9964 0.575245 -0.387663 1.06132 2.1074
2773 1 9.68548 23.6961 5.19609 0.903169 -1.78704 -1.40406
1335 1 -14.194 23.9207 -15.7177 6.74939 1.44552 -1.98593
3480 1 -23.4767 24.6706 -6.16199 0.00800113 1.40863 0.129204
2232 1 -22.6846 23.6565 -17.2931 3.81621 1.91572 0.662259
3299 1 -14.519 23.5951 -6.17801 3.51476 -3.4713 -5.1321
4133 1 -1.38715 23.7892 0.245269 0.158812 -9.21483 0.841405
3795 1 14.4517 24.4306 20.4692 -0.086319 5.18305 -1.86531
1804 1 -3.33358 46.2985 -14.6569 -2.54928 1.31053 5.96741
2388 1 8.53025 23.5587 20.5956 -2.0351 -6.85233 3.92674
67 1 -14.4868 23.7481 -10.7478 -2.16505 3.66369 -2.27346
2092 1 -17.9996 23.6239 -23.2272 1.28339 1.51799 3.82283
1071 1 -21.6693 24.0568 -11.9223 5.86508 0.0661575 -1.97701
3182 1 -19.162 46.1182 22.3758 2.39244 6.10752 0.676012
3760 1 16.7786 23.955 0.929478 2.67086 1.87406 1.4184
2660 1 -12.331 25.3147 11.9929 2.5613 0.741142 -5.0258
19 1 -12.3299 23.5271 18.4576 -5.19432 0.0426581 -2.04039
3142 1 2.61301 23.7684 -19.4784 1.19984 -4.65938 3.61409
630 1 -23.2089 24.3319 9.75168 4.54094 0.824363 3.01432
104 1 -12.3129 47.0058 -10.0271 -0.333629 3.61274 0.226023
2729 1 -2.5063 46.524 -19.2041 1.26349 0.688352 5.80245
2500 1 9.16848 23.8766 8.19459 0.766624 0.70337 5.43313
732 1 10.902 46.6553 -7.2053 -1.19931 3.0599 3.41357
4347 1 8.59896 46.7915 1.45861 -2.6774 0.953795 -1.00335
997 1 -20.8296 25.8589 21.7577 1.16853 -4.04881 3.22021
395 1 -8.84682 46.6985 21.9136 4.37184 -0.545046 0.835899
2076 1 -13.2528 24.7539 -8.33799 -0.965899 2.61435 -1.12848
2114 1 -0.393697 46.587 19.9853 -1.78287 1.33517 3.76739
1385 1 -15.2177 24.4937 12.0731 4.39822 3.02746 -4.86341
2754 1 -12.3884 23.9176 -0.390884 1.19866 6.22387 0.968627
168 1 23.1036 24.274 -3.82021 2.30203 1.83352 -4.85743
2866 1 -18.3092 25.1494 -7.0081 -1.22137 0.699253 0.0415268
3654 1 -18.2905 23.9658 12.1802 4.16038 4.21372 2.30781
742 1 -6.96216 46.2866 -21.4555 1.09043 -1.26958 2.39361
3835 1 22.1394 46.8836 -2.55617 -1.95591 1.15292 -2.81662
3713 1 0.841583 23.9319 7.39558 1.08156 4.92494 1.55715
561 1 5.2205 46.0128 20.3861 0.0152051 -1.47088 1.20934
906 1 -8.43565 46.2559 19.0491 -0.871142 -1.96415 -1.51016
4359 1 9.1578 46.2496 4.38543 -3.60452 -2.40477 3.30821
1838 1 18.7615 23.6716 4.04163 1.63498 0.0726816 -0.722414
2764 1 9.44077 23.9026 -12.9346 1.45337 0.725153 0.621439
2013 1 -15.0696 23.2541 2.80527 -0.733484 -1.18242 4.41201
271 1 1.73701 23.6503 -11.902 -5.03433 -2.10758 0.833148
1548 1 13.7299 46.4259 -6.49421 5.36698 0.438827 -0.731682
216 1 -19.5478 46.7107 7.51339 0.119854 -2.10442 -1.0577
1695 1 17.6137 46.9194 -9.03376 -2.65666 -0.945688 -3.24326
2237 1 -0.11251 46.3614 -20.8811 0.559206 0.957633 -0.708737
560 1 21.5784 46.0288 -5.12129 1.18895 -2.71233 4.5722
4355 1 9.37371 47.0759 8.84053 4.87267 4.18309 3.66102
1629 1 -6.00257 46.7723 17.7101 -1.16898 -2.11795 -0.187625
734 1 -17.7239 23.7899 19.4203 -3.50781 -1.19302 0.845394
1319 1 14.2926 24.4107 -0.95903 1.55981 2.81552 1.04707
439 1 -1.57692 23.553 -2.71547 -4.84222 0.159713 -3.44009
2868 1 2.41184 46.6901 19.9892 -2.56494 3.42533 -4.55341
388 1 -19.776 46.4276 -23.2056 -2.24213 -0.444002 1.09206
1835 1 5.22335 23.2535 17.5557 0.317745 -1.27708 2.81467
690 1 1.05563 23.8195 -3.50967 5.31493 4.83073 -0.230331
2670 1 22.5659 23.7213 -18.1701 5.19462 0.736292 0.245822
1940 1 -21.1734 47.1248 5.35023 -0.611337 3.45029 0.72638
3846 1 -20.2564 23.5975 20.4299 -2.51598 -3.772 -3.76776
3969 1 16.9675 46.8875 21.252 -2.00168 1.22356 1.13273
3038 1 -16.2918 46.9008 -16.6714 -2.31766 0.653207 -0.830276
3260 1 16.4089 46.6679 -4.79382 0.600467 -1.50463 2.66329
3865 1 -0.897259 47.1796 15.5549 2.2799 1.22074 0.760248
3582 1 -15.6674 47.0787 16.2711 -1.32683 -2.19725 -4.19301
2533 1 -14.5343 23.3643 -2.04231 6.97727 -2.37061 0.0247124
1750 1 16.4636 23.2763 11.0131 -1.07427 -2.70827 1.54758
3537 1 22.7636 23.4022 19.1296 -4.78822 -2.2394 3.71625
855 1 -16.8529 23.3964 -20.5242 2.49035 4.48659 -0.0333843
1277 1 -9.24904 23.3088 -4.74262 0.015428 -0.690082 0.191305
245 1 -9.65556 23.1883 -11.2543 -2.6268 -2.58474 -1.50819
3747 1 -18.5721 23.2966 -18.3216 1.31485 1.80767 -2.98198
1744 1 15.3956 23.3674 -8.22682 2.91625 0.930689 -2.92793
3570 1 12.2067 23.392 21.795 0.711522 -0.408554 -1.49712
2231 1 -12.3226 23.2557 10.008 -2.31399 0.179328 -4.33839
3655 1 -7.67955 23.4315 -13.2449 3.67607 -3.34522 0.180217
1746 1 16.9089 23.4688 -13.6789 1.76313 1.30969 -0.624741
196 1 -15.0273 23.7354 5.56452 2.43787 1.60292 4.10522
