ITEM: TIMESTEP
400
ITEM: NUMBER OF ATOMS
4360
ITEM: BOX BOUNDS pp pp pp
-2.4756040183510272e+01 2.3946876083512976e+01
-2.5020484989712301e+01 4.7536920589712295e+01
-2.4355557983450751e+01 2.4347356383453246e+01
ITEM: ATOMS id type x y z vx vy vz
8 1 -24.4586 -11.7661 -13.9111 3.23219 -1.19202 -2.55174
15 1 -3.14927 -0.756382 -13.3519 -3.33525 -1.08424 2.08649
22 1 -10.9298 -0.594013 -16.2953 -2.21929 1.30013 -1.84682
27 1 -19.2563 7.6566 -2.11321 -1.99655 -2.35878 -2.0424
29 1 -8.20492 -11.3827 -10.1293 1.1838 -2.45052 -0.0828927
37 1 -11.6016 -7.13446 -2.50492 2.40268 -1.44643 -1.05925
100 1 -24.2346 -14.88 -23.9747 -5.40767 -5.02091 -6.7564
44 1 -2.97217 -16.7248 -7.67179 4.12398 -3.90955 2.35079
54 1 -17.3697 -10.9438 -12.021 4.16868 -0.716803 -0.578214
55 1 -6.72203 -3.23573 -16.9912 3.34082 2.33148 0.841891
57 1 -16.2062 -8.87008 -3.84712 -8.61924 -0.673837 2.0306
66 1 -12.1536 -16.2499 -12.6564 -3.87097 -8.565 2.59663
75 1 -18.4245 1.92419 -13.016 -5.19097 0.567248 3.05934
79 1 -23.4781 -0.773177 -16.1563 -4.43315 -1.78293 -0.0850052
97 1 -8.20374 -13.5333 -21.4524 1.05089 0.460408 5.28841
2237 1 -1.25155 -22.9783 -19.7952 5.34802 3.29549 2.64571
104 1 -14.8386 -22.1302 -10.517 0.180347 0.952296 3.91315
112 1 -17.3751 1.35627 -22.2086 -1.06355 2.70043 0.445794
126 1 -9.60817 0.131496 -5.46804 2.96773 5.72337 2.38374
128 1 -18.5661 -0.606262 -9.38185 -0.790069 3.35674 0.140625
132 1 -7.09917 -4.54303 -22.6998 -5.11817 3.98018 -0.568258
135 1 -14.7852 -4.71696 -21.7359 3.11098 3.4723 2.02127
2835 1 -4.99 5.30332 -0.321235 4.20012 1.97038 3.88006
137 1 -10.8941 4.85474 -14.4992 0.529546 0.95589 -4.02633
139 1 -19.8772 -18.8005 -16.26 -0.933224 0.68053 3.6373
143 1 -3.78014 -2.7429 -3.58791 -2.60658 0.13368 4.9449
144 1 -23.8994 -8.8198 -14.6798 7.23748 1.94859 4.06812
149 1 -19.1641 -23.427 -19.2827 -3.73096 -2.37542 6.18721
160 1 -4.83438 -16.5537 -3.55563 4.31977 -3.90771 -2.06221
167 1 -12.2113 1.71192 -2.72226 0.670097 2.69361 3.66192
170 1 -5.75022 -18.2857 -13.0258 2.12833 3.66757 -3.77061
174 1 -18.7344 6.36549 -21.7488 0.916104 1.15491 -2.6827
179 1 -7.07421 -6.80665 -12.4891 -1.92414 -0.36804 7.12641
181 1 -4.54246 -3.37832 -20.5547 -4.35886 -0.0087653 0.322928
187 1 -11.372 7.808 -6.42668 0.977161 -1.24633 0.239658
190 1 -15.7663 10.5274 -11.4459 -1.07426 -0.988613 -3.43491
198 1 -10.2936 -19.5794 -17.3162 -1.69687 3.18891 -2.80049
199 1 -23.4227 -5.02592 -10.2846 -2.67651 -1.98741 3.86844
204 1 -6.68546 -15.4862 -8.91366 0.515015 2.20966 2.26535
206 1 -3.6635 -14.0874 -19.6558 -7.59411 -0.468221 5.2518
207 1 -7.49053 7.40575 -23.7759 2.09741 -3.03803 0.706546
213 1 -21.3563 -19.0611 -2.82444 3.09207 1.9276 -0.123207
221 1 -15.9432 3.14698 -2.52118 0.143435 0.446031 0.526369
222 1 -12.8429 -8.69953 -0.351473 -1.76622 -0.667576 -1.65793
235 1 -22.6192 -1.08985 -8.58327 1.52228 -1.80873 -0.220311
242 1 -9.92031 -4.0787 -12.7585 3.98785 0.423987 4.88478
248 1 -17.9071 6.89645 -14.1361 2.19737 -2.60373 -0.173594
251 1 -21.9286 -1.31602 -22.1893 3.95448 2.50088 -4.79392
253 1 -1.71573 -2.92159 -23.9751 -1.54155 -0.658933 0.331364
256 1 -12.5007 -5.20184 -10.6241 3.61072 -3.84297 1.9085
257 1 -1.05499 4.42717 -21.2466 -1.42234 -0.20458 -2.8736
258 1 -5.33435 -1.81157 -7.04088 -1.1115 -4.67367 -1.43426
263 1 -20.3804 7.95317 -9.55616 1.4621 -2.08059 -0.765485
269 1 -19.8001 -8.0185 -13.899 -2.70833 -0.180575 4.29678
279 1 -23.8339 -1.83299 -0.492413 -0.804917 -1.13563 5.47914
280 1 -3.12543 -19.2874 -11.8898 -0.846146 1.1301 -4.66921
283 1 -4.35044 -20.4795 -20.3405 -0.94355 1.46194 3.69242
290 1 -5.5307 -11.7716 -15.5405 -4.5252 1.39614 0.471683
294 1 -8.66264 0.846759 -0.963134 -2.68687 1.07255 -4.20425
303 1 -20.6277 -18.2906 -7.4072 2.01876 2.43092 -5.16505
312 1 -6.40703 1.39522 -8.98077 -1.06323 -0.142888 0.495733
313 1 -17.4987 -14.8584 -9.78032 1.54772 -0.295043 -2.03179
314 1 -12.6045 5.44184 -7.77092 0.565069 1.61796 -5.02507
317 1 -10.5337 -10.3358 -23.4951 6.50134 -0.346948 5.96644
321 1 -19.9138 -11.4979 -13.4292 -1.23864 -1.56294 -1.571
1129 1 -0.49108 -8.86691 -24.2959 2.33411 4.85972 -3.24009
339 1 -6.31812 -15.3136 -22.6532 -1.33888 -0.884006 3.05873
340 1 -13.5554 2.19152 -18.5124 3.75 -4.7093 -1.21685
341 1 -10.518 1.86586 -14.3413 6.78785 5.56748 -1.97742
342 1 -1.06765 -16.0118 -10.7445 2.02809 -2.58624 2.93974
343 1 -2.94352 -12.085 -5.93214 2.40522 0.164363 1.62646
356 1 -2.56335 -18.0651 -20.8314 -0.251009 -4.73788 -3.17144
359 1 -14.6436 -19.2585 -10.2294 -3.47893 -0.613156 1.96062
361 1 -23.5126 -20.3055 -4.1818 3.52944 3.82653 2.47134
364 1 -10.3481 2.82166 -4.78718 -3.14346 -1.14562 -1.06127
366 1 -20.5477 1.18342 -9.46201 2.29832 0.121928 8.06612
376 1 -5.87768 -14.7937 -16.0466 1.23629 -0.267573 -1.36478
384 1 -10.8843 10.6116 -7.31173 4.3427 4.14434 0.177126
393 1 -13.9425 -18.44 -13.0277 0.7505 3.02835 5.22306
398 1 -24.5116 -21.5473 -6.89783 -2.80206 -6.48416 2.5732
400 1 -23.2525 -16.6052 -2.48162 -2.5586 -2.50643 1.63812
408 1 -0.998319 -1.99003 -17.3626 -0.151929 -2.70046 -2.46927
411 1 -2.15051 -3.08002 -8.51871 1.53056 2.84299 3.73531
415 1 -17.9285 6.68736 -9.65134 -0.443332 3.35112 3.67037
421 1 -16.3955 -22.6885 -14.9169 2.8215 0.0318472 -5.64807
426 1 -16.3042 -2.2363 -8.80221 5.313 -0.741864 3.85074
429 1 -5.75254 9.51249 -13.3764 -1.54498 0.105423 -2.93114
433 1 -18.7166 2.14076 -17.2749 -0.439005 -0.0472556 -0.600225
434 1 -13.1065 -2.3255 -11.5266 -4.75942 1.62718 -4.63682
436 1 -15.1668 -10.1836 -8.58703 -0.653239 4.12461 -3.29607
438 1 -18.6754 5.9943 -4.49773 -4.63158 -2.39512 -1.11545
444 1 -23.3798 6.65374 -18.0173 -1.34039 0.426263 1.70205
454 1 -4.66877 1.18085 -15.2766 0.491085 0.462773 -1.4002
470 1 -20.7495 6.44223 -12.9865 2.71742 -3.06721 2.29327
476 1 -13.627 -5.7618 -3.54114 -0.24305 4.21393 3.90378
477 1 -11.6512 -10.9879 -16.1603 -3.89195 0.529695 -2.84391
481 1 -1.08186 7.43828 -20.6755 2.92342 -0.114921 -7.96692
492 1 -16.5984 -16.855 -11.8103 -10.1953 -0.0625031 -5.22701
495 1 -1.98609 -10.0294 -3.84159 6.27487 -3.93867 5.30032
499 1 -23.0218 2.86782 -9.68635 1.52267 -4.68931 4.49675
501 1 -14.8502 -12.3477 -6.79657 0.19187 2.0338 0.766459
223 1 -23.6142 -5.36762 -0.38634 2.43119 -5.1973 -1.55667
506 1 -0.969688 -19.1641 -15.0928 1.33965 5.91738 5.3961
517 1 -15.856 -0.72087 -23.2754 -2.38502 -4.01887 -2.36167
519 1 -21.6875 -12.8366 -8.52527 -2.33018 1.45534 7.00693
520 1 -5.21867 -23.4097 -13.1501 -6.64464 1.26096 -3.25965
523 1 -9.74971 -15.6492 -8.20379 -2.0475 4.01896 -0.409661
525 1 -7.44134 -1.56983 -2.09441 1.54454 -0.917505 1.72341
532 1 -10.0799 -2.93146 -2.8556 4.99523 2.30838 5.1817
544 1 -4.61413 -17.3599 -18.5949 -3.00949 3.02262 4.32071
546 1 -7.0257 -15.7427 -13.5968 0.955072 -0.322166 3.24065
1605 1 -0.818593 -1.96316 -11.8928 0.91899 -2.45733 0.368309
575 1 -15.8984 5.76133 -3.40437 0.374548 0.292517 -0.65799
580 1 -5.25016 3.6701 -20.8327 1.83289 0.538113 2.71122
582 1 -2.95807 -13.2086 -16.9091 -2.54512 -3.42595 0.136467
1227 1 -0.64294 -8.45119 -0.926948 1.87745 2.57101 -8.64175
589 1 -2.01591 3.2434 -0.561608 -1.31621 -4.00312 6.83598
597 1 -23.9705 -23.1358 -11.7517 1.89489 -6.19785 3.91033
603 1 -5.19324 6.41561 -3.84266 -0.632569 0.47619 -0.554615
611 1 -2.33754 -7.65128 -6.02101 -1.69071 3.14778 6.6302
614 1 -18.3642 -9.49475 -5.8044 -1.39317 -5.86414 2.40901
624 1 -7.25615 1.45244 -20.6309 -3.81007 -1.70911 1.89419
626 1 -2.80941 2.83753 -19.6228 -3.02108 0.483429 -1.01203
2170 1 -8.40992 -16.1751 0.17204 3.57141 -3.56774 9.83259
629 1 -5.92757 9.42656 -6.93982 -0.944507 -0.340723 2.4433
636 1 -22.8467 1.85306 -16.8182 -0.14035 1.07284 -1.59589
637 1 -10.1692 -22.4478 -23.1481 0.765953 1.68134 -2.65687
639 1 -10.8552 -17.519 -21.8969 0.16385 5.61845 1.65677
645 1 -9.36219 -7.03211 -18.963 1.56568 0.233677 1.26846
651 1 -22.0932 3.92962 -15.004 7.26408 0.745634 -5.5325
652 1 -8.29836 -4.3023 -19.3087 -1.50102 1.54921 -3.60601
653 1 -23.0856 -21.1905 -14.1078 1.90837 -2.03638 -0.607235
654 1 -11.0539 -1.05504 -20.4029 -1.45063 -3.92537 1.0942
655 1 -4.68111 -10.9086 -12.6887 2.3284 0.373265 6.00621
661 1 -17.7591 -7.53948 -16.7583 -1.42832 3.25373 0.396398
663 1 -12.7679 -18.2037 -7.94344 -2.09112 0.927556 0.442094
666 1 -9.78543 -6.6419 -11.2795 -2.39567 2.81305 -0.840549
2963 1 -23.9289 10.873 -4.84821 5.22179 1.55197 -4.74109
644 1 -6.34855 10.8022 -4.40794 -0.330239 -2.94987 -4.12915
674 1 -8.88875 -0.433956 -22.0304 1.33744 -0.181226 0.255759
675 1 -22.3712 -10.3068 -8.68478 -1.91719 4.57244 -0.0988375
677 1 -22.9689 -11.6871 -11.2452 -5.00175 5.9068 1.96782
679 1 -18.5658 3.41645 -8.92577 0.869147 -5.11135 1.02441
681 1 -2.15565 1.59931 -9.08316 -2.05931 -2.45976 -4.58266
688 1 -11.3131 -12.4879 -13.7821 -3.10552 -4.93355 -1.0055
689 1 -1.40791 -0.965505 -3.95596 -5.03235 -3.16875 3.79451
709 1 -9.40622 -3.42836 -7.01944 -5.64399 -0.249885 -1.01058
711 1 -14.5109 -6.02064 -14.983 5.35223 1.20505 -2.70357
717 1 -12.7078 -4.35515 -13.6634 -1.18316 -3.23032 -2.83834
721 1 -9.27288 -9.25566 -16.0435 -1.9197 0.293699 -4.81525
741 1 -17.2973 -19.8122 -12.0717 3.67327 0.3169 -0.393408
751 1 -19.4112 10.6746 -13.219 2.54105 3.21478 -4.33655
756 1 -5.70404 -3.87805 -1.66933 1.17052 -4.08508 0.102492
761 1 -9.22165 -12.4973 -7.76807 2.14179 3.40455 -0.24998
780 1 -6.03276 -9.32563 -19.6555 -1.41584 1.39465 4.24382
796 1 -10.9341 -14.8172 -14.8345 -0.655331 -4.03901 -4.16139
798 1 -14.9556 2.01312 -6.72872 -4.68553 3.91608 -0.210777
808 1 -1.6782 -18.6203 -9.54943 0.329105 -0.453496 -5.69697
810 1 -21.5029 -13.348 -5.74056 -2.31079 -1.42978 2.21285
811 1 -14.8963 -8.32734 -6.44441 -0.622326 -2.26978 0.531286
814 1 -21.4202 -1.62129 -1.74285 2.01546 -1.59787 -3.46388
1354 1 -1.51285 -6.07929 -17.4152 -1.81968 2.91964 2.1515
821 1 -23.6244 -23.4375 -22.7113 1.77972 -0.401187 1.5495
826 1 -11.4533 6.66628 -3.1597 1.78911 1.43728 -3.35386
833 1 -11.9138 -4.60938 -8.03814 0.458212 -0.834994 4.24392
837 1 -22.0663 -16.0194 -6.04148 -5.7713 1.84302 0.946547
842 1 -6.63607 -23.7284 -2.33904 3.44256 -8.24865 2.91585
847 1 -13.709 -23.3206 -15.0005 -2.02301 1.31573 -3.16233
856 1 -20.5347 -2.94017 -9.15888 -0.203939 -4.84796 3.20562
3989 1 -15.2639 -10.2583 -13.6933 0.550741 -2.73854 0.214018
872 1 -3.41213 -6.68586 -20.4518 0.687127 1.33314 7.1539
873 1 -4.78597 -0.466962 -23.4532 1.53136 0.159702 -0.98441
882 1 -13.1111 -3.08629 -2.49272 -0.692126 -3.66057 4.0202
885 1 -5.46531 -19.1696 -2.49458 -2.87717 4.44829 -0.379591
888 1 -7.8192 10.4833 -17.4956 1.90505 -2.33013 -2.072
900 1 -14.5145 -14.6252 -12.4782 -3.73384 -3.51813 1.72744
904 1 -10.0862 -6.39671 -6.97971 0.34973 2.22785 2.90798
907 1 -15.8901 2.28933 -9.45396 -0.805093 1.11226 2.80502
910 1 -8.74644 5.39238 -4.1327 0.430354 -4.00834 -0.924342
922 1 -10.8595 1.90861 -19.9664 0.0556276 0.821059 3.41295
929 1 -8.3457 -13.8592 -3.72026 -1.13212 -1.59373 1.07046
930 1 -20.2905 -17.4414 -13.6925 -3.11817 0.432223 1.0301
939 1 -8.31007 -11.8264 -16.8379 4.86887 -0.946018 0.970475
942 1 -6.51019 -15.3481 -19.5562 1.97903 7.10602 -5.02325
948 1 -21.8726 6.60015 -7.45583 1.31411 0.156531 2.03548
951 1 -9.88889 -23.5077 -14.4364 1.15325 -1.53493 -2.9611
956 1 -13.3793 -8.11201 -9.86803 -1.35298 1.73207 -0.964532
962 1 -3.9964 7.14116 -6.41841 0.101968 1.42684 1.29415
970 1 -3.28955 -23.7028 -8.76988 -2.12649 -1.34834 -0.721877
3267 1 -17.3903 8.15115 -0.159121 4.4328 3.29827 -2.48688
993 1 -23.285 3.29811 -23.375 -4.26581 -5.1165 -3.50826
1001 1 -20.3982 -3.75091 -6.53309 -1.53174 -5.59607 -0.391573
1010 1 -13.7027 3.88959 -10.3858 -2.39956 0.300224 -3.095
1011 1 -19.7166 2.4445 -1.00238 -0.560424 -1.25247 2.58313
1022 1 -9.46877 -21.5611 -10.9586 -2.09296 1.40022 -0.114924
1024 1 -3.30025 7.29312 -23.6543 4.791 -3.45201 7.66555
1028 1 -7.56673 -10.9988 -12.7219 -2.5774 3.58483 -0.350741
1030 1 -18.5073 -16.0325 -22.9289 -1.12867 -3.3794 -0.181871
1031 1 -4.91731 -10.9405 -3.83382 -2.43689 2.12342 6.3609
4103 1 -8.30839 -24.7545 -9.81149 0.998249 -2.95792 0.0709357
1041 1 -1.26432 7.79706 -13.2812 -4.45117 -1.95751 2.46168
1049 1 -23.6056 0.168639 -11.2759 -0.630593 -2.24995 1.43691
1052 1 -20.567 -2.73728 -19.9622 -0.376656 -5.27263 5.09304
1057 1 -8.75399 -16.9222 -15.5785 -0.79822 0.136656 0.0269729
1080 1 -20.3338 -8.23595 -7.82811 -1.73449 0.432467 4.27643
1082 1 -18.2189 -17.8738 -6.08258 -3.24687 -0.427256 2.25961
1084 1 -2.45535 -14.7255 -4.7633 -4.01958 -4.00888 3.80318
1085 1 -10.7456 -15.71 -3.42382 -4.73472 4.52293 1.23492
1086 1 -10.177 9.08919 -4.21311 4.86867 -0.480587 -5.93582
1090 1 -21.3773 -19.8141 -11.8917 -0.822941 0.161009 3.44526
1092 1 -19.8607 -16.5701 -4.05557 6.97703 3.52026 2.77489
1120 1 -6.4582 -14.9483 -1.70198 -5.95674 -5.42928 -1.06507
1126 1 -0.854996 -13.0414 -11.8594 1.75502 -1.07089 -2.82795
3977 1 -9.28367 -17.2197 -18.6827 -5.03656 1.5751 -1.52315
1136 1 -20.3986 -20.1133 -20.9661 -0.601541 -5.3305 0.1931
1160 1 -8.67092 4.58853 -10.4017 -1.9342 -1.99459 0.612702
1161 1 -8.62417 -23.054 -19.1997 0.21406 -4.83413 -3.43596
1172 1 -22.5701 -15.0727 -15.8982 -3.83044 -2.98103 0.660869
1174 1 -24.026 -20.727 -16.776 -0.944815 0.0350954 2.67666
1180 1 -10.8 -24.2192 -11.622 0.431888 -1.68818 4.68347
1191 1 -1.99482 -4.21629 -19.4692 -0.341392 3.96035 1.75913
1192 1 -14.49 -0.382741 -9.86847 -1.03684 -0.0534114 -0.828344
1199 1 -12.6117 5.75352 -12.4916 0.108163 -2.23792 5.3501
1202 1 -15.9263 -0.488739 -5.45228 1.37678 -0.683816 -3.72712
1203 1 -16.1509 -12.24 -15.4573 1.19434 -0.36188 -0.723191
1228 1 -24.0949 -19.9062 -10.7414 1.83042 -3.26953 -0.924408
1230 1 -15.1032 -16.4495 -9.05908 4.57153 5.92992 0.363803
1231 1 -18.644 -9.64082 -9.67729 3.63896 -0.285828 0.682966
1233 1 -2.73935 0.904766 -21.7662 -1.72911 -1.38716 -0.290763
1245 1 -18.9342 10.6778 -22.2516 3.98631 -1.442 2.2387
1247 1 -3.91486 1.54937 -11.439 -1.4529 4.93076 -2.73336
1257 1 -5.78125 -23.4296 -10.5781 0.786692 -0.0260373 1.1855
1263 1 -16.1166 -6.58775 -2.29852 2.06804 1.70911 1.02167
1264 1 -23.1246 -10.5689 -2.46918 -2.21423 -1.03999 1.9022
1268 1 -22.5748 -11.5768 -18.7248 -1.65922 3.62738 -2.78617
1276 1 -1.36444 -9.00261 -19.9495 4.59864 -2.25584 -4.1468
1286 1 -4.71605 5.20716 -16.2061 -2.55515 -0.227553 0.209066
1299 1 -9.41608 -10.2824 -6.05697 1.53217 1.9708 3.39374
1302 1 -4.40602 -3.64448 -23.3649 0.705494 -1.05003 0.551649
1303 1 -7.36837 -7.25707 -17.0754 -0.77159 -8.87424 1.21803
1307 1 -16.0425 -23.3031 -3.98274 0.263716 3.10919 2.46826
1309 1 -0.847311 -12.0582 -8.25578 -2.92044 -0.736806 -2.64049
1310 1 -0.989721 -18.4884 -1.59188 1.44984 1.94468 2.09229
1314 1 -16.6761 10.619 -18.4706 6.42649 7.0159 0.770941
1315 1 -21.3584 -11.9427 -22.6798 0.222204 6.81718 -1.71102
1317 1 -10.949 9.18055 -11.5104 -2.70559 -0.971019 0.3334
1324 1 -11.6886 -19.525 -19.7463 3.24458 -0.557864 -0.830095
1326 1 -19.4821 -17.7935 -19.6599 -3.59913 -2.79182 -2.01445
1331 1 -18.6687 3.01015 -3.52895 -2.65176 0.853917 0.366503
1343 1 -11.8191 -8.8641 -7.17472 -5.49489 1.17077 6.63143
1345 1 -22.5799 2.92245 -19.7815 -0.490371 0.840971 0.934985
1347 1 -17.9342 -12.6677 -20.0284 -4.06622 3.77801 -5.16346
1350 1 -14.9493 0.559247 -2.95235 4.53582 4.56261 -0.151113
1356 1 -20.6489 -12.1908 -2.20814 1.0734 -0.789579 1.77501
1357 1 -20.2233 -7.33897 -11.0141 1.83808 -1.80203 1.94812
1363 1 -16.2432 -10.466 -21.0607 7.00065 -1.32372 3.57756
1371 1 -20.8015 9.68172 -2.97064 3.4195 2.9507 -4.381
1383 1 -7.19645 -22.7949 -14.9594 0.782967 0.132856 1.70813
3972 1 -5.21988 -8.68329 -11.0952 0.742754 -6.24113 2.05338
1399 1 -1.71641 -23.9955 -1.29553 -1.15702 -0.192491 -2.15298
1402 1 -18.506 -4.99579 -15.5815 2.07847 3.48731 1.56263
1406 1 -8.03125 1.63592 -12.7976 -1.7034 4.37767 4.42791
1407 1 -23.1916 8.02341 -2.04336 -3.71197 -5.03987 0.762285
1408 1 -5.02908 -5.28604 -14.0323 -3.71114 -2.44828 1.32576
1413 1 -15.0945 2.67602 -20.9105 -0.890445 2.30323 -2.4725
1422 1 -13.5435 -19.4825 -15.5954 -3.83957 0.405021 0.255221
1431 1 -8.89089 1.61435 -10.1469 4.41852 -3.18035 1.32461
1433 1 -19.0288 -11.8887 -16.4582 -1.47017 2.15591 6.18967
1436 1 -16.152 -3.95578 -14.612 1.75394 2.10093 3.8011
2545 1 -12.3862 11.0411 -20.5006 -3.86462 -2.86165 -2.39117
1439 1 -17.8807 8.62852 -11.8319 4.44415 2.86115 0.608595
1442 1 -22.0078 -6.67799 -4.16816 1.99552 -0.958045 0.571348
1450 1 -6.13099 -4.87734 -8.53958 -1.54932 -0.900782 0.908197
1452 1 -6.51978 -21.8625 -17.797 -0.827505 -0.757446 0.86118
2372 1 -24.6726 5.71873 -0.803972 -1.53036 0.200187 -2.31365
1455 1 -14.6821 -18.4186 -4.21295 1.23191 0.829309 5.65011
1457 1 -19.1567 2.18967 -20.0976 2.53855 -0.558048 -1.52003
1459 1 -11.8835 -12.9047 -3.90766 -5.11757 3.96405 2.76477
1460 1 -13.8031 8.25392 -11.5603 -0.560921 -4.24386 0.383836
1466 1 -18.3946 -5.7963 -3.63513 0.718761 3.39569 1.95219
1471 1 -4.9199 -5.09058 -10.9658 0.696181 -0.747428 1.436
1475 1 -22.0454 -22.7655 -3.90585 -3.3271 -2.33309 -3.7054
1487 1 -2.12649 4.23889 -17.0138 3.78812 1.2333 1.32525
1490 1 -22.4642 4.40105 -2.17417 -5.71893 -1.62137 2.89348
1493 1 -4.39409 -6.70715 -16.3253 0.223967 -5.81642 -0.0733649
1494 1 -8.35991 6.17621 -19.5313 0.885725 2.07046 -1.45194
1496 1 -3.27399 9.2762 -8.5746 2.99796 -2.87887 4.36378
1502 1 -24.1471 -6.11715 -6.20623 1.52336 -3.91818 2.40622
1504 1 -4.10637 -24.0883 -5.98586 4.00702 5.23392 -0.418982
1512 1 -12.7582 -12.9067 -1.12625 2.14119 -0.645119 1.94114
1514 1 -13.9436 -5.6185 -6.39828 3.50783 -2.37334 -0.446733
1522 1 -13.1764 -1.31985 -14.4354 5.57918 -2.24183 -0.172256
2995 1 -3.13476 10.8721 -5.85552 -4.91708 -3.14275 -0.922625
1540 1 -20.687 5.23315 -23.5795 1.81112 2.24785 -0.164015
1550 1 -2.96662 -7.16301 -10.3209 -4.08871 2.80175 -2.06258
1554 1 -7.21026 -6.76441 -20.8759 -2.03655 0.45244 0.736351
1555 1 -21.4706 -3.72629 -3.93652 -0.00189492 -2.51512 0.540753
1570 1 -21.2531 1.55661 -12.5519 -0.903576 -6.36044 0.771737
1571 1 -2.70837 -10.4402 -0.83202 -1.72024 1.90058 2.15264
1580 1 -16.5977 -21.8781 -6.51827 -0.171784 -2.7184 0.71662
1582 1 -13.6019 5.52709 -1.44125 -2.15258 -2.55648 2.64429
1589 1 -11.4369 -22.2618 -2.3227 2.72094 2.16639 -1.66439
1596 1 -3.96021 -2.15112 -17.8185 0.576774 -4.09994 2.71306
1602 1 -20.7702 -13.0727 -20.1367 -1.25634 -1.71438 0.0896091
40 1 -1.49095 0.817885 -18.0676 -5.3223 -4.38992 -0.168102
1615 1 -3.73311 -14.8232 -9.91849 -0.909044 1.4488 1.38303
1617 1 -15.729 -12.814 -10.2946 5.79061 -2.30091 0.158948
1632 1 -5.243 8.88209 -22.0289 -0.490007 1.39403 4.02367
1634 1 -20.4531 -9.27074 -22.7478 1.25312 -2.73752 2.93795
1640 1 -18.0183 -22.4125 -12.5712 -0.897534 0.247325 3.07556
1645 1 -4.88039 -6.23689 -6.28099 -2.43666 4.97853 2.50763
1646 1 -23.1711 -6.61787 -19.1465 0.399032 -2.06818 -2.45143
1073 1 -0.561765 -22.5779 -9.493 3.39624 1.83267 1.63226
1649 1 -17.1349 -5.84817 -11.6897 2.30427 0.63208 -0.673806
1662 1 -9.72 -20.8408 -7.86747 1.55475 1.11419 -2.50636
1663 1 -15.1193 -1.35566 -0.941074 3.40498 -1.43055 0.369467
1676 1 -20.1709 1.33231 -5.48783 3.21557 2.25819 -4.74163
3008 1 -3.96116 -18.7773 -23.5728 2.66666 6.11164 -0.170952
1681 1 -18.0298 -8.43663 -21.5129 -4.10546 -2.78326 6.04465
1688 1 -18.4987 -1.94451 -11.9388 1.88539 2.39205 -0.558297
1694 1 -14.1761 3.30012 -13.236 3.86876 3.9319 1.75844
1710 1 -7.97855 -20.5073 -13.5969 -0.446315 3.01065 2.73363
1724 1 -18.6389 -23.8065 -3.38761 -0.996026 2.58035 2.64177
1725 1 -14.2815 6.75897 -16.2672 -2.47752 -0.158062 -5.02472
3959 1 -20.7716 -5.63969 -20.322 2.9314 2.18694 1.23574
1730 1 -3.25361 -9.47418 -23.7345 0.990591 -3.82614 0.275804
1737 1 -17.7891 1.08121 -7.01764 -6.62778 0.582825 -0.181562
1753 1 -23.8149 -15.9785 -21.4233 3.84572 2.43636 0.681078
1755 1 -9.65329 -0.498585 -8.11099 1.18526 -2.2837 1.89612
1760 1 -17.0642 -13.5298 -22.7021 2.44149 2.09128 1.40716
1778 1 -16.541 -7.70788 -13.7514 5.24508 -2.92195 2.1478
1782 1 -22.9175 -14.6675 -10.7202 -0.122228 -2.07585 4.98202
1785 1 -7.04062 6.91432 -9.33197 1.58638 -1.32346 4.62147
1786 1 -4.35895 0.644305 -7.15355 -5.57447 -1.76407 -2.24366
1796 1 -23.3413 -9.7121 -23.5146 1.95349 0.235372 0.487013
1799 1 -11.6049 9.63821 -14.4799 1.18526 0.567507 -5.49275
1801 1 -12.2904 -19.7845 -3.60919 -1.613 -5.0894 1.81817
1802 1 -19.3088 -19.2554 -9.89681 -0.73036 -3.62047 -2.34476
1804 1 -3.03702 -21.7355 -13.2372 4.308 0.451579 0.778795
1812 1 -11.6422 -3.82973 -21.3522 0.450605 0.0810519 -5.56204
1828 1 -14.0088 -21.6661 -22.4611 6.20711 4.51117 -0.294872
1830 1 -15.7012 2.68218 -16.3726 0.158883 3.26021 1.42563
1836 1 -11.054 -23.7323 -18.4362 -1.08036 -5.32243 5.85302
1851 1 -6.48492 2.94002 -0.953831 -4.68162 5.87872 0.906551
1861 1 -15.4122 -20.9863 -18.2206 -1.51244 -1.28798 -6.98643
1862 1 -12.3866 -1.93156 -8.65322 -2.79649 -2.8374 -0.824145
1863 1 -4.6157 -14.1575 -7.16346 -0.340225 -1.71135 6.91877
1872 1 -1.69472 -9.49642 -9.67848 3.53136 0.822838 -1.97578
1874 1 -10.6794 -14.9738 -20.103 1.97377 2.00295 3.27931
3973 1 -12.2444 -20.5384 -6.41183 -1.46766 6.23538 1.85588
1876 1 -23.4908 8.50929 -20.2659 1.67971 -3.69564 3.01606
1879 1 -21.4599 -16.855 -17.8459 -1.2378 0.268232 4.36868
1883 1 -7.01265 -12.7866 -6.04108 4.21897 -3.81712 -3.36693
1888 1 -10.0369 -18.1349 -13.1871 -1.30613 -0.666937 5.04573
1891 1 -10.7958 -13.958 -22.9683 0.610406 5.2882 -4.09839
1549 1 -2.10446 -3.9992 -15.5523 -1.63031 -0.845601 2.3385
1901 1 -10.983 -13.1213 -17.8312 2.37884 -3.7546 -0.831439
1905 1 -14.0334 9.01372 -6.16507 -1.41877 6.97878 -0.265366
1918 1 -18.4931 -0.615212 -20.3566 -2.10938 -1.72288 2.47618
1919 1 -21.7364 10.5263 -14.7517 -2.46932 5.13203 -2.76135
1927 1 -9.17559 -20.7159 -20.7146 -3.20592 -1.4249 -3.23809
1930 1 -8.39323 -14.5987 -17.3393 1.34873 -8.03257 -4.32569
1931 1 -9.18546 6.67517 -1.52283 4.21483 3.72746 7.20939
3968 1 -1.88723 3.58 -4.36973 -0.0507929 -3.42051 -6.24551
1942 1 -2.11463 8.13316 -2.07311 3.61284 -0.849916 0.122012
1944 1 -20.2272 -21.7535 -2.01157 -0.104831 0.93813 -3.76926
1949 1 -8.30312 -6.91926 -8.90359 -2.76314 2.35226 5.17162
1960 1 -16.8284 -4.34264 -19.5018 -0.864635 0.282864 3.17502
1966 1 -19.5823 -16.6885 -11.005 -2.03793 -1.21031 0.812629
1980 1 -21.3842 5.6389 -20.0721 3.11405 1.03531 1.30498
1996 1 -10.4844 6.56916 -23.7992 2.48992 3.25344 -3.12786
2001 1 -9.30679 -11.2549 -3.1657 5.29951 1.02713 -2.20868
2009 1 -3.90144 1.0548 -0.912855 -0.258747 -0.435258 1.94022
2015 1 -2.39407 -7.20434 -3.08644 -0.631147 -0.666092 4.597
2016 1 -5.71777 -16.8985 -6.15511 -3.2816 2.57698 -1.7107
2031 1 -6.33073 -20.753 -11.1061 2.09994 -3.64955 2.53546
2034 1 -10.5301 -3.05063 -18.057 -5.91921 5.8527 2.47864
2036 1 -13.3872 6.71873 -22.5169 4.35671 -0.233782 -2.22454
2040 1 -6.79177 -24.3617 -5.01579 1.79076 -6.51243 -0.431454
2050 1 -11.1393 6.33337 -10.2684 -0.989977 2.4768 -3.26041
2051 1 -22.4631 8.11581 -4.94397 2.02094 -0.964951 0.638693
2052 1 -8.93239 3.60816 -21.0149 -0.524071 2.34435 0.335308
2060 1 -7.66283 -1.85886 -5.15327 -1.48387 4.04229 -2.68178
2347 1 -14.0464 10.995 -14.0583 3.58779 2.09779 0.464393
2063 1 -11.8356 -10.6046 -19.3524 -1.22864 -2.91963 0.216992
2068 1 -15.5128 8.75858 -3.69177 -1.45234 -0.624462 0.532049
3994 1 -15.903 -20.3433 -20.8753 -8.49936 -4.41926 -1.91543
2073 1 -18.8302 7.83099 -16.5886 5.33696 -4.99341 -1.22379
2078 1 -12.9702 1.42489 -22.3329 3.99593 -6.69879 -1.22356
2396 1 -16.2362 -20.3975 -0.405697 -1.09217 1.13675 1.34167
2085 1 -20.9273 -21.2195 -8.33417 -2.39156 3.27434 -0.66293
2087 1 -9.91091 5.91661 -17.1229 1.89298 3.11021 -0.340163
2098 1 -15.7431 -16.4223 -6.04178 -2.81214 -3.41658 1.74643
2106 1 -20.9307 -15.7847 -21.3227 -0.929848 1.09546 -0.546982
2107 1 -8.34364 5.52631 -13.0226 -2.59282 -2.94917 -1.01199
2118 1 -11.6777 -0.855378 -4.06563 -1.46194 3.06493 -1.94231
2128 1 -18.4117 -19.7374 -2.32051 -4.12693 0.552827 0.343885
2130 1 -23.0029 9.09198 -7.86067 4.36145 -0.785078 2.48012
2139 1 -8.2488 3.36374 -16.1532 0.854947 -0.500616 -1.32707
2153 1 -7.99909 -11.0691 -0.517918 -0.283113 2.90383 3.50544
2167 1 -14.5885 -11.2163 -17.4399 -2.70574 -2.97324 4.50886
2190 1 -1.17194 3.19015 -12.7681 -1.61118 -1.46436 -2.9296
2195 1 -10.4245 -18.1595 -9.32673 -3.30407 5.14561 0.0905963
2196 1 -3.03537 6.58071 -11.4913 -1.38258 1.4983 -2.96181
2205 1 -23.3584 8.39854 -15.5858 1.58338 -1.56928 -3.21541
2206 1 -3.03461 -9.18914 -14.6944 -1.47216 1.22877 -4.63228
2207 1 -24.0926 -7.53497 -2.41509 1.89767 -3.30179 3.87207
2211 1 -17.3205 4.70119 -20.0194 1.78556 -1.24176 -2.1742
2212 1 -17.9602 -4.67464 -6.1729 -0.570158 1.90204 0.642091
2228 1 -8.74832 -7.81767 -23.1142 -0.882597 7.05493 1.42198
2233 1 -10.9183 2.19434 -17.1664 2.76365 -5.58835 6.65825
2234 1 -4.21091 2.08679 -4.76184 -2.7567 -1.76535 0.145669
2241 1 -22.5185 -2.78197 -17.784 -4.84598 -0.847133 4.01337
2248 1 -2.64183 -6.80548 -12.9882 -5.32852 3.91247 0.438236
2251 1 -11.7616 -8.68294 -12.1806 4.15607 -4.71915 -4.50825
2257 1 -0.613957 3.84154 -8.18951 0.115542 -5.16457 3.24239
2267 1 -11.0044 -14.9612 -0.434168 1.40794 2.7472 -0.447751
2278 1 -14.532 -14.0295 -4.66734 1.64675 1.32144 0.846221
2292 1 -14.1868 -10.3348 -2.44056 1.21715 0.787549 -4.49892
2294 1 -19.2465 9.36106 -18.7976 6.83385 -5.22044 2.89561
2296 1 -22.9005 -8.90241 -17.1362 -0.749426 -1.22482 -5.6242
2298 1 -3.26917 -21.5043 -5.50466 -1.19183 0.0353155 1.20699
2317 1 -4.03011 -10.2334 -8.00283 -4.88509 1.71024 3.33976
2328 1 -9.74399 -7.9969 -4.37447 3.2903 2.189 6.74008
1510 1 -16.4775 -10.365 -0.238311 0.574144 1.14073 -0.121247
2361 1 -21.6948 9.00221 -12.0661 4.09041 2.88662 4.19973
2368 1 -7.52499 -18.9716 -6.65849 -0.633798 -6.82173 -1.96356
2370 1 -22.6283 -8.89621 -6.0864 2.79013 -2.40473 -7.02216
555 1 -15.0462 -14.2075 -0.147819 2.14877 -0.127505 0.691805
2374 1 -5.10985 8.04798 -1.4134 -1.00959 -1.07347 1.93171
2377 1 -6.7815 -7.40612 -4.85768 0.558309 3.80506 5.24106
2390 1 -21.8112 -5.682 -8.10165 1.1011 3.24178 4.27798
3528 1 -23.9996 -22.7506 -0.263091 -0.764604 -6.90336 3.00729
2403 1 -10.9119 0.162242 -24.0382 -1.6819 0.898369 3.54345
2404 1 -21.5803 -6.58441 -22.8971 0.159303 0.947586 -3.19888
2405 1 -4.58389 -10.6602 -21.752 -0.880059 4.18507 -2.9767
2408 1 -22.1385 -4.05681 -12.7146 4.89441 -3.98617 1.39743
933 1 -19.822 -21.3952 -23.6655 -0.643629 -0.988732 -0.566623
2420 1 -1.24799 -5.82508 -8.13707 -1.15994 2.88788 0.639694
2425 1 -15.4048 8.86723 -23.0274 2.21908 0.280337 -0.182009
2429 1 -9.14408 -8.74066 -13.2369 -2.86871 1.53564 1.09163
3958 1 -1.50727 7.50012 -5.0893 0.899786 -5.28335 1.4922
2438 1 -4.95904 -22.4542 -22.2241 -1.76599 1.94918 -2.20112
2442 1 -2.44411 -10.3493 -17.586 -5.52316 0.591155 7.67966
2454 1 -4.48989 9.04706 -17.5707 2.15016 -1.38926 -1.49673
2465 1 -8.09739 -14.3795 -11.2209 -3.76585 4.99352 -3.59859
2468 1 -20.4614 -24.195 -5.64967 -0.271574 -6.06528 -2.74217
2474 1 -5.2102 -9.4483 -16.8788 -0.978692 -3.08652 -3.96382
2476 1 -7.08202 -19.3875 -19.2943 4.97636 0.365594 2.44374
2478 1 -4.19174 -22.741 -1.19088 -0.0789493 2.42696 -1.42073
2481 1 -16.2943 -7.70419 -9.82018 -1.4416 4.15395 0.374033
3993 1 -6.39466 -10.0916 -6.13679 -3.49839 0.984707 0.955774
2494 1 -14.5061 -15.1808 -23.2801 -0.322957 1.99537 -0.247132
2506 1 -23.0751 11.0427 -10.3238 -1.77552 1.98 5.7091
2510 1 -22.2829 1.54227 -2.237 -1.49154 -0.682096 -2.91724
2518 1 -2.07285 -4.5176 -1.89161 -0.91413 4.4017 -0.734049
2520 1 -23.6807 0.3676 -6.54428 -0.0459315 1.94784 -2.84886
2523 1 -18.1455 -21.8402 -21.4875 1.69072 4.0302 1.08144
2525 1 -13.5125 -14.0373 -8.90425 2.6383 0.419063 -0.0604408
2526 1 -10.6121 -4.52413 -15.5028 -2.58871 0.622182 3.06012
2529 1 -19.7994 -8.35131 -3.33753 0.18228 -1.68557 1.65894
2531 1 -19.9812 -9.21699 -16.8369 -0.895029 -1.67202 3.51633
2534 1 -18.3241 -10.5008 -2.46492 1.24348 -4.302 -2.06878
2538 1 -7.17736 4.56578 -23.018 -0.940125 2.36307 -4.94962
2542 1 -13.356 -7.0205 -21.0624 -0.0532629 2.83063 1.27883
2543 1 -17.4553 -7.03706 -7.31113 0.388775 -2.03845 2.28882
2550 1 -23.5741 -18.6098 -18.3447 5.38194 0.225791 -2.37811
2558 1 -20.5877 8.40572 -21.0905 -0.454615 2.82687 -2.28689
2562 1 -19.5718 -4.6058 -11.3821 0.210953 -1.33638 -0.344532
2564 1 -11.243 -14.329 -10.4373 6.78082 5.16689 -1.53751
2567 1 -13.1734 -0.887631 -18.4547 -1.02046 -6.06438 1.04342
2572 1 -24.3161 -17.8805 -5.62535 -4.17427 -1.87489 -3.88036
2574 1 -18.8797 -22.8703 -7.48208 -2.79748 -1.70769 -0.754839
2578 1 -17.5575 -14.7231 -4.03985 -4.90023 -1.90645 1.38805
2584 1 -11.7247 -19.7359 -11.4846 0.71656 -1.58171 0.743049
2593 1 -24.3943 -5.31382 -23.1831 -1.60097 -5.18419 -1.43092
2595 1 -1.95291 -16.5797 -18.2348 -2.01354 -3.69093 -1.02402
2596 1 -15.3426 10.659 -20.9521 -3.44728 -2.13242 2.19738
2597 1 -19.7188 -2.9169 -17.0531 2.53079 3.47217 -1.41772
2602 1 -5.52736 -12.1002 -1.435 -1.80107 -0.827139 0.690932
2605 1 -18.0952 8.70907 -5.26883 -2.05135 0.695172 3.73791
2609 1 -14.3556 -5.22435 -17.8253 1.02904 2.71503 3.31412
2618 1 -8.05393 -17.5347 -11.1141 1.97913 -0.34731 -0.783844
2619 1 -2.39698 9.96771 -22.2047 -3.46262 1.17599 3.37661
2633 1 -4.24672 -15.7364 -12.7472 2.71159 0.596035 -3.41239
2643 1 -1.87967 -14.3406 -23.5868 2.32461 5.24177 0.167167
2646 1 -3.87092 10.3327 -3.04592 -1.51395 2.48506 2.78162
2652 1 -21.2321 -5.67643 -14.7242 -4.08322 4.19806 1.97177
2653 1 -7.87485 9.03353 -2.23648 2.274 1.22273 1.12067
2656 1 -4.00239 7.55387 -19.9507 1.39014 -1.26572 -0.445846
2667 1 -8.80258 -4.88177 -4.51963 1.02133 -4.1529 2.64617
2668 1 -7.85071 -17.4846 -21.3703 -1.26016 -2.30231 -5.64441
2673 1 -13.9753 -23.2953 -1.94395 -1.19694 0.594076 -1.46257
2674 1 -8.6292 -21.6457 -1.79931 -2.06927 0.945425 3.14662
2681 1 -15.026 -8.1099 -17.0713 0.0710707 -1.97655 -2.47536
2683 1 -16.5331 5.22971 -16.9982 0.667738 1.19041 5.17848
2061 1 -16.2834 -23.2032 -23.4587 -1.39761 -2.13155 -0.699272
2689 1 -7.40072 -2.38998 -8.99922 -6.90153 -2.96412 -3.26688
2690 1 -15.351 -13.5932 -18.7558 4.78569 -2.27441 -1.28035
3146 1 -1.00997 7.74963 -9.73615 -3.43898 -0.437531 -2.15514
2714 1 -18.5081 4.56103 -11.595 0.643682 0.589831 3.08585
2720 1 -14.4057 -9.30122 -19.5962 -0.324174 0.0723602 -1.34332
2725 1 -1.60957 9.01787 -18.4141 -4.67197 0.560683 -3.89519
2726 1 -11.7071 -7.54003 -23.2333 -0.319379 -5.98722 0.921151
2727 1 -13.9108 -18.6826 -1.42888 -2.91893 -2.157 -0.470844
2729 1 -3.40305 -22.1913 -18.1768 -7.10724 2.19455 -0.115649
2733 1 -6.91672 8.66794 -19.4628 1.20833 1.4076 4.02722
2735 1 -3.95241 7.75979 -14.8634 1.21149 -3.74803 -2.63285
2740 1 -13.5325 -14.4426 -20.8419 5.30295 1.1909 0.659716
2744 1 -17.1332 -17.742 -21.2917 2.97199 1.84218 0.708147
2748 1 -5.85244 -0.670115 -10.8426 -4.32678 1.45158 -0.521607
2758 1 -20.8626 -15.6843 -8.6811 -0.0451256 -0.0370429 0.540338
2767 1 -13.6178 -18.6396 -21.7487 4.6842 0.165462 -2.01254
2771 1 -19.652 -14.3456 -17.5742 -0.119943 -0.518131 0.783011
2780 1 -13.0968 -0.0953006 -6.26415 1.77352 3.46865 -5.16404
2784 1 -11.2312 1.68581 -0.145333 2.6717 -0.186539 3.76607
2790 1 -7.91707 -5.17123 -14.8896 -1.79833 4.32769 4.8601
2798 1 -22.1384 -0.712843 -4.36809 -1.76303 -6.53408 -0.454277
2799 1 -0.540561 -16.8 -6.06057 1.32334 0.80056 3.40173
2800 1 -13.4019 -14.6574 -16.7749 0.629986 -3.51152 -3.25418
2805 1 -14.8026 6.42281 -9.70762 4.90781 0.2075 0.513548
2832 1 -23.311 -19.4402 -8.08311 0.836278 -6.40657 -3.31586
1897 1 -13.0091 -24.5518 -6.95306 -5.75455 -4.70381 -1.93428
2837 1 -16.4962 10.7501 -8.4251 3.16952 -1.60675 -0.401087
2839 1 -18.1734 -3.08841 -21.8484 -1.64923 0.0373597 0.958411
2842 1 -3.12543 -12.0461 -10.3906 2.91544 -6.16327 -0.946966
2848 1 -17.1692 -23.4544 -9.96254 0.803213 0.244619 3.42062
2855 1 -18.3019 -6.72815 -19.4134 -5.82969 3.77109 3.56506
2859 1 -24.2878 -22.4671 -18.9782 -0.392125 4.17508 -0.386919
2885 1 -7.20607 3.01072 -6.48741 4.44261 1.42133 3.10609
2888 1 -11.2218 3.8979 -22.7537 -6.1829 -0.338361 0.60329
2890 1 -2.40021 -6.87276 -23.1337 0.46136 -2.77495 1.55643
2898 1 -9.71824 -9.46965 -20.8408 2.37685 -3.91145 -0.714007
2901 1 -12.9702 -17.6318 -17.5692 -2.10188 -0.88442 0.88586
2902 1 -21.199 1.57596 -22.1205 -0.867064 0.115183 -1.62388
2909 1 -9.99993 -5.12172 -23.1411 -1.90424 -3.06075 3.40264
2915 1 -15.0699 -11.6635 -23.2864 -1.27918 2.1932 -1.52258
3378 1 -6.30184 -18.0929 -0.0757378 1.97789 0.680535 2.29101
2926 1 -8.38017 8.3043 -13.0532 0.319759 -2.05228 -3.71787
2928 1 -21.6504 -24.3205 -10.1941 0.0978664 -3.06295 -0.770109
2930 1 -20.4239 5.46018 -0.618492 3.67122 3.18889 0.788537
2937 1 -16.9112 4.22659 -13.9968 0.0386946 2.55482 -3.93247
2938 1 -7.35975 -6.1902 -2.13295 0.0744209 6.20428 -5.99186
2941 1 -5.76986 3.98719 -10.1146 -4.10996 3.67824 -7.55891
2945 1 -7.53772 10.6743 -8.6123 0.217531 3.01646 3.08957
542 1 -24.0872 5.48251 -8.72959 7.56302 0.660651 1.44324
2960 1 -12.9789 -1.5421 -22.8192 4.20921 -1.50685 1.71516
2961 1 -12.544 -11.7676 -22.1786 -0.964179 -2.72242 -2.41353
2962 1 -8.12058 -0.889623 -16.1471 -0.88076 0.362307 -2.56398
2972 1 -9.77068 8.39401 -9.0103 0.792107 -3.35983 -1.16341
2987 1 -22.496 -23.4467 -7.70234 -0.880402 2.82281 -0.87475
3007 1 -6.78277 -20.115 -22.7249 -1.57321 -1.32603 0.962094
3010 1 -16.3501 -19.4457 -14.888 -0.999872 3.73651 0.957961
3011 1 -8.57298 -1.69035 -11.753 0.0192407 6.15753 -7.41136
3018 1 -22.2122 -1.44773 -13.5615 -3.42954 -0.672728 4.55747
3688 1 -9.86561 -23.6056 -0.0617753 3.29523 0.949788 0.990532
3034 1 -11.1222 -7.04632 -16.3843 1.4582 0.769871 1.43899
3038 1 -17.2961 -23.3229 -17.5163 -1.49984 1.72091 -1.74177
3049 1 -10.9555 -20.7145 -14.6439 -5.79369 4.27251 -10.3281
3051 1 -16.5227 0.282907 -11.6479 1.73832 5.2185 2.13102
3059 1 -10.9343 -23.066 -5.27147 -0.261215 3.18035 -0.593117
3071 1 -3.57828 -3.77177 -6.09124 -3.09164 0.147468 0.122751
3077 1 -14.1029 -22.0651 -7.67957 -5.47132 6.42394 -2.14083
3078 1 -21.2012 6.53019 -15.9454 -0.426214 7.18177 -1.16168
3085 1 -15.4979 -3.22779 -6.24341 -2.86129 1.27945 -1.44135
3093 1 -12.8672 4.49457 -20.4603 -0.86645 2.1441 3.40224
3095 1 -16.1552 -12.6172 -2.3566 0.178951 4.97377 -2.08874
3097 1 -7.87624 -11.2266 -19.5423 3.7066 4.18026 2.73621
3991 1 -18.1531 8.23941 -23.869 -0.89543 -0.661734 2.68989
3103 1 -6.17808 -12.3838 -23.2659 2.89014 -0.995969 1.9302
3120 1 -11.936 -5.54732 -19.1207 -4.55521 -0.822466 3.57972
3125 1 -2.22347 -15.8958 -1.97079 4.92355 0.0857344 -3.93269
3135 1 -19.0525 -12.3496 -4.69321 2.55412 0.41592 0.723761
2004 1 -0.862632 -22.2493 -22.6833 1.25049 3.6633 6.69108
1680 1 -24.606 -18.7915 -20.7305 -0.797291 1.38306 -0.341699
3963 1 -15.9616 -16.447 -1.99407 2.72704 0.534777 -0.327175
3161 1 -9.69951 -18.4492 -3.24042 -1.01493 1.63615 -0.532487
3162 1 -15.6771 -14.9635 -15.0537 -1.95884 -4.39029 0.507367
1412 1 -19.1179 10.6213 -9.88252 0.984763 3.96746 -3.19608
3202 1 -19.3259 -12.6639 -10.016 -2.34886 2.92263 -2.79433
3205 1 -12.5953 4.33344 -4.05146 0.397082 4.07868 -1.08672
3210 1 -12.6281 9.30889 -2.68725 -0.741077 -0.832463 -1.09205
3212 1 -12.4018 6.4364 -18.4683 0.659583 -4.04536 -0.135421
3213 1 -1.70622 1.87533 -15.3141 -2.59545 3.18379 -1.77034
3219 1 -7.66256 -19.5579 -16.2495 -3.30888 -4.33291 -3.10244
3221 1 -5.11062 -8.30753 -2.57677 -0.264178 -2.65897 -0.565909
2949 1 -11.2928 -20.048 -23.9518 1.58972 4.68313 -3.33023
3200 1 -24.2677 -3.73041 -4.38352 0.490771 1.57292 -3.95217
3229 1 -7.80445 1.34868 -3.72508 -0.642747 0.247208 -1.45472
3231 1 -18.8545 -17.1909 -1.03574 0.907234 -3.52504 -2.44417
3240 1 -12.73 -21.6366 -17.2595 5.68589 -1.73662 -4.6313
3247 1 -5.23218 8.55985 -10.6659 -2.86892 -1.0569 -2.11269
3261 1 -14.6444 -2.55184 -16.6725 2.92992 -0.852555 -0.580278
3273 1 -17.0606 9.98594 -15.8258 -0.625008 -3.61069 2.49958
3294 1 -20.5348 1.52958 -15.229 0.440521 0.797743 -3.65539
3300 1 -2.73934 5.61786 -8.64135 -2.89986 0.834839 1.51824
815 1 -20.9601 11.2562 -17.4098 3.23475 -0.0289417 -2.35851
3326 1 -23.3628 6.22158 -22.0468 1.61848 2.00477 3.76823
3331 1 -19.6494 -4.01442 -1.81836 2.40725 2.42994 1.02103
3343 1 -23.2687 -5.44941 -16.5239 -3.79486 -2.32563 -0.842485
3354 1 -14.7203 8.10779 -0.861355 -4.38244 0.217942 1.45686
3355 1 -17.1413 -19.8666 -4.64891 3.48377 -1.03227 9.7218
3362 1 -6.24892 3.54478 -14.1777 -1.04532 0.890186 -0.666727
3364 1 -21.5789 -8.49179 -1.13283 -2.05148 1.08006 -2.09582
3366 1 -21.5597 -22.076 -18.9711 -2.24699 3.4805 -1.49715
3369 1 -3.70942 -2.4065 -11.0735 -0.124269 -0.277613 -5.34532
3370 1 -19.9908 -14.9091 -14.814 -4.5209 0.445987 0.487529
3381 1 -3.63949 -15.5231 -21.9043 -1.67965 -2.22903 -7.52474
3385 1 -4.55096 -19.35 -6.80046 -3.18091 -1.83922 -2.86592
3389 1 -13.617 -11.8943 -12.0667 -4.44993 1.03894 -4.86434
3392 1 -7.13978 1.31898 -17.7995 0.3555 0.508382 -2.90468
3396 1 -21.1726 5.29513 -4.88655 3.81633 2.28658 -4.37765
3398 1 -7.52123 -20.1289 -3.90208 -2.79347 4.39233 4.65303
3401 1 -20.8352 -22.9078 -12.7643 7.08345 -1.762 0.575254
1892 1 -0.461354 -13.2213 -14.8382 -0.000550424 -0.209843 -2.86167
3413 1 -3.33518 -15.9502 -15.5393 -1.75166 -3.60577 -2.06894
3414 1 -17.4497 5.23242 -6.81029 3.10384 -3.44861 1.5221
3415 1 -17.0007 -0.0162403 -16.1026 0.632675 0.836755 -5.77462
3431 1 -10.111 -5.00401 -0.863867 -0.752984 -5.06995 -0.19018
3433 1 -7.2312 -2.299 -21.0098 0.791228 -1.23098 -2.59467
3445 1 -11.7624 0.945286 -9.6715 -1.83248 4.87759 6.18879
3446 1 -3.17554 -20.6081 -15.7804 -1.46676 -4.05437 1.93061
3447 1 -5.412 4.93147 -7.59003 -0.0263365 1.21124 -2.70114
3450 1 -3.09043 -13.2996 -13.911 -1.9198 -5.39559 -4.38254
3452 1 -11.0118 -0.367881 -12.4949 -1.27988 -0.138828 -0.175104
3466 1 -9.77686 4.03038 -7.58954 -1.76041 -1.68637 2.01463
3470 1 -16.8112 -19.5324 -8.32846 4.42995 -0.539979 3.43872
3471 1 -17.3873 -18.8279 -17.5948 -0.102347 2.21895 0.543219
3472 1 -15.3363 8.17839 -14.0111 -2.03872 -3.05676 -1.9276
3477 1 -19.3145 -1.14235 -14.6127 -2.0789 0.358026 3.11627
3491 1 -9.07443 8.19572 -21.4745 3.09452 1.28731 0.0234195
3496 1 -9.3292 8.33239 -15.8801 -3.63202 -0.676639 3.92266
3508 1 -2.43336 -11.6339 -20.6256 -7.20946 -2.0411 -2.15749
3509 1 -23.059 -20.4865 -22.2462 5.21627 -1.87588 -1.94225
3513 1 -21.2277 -21.4249 -16.2725 -8.72306 -0.403463 5.71872
3516 1 -19.2649 5.14723 -17.8574 1.48578 0.189785 -0.890126
3952 1 -5.54887 -5.60718 -18.6522 1.56734 0.830611 1.76635
3518 1 -1.66583 -0.568858 -0.400906 -0.102893 1.48809 3.65628
3980 1 -23.0745 -16.2959 -13.2251 -0.355175 -1.52589 2.28678
3558 1 -20.8659 -14.9273 -1.78603 -2.46063 -0.923414 3.09019
3569 1 -3.93154 4.12589 -12.4299 -2.13798 -1.10358 1.47598
3572 1 -14.8858 -16.9073 -19.6691 -0.853805 2.39635 -3.47639
3574 1 -16.0128 -3.48191 -11.5627 1.8817 -0.731405 1.12191
3575 1 -10.9207 -11.3111 -11.026 1.90717 1.32865 0.179938
3577 1 -7.24798 7.99664 -4.97512 5.93115 -0.44899 -1.94165
3579 1 -17.8881 -11.9586 -7.36454 4.23479 -0.0290168 3.07903
3588 1 -23.2617 -7.90574 -10.4401 0.112116 -2.19677 -3.00805
3589 1 -12.1352 2.49239 -7.39533 -5.34841 -0.372089 1.90618
3592 1 -8.5563 -16.379 -5.29495 -1.88549 -2.35855 1.8108
3596 1 -6.85188 -9.36171 -8.94018 -5.47664 0.305537 2.45193
3598 1 -13.2357 -10.6038 -5.10907 -1.65728 3.23174 1.46698
3601 1 -23.5992 -11.5461 -5.1048 2.76284 -2.9707 -3.4969
3614 1 -1.1881 -5.04712 -5.06022 3.38654 -1.78295 -5.81539
3626 1 -14.7728 4.76766 -6.04557 1.89787 -4.1292 -2.72992
3645 1 -18.4259 -14.9219 -7.00278 -0.468776 1.44654 0.512879
3649 1 -17.0889 -1.8678 -18.0959 1.32477 -4.18151 0.0569095
3663 1 -20.2908 -14.1461 -12.1461 -9.7555 -0.241835 -2.61133
3671 1 -1.38709 10.8876 -13.9025 -5.66967 3.75456 -2.09937
3674 1 -1.46168 -0.669483 -6.95361 2.02306 -2.38824 -2.98733
3961 1 -3.05096 -20.5132 -2.87687 1.62911 2.16909 -1.0277
3690 1 -8.7142 6.5385 -6.86246 -1.01809 1.35439 -0.106553
3694 1 -21.3438 3.41563 -7.37309 3.18414 -0.490187 0.408061
3700 1 -5.02516 -18.4935 -16.0505 2.45061 -2.62862 -1.30765
3702 1 -6.69561 -0.632339 -13.7445 0.241925 3.28872 -1.31336
3706 1 -13.1119 3.96649 -16.0301 3.74661 5.63405 2.59214
3724 1 -5.08196 -0.146041 -3.23934 -2.6943 -0.317943 -2.2802
3726 1 -8.58561 -13.3428 -14.1338 2.99939 -1.70853 -0.544686
3729 1 -21.8742 -9.37263 -12.7074 1.91539 -3.04039 -5.93493
3741 1 -19.7881 11.0969 -5.17608 5.62405 -8.15684 3.96449
3742 1 -1.62575 -17.2036 -13.3065 -2.32179 3.64631 -5.04268
3748 1 -14.8559 -2.00767 -20.5517 -1.99681 -0.361339 -2.84958
3756 1 -11.6891 -22.299 -20.7558 -3.51572 -1.37379 1.8267
3759 1 -11.8124 8.23468 -20.5824 -1.80441 -0.58842 -1.50943
3765 1 -24.0938 -24.1626 -2.57704 4.54313 -3.36932 1.78098
3768 1 -1.44078 7.21114 -16.2822 -0.248168 -1.97717 -5.06352
3785 1 -3.358 -21.4696 -24.188 3.88506 2.23895 -0.0180451
3794 1 -3.74416 -20.6681 -9.38895 -1.36746 2.76443 -1.38531
3796 1 -11.9565 -11.4882 -8.12336 -0.234021 2.20802 -0.341412
3803 1 -19.2013 -5.25563 -23.9106 -0.887664 3.6841 -2.51304
3823 1 -6.01219 -18.4406 -9.26364 -1.51739 2.13792 -2.18664
3824 1 -8.5247 -23.4907 -7.18904 1.85515 -0.571673 1.67494
3829 1 -12.8158 -16.5194 -5.40557 5.29536 3.21301 1.02549
3838 1 -6.18987 3.78778 -3.82516 1.36349 5.43259 2.33314
3845 1 -3.71873 4.58296 -22.907 -2.99999 2.89408 0.282386
3847 1 -17.525 -16.918 -14.3852 -1.67006 1.3143 -0.138351
3851 1 -2.8094 5.49263 -2.44613 -4.71395 1.1125 -0.756868
3857 1 -12.8114 -22.2831 -12.6156 1.16341 3.10616 0.932858
3862 1 -4.45487 0.75433 -18.0089 3.21467 0.273358 -5.65472
3864 1 -4.59227 -2.632 -14.938 4.70682 -3.02428 2.33197
3874 1 -19.2856 -23.2848 -15.4042 4.92901 -4.07805 3.45105
3877 1 -22.8659 2.79767 -4.97031 1.09306 7.24012 -3.8729
3881 1 -15.0149 0.7143 -14.1254 -1.91814 1.84896 6.16238
3886 1 -11.4277 -13.9179 -6.36352 0.879115 1.20232 4.34274
3888 1 -5.69502 5.6256 -18.7931 -3.82142 1.34536 -2.56681
3896 1 -9.18581 -8.52335 -1.56396 -3.12362 -0.998073 2.67897
3906 1 -16.2928 8.0062 -7.57988 0.35291 -3.26307 2.96951
3922 1 -17.081 -15.7078 -17.8291 0.172396 -3.84114 -7.75203
3923 1 -22.449 4.31308 -12.1539 3.05053 -2.51086 -1.59296
3944 1 -13.0675 -8.71145 -14.8707 -2.78512 4.45892 -10.2721
3945 1 -22.1394 -12.2907 -16.0481 1.04999 -1.05959 4.32999
3947 1 -21.7119 9.74658 -23.7121 1.53341 1.1941 2.69545
3950 1 -5.02721 -0.45889 -20.4308 -1.80184 -2.45189 3.70585
1754 1 -24.3883 10.4947 -22.367 -1.08027 -2.29058 -2.99575
3306 1 -8.19868 10.9116 -21.8506 4.56813 2.11586 -4.5415
121 1 -6.60023 -17.7044 -24.3066 -5.37342 0.972029 3.03033
1941 1 -0.717936 -22.7964 -12.3269 -0.0132755 0.795357 5.78206
959 1 -15.7667 -17.7947 -23.7446 2.67921 -0.112462 3.03463
2569 1 -24.6025 -18.7604 -13.4352 -1.6258 1.14965 0.578119
972 1 -8.98045 -19.0731 -0.340191 1.77688 -0.173681 -5.53247
231 1 -24.2036 -2.87786 -21.3471 -1.77568 0.566242 1.41359
1453 1 -0.596558 -21.8302 -6.60552 -2.81408 -0.534086 2.40919
2053 1 -23.3374 11.3084 -19.1458 2.73817 3.19627 -2.97601
2737 1 -21.4546 -18.1442 0.0752408 7.39308 -3.45215 8.49876
2406 1 -24.5532 8.17197 -11.8777 0.108837 3.72973 -0.24171
657 1 -0.573323 -4.55614 -13.3525 -1.6338 2.26396 -2.16334
1894 1 -0.601152 -19.4405 -4.34441 1.77372 -0.312651 0.975608
2688 1 -17.7724 -2.37931 -0.100637 0.670295 -0.432118 4.04972
1387 1 -19.5743 -0.115666 -0.130499 -2.41471 -2.17762 -2.25255
3082 1 -2.31935 2.22099 -24.1793 -2.85417 1.88366 4.35195
5 1 -19.84 -19.7861 21.6059 1.4872 -2.67898 -0.722785
9 1 -13.2763 4.29599 4.30783 -0.820892 1.22294 4.27257
13 1 -21.3239 -14.2696 13.664 -3.0441 -2.50766 -0.673205
16 1 -19.491 -0.300289 6.05445 -0.809133 -0.849938 4.2851
21 1 -24.2555 -0.184289 12.4304 -4.07247 3.30852 3.26276
23 1 -11.0886 -22.8216 21.4932 -2.91311 0.704641 -1.19253
28 1 -20.4726 7.02137 3.23067 -2.69136 -0.0678925 -3.31231
34 1 -20.8791 -22.9405 15.6199 -3.41809 1.48195 -0.970951
42 1 -17.5848 -16.4076 1.4179 1.68385 -1.26572 -3.81052
43 1 -14.5289 -4.47037 2.1576 -3.59386 -1.93958 -3.69173
46 1 -23.4336 -20.8509 18.9218 -1.89159 -5.21699 -1.41108
47 1 -5.50283 4.31402 20.5782 -2.0437 3.8895 -4.00816
51 1 -8.9599 -3.11179 19.2086 -0.210798 -0.00901176 -0.764364
56 1 -15.1302 5.85856 2.78957 4.95897 1.73556 2.46622
571 1 -0.671078 -12.4244 21.1651 0.440649 -2.76456 -1.22984
61 1 -12.6042 -0.856964 0.440695 3.79162 5.50782 -1.04905
62 1 -2.21704 -11.0036 16.6569 -3.06444 0.729249 -4.17895
64 1 -10.2519 -2.38559 1.45769 0.385376 -4.01678 1.35947
71 1 -9.76773 3.54693 1.89086 0.835398 -0.95036 -2.33294
73 1 -12.0018 -17.6795 14.9013 -2.07985 0.815863 -1.31777
76 1 -24.3596 -3.64635 1.76264 -3.07913 -0.420429 2.64457
89 1 -10.8118 -4.13955 22.9768 -1.54541 4.78573 2.43479
93 1 -20.7183 -21.9029 18.3571 3.13913 4.41758 -5.08553
96 1 -24.6142 -16.0411 22.0445 -2.66564 -3.85419 0.304256
108 1 -11.0622 2.76697 23.3268 -1.28995 -0.758511 6.90602
113 1 -4.71806 -7.96124 19.8275 -2.16199 0.0822274 -3.72884
114 1 -23.7362 -18.0138 19.8823 5.80232 2.73731 1.32467
3941 1 -18.2912 1.756 23.8217 4.236 -4.08317 3.46555
122 1 -7.4515 5.45328 22.366 3.02401 -0.65027 -0.955591
133 1 -17.628 3.21826 17.7058 2.62337 -4.61138 -0.671378
146 1 -11.834 -10.658 14.8799 -0.37879 -3.11596 0.298734
152 1 -6.72957 -4.42359 18.1617 3.04423 -2.46249 -5.22773
159 1 -22.0804 -11.9121 11.8815 -1.65393 -0.642981 1.88898
162 1 -16.4585 -10.7922 20.6107 -2.73698 -3.30365 -1.93916
165 1 -18.8065 10.8089 16.722 0.597681 0.918826 1.6627
171 1 -15.7532 1.1332 15.2682 -1.45489 1.87727 0.363841
173 1 -21.1961 0.0674 22.3163 -0.538103 0.477509 1.96966
177 1 -4.56144 -19.5441 12.4511 2.00934 4.05532 -0.353203
178 1 -17.5723 9.52213 5.42002 -1.01073 -1.58633 -2.57228
182 1 -24.4671 -1.98738 17.0023 2.76929 2.69212 -3.36236
189 1 -3.61661 -5.33908 3.86797 -0.359803 5.85202 -3.03531
1857 1 -0.632149 -20.5841 2.51513 0.43356 0.0254363 -0.546071
388 1 -18.7627 -23.8577 23.7512 2.80219 -3.62102 -2.91263
2811 1 -13.5755 11.1586 3.98509 0.185368 0.93635 -2.62218
224 1 -13.3484 -3.47034 23.5806 -1.50904 -5.8663 1.16731
232 1 -2.79082 -13.6541 10.9034 2.25235 3.46649 4.65629
241 1 -23.0882 -14.7896 11.3457 0.815722 -3.91495 1.52572
243 1 -7.39972 -8.87591 11.1883 -0.509254 1.28996 -5.36879
1800 1 -0.572511 1.7675 11.4347 -2.13492 1.27287 2.77247
247 1 -24.7619 -6.7276 13.4483 -1.38773 0.600397 5.56656
249 1 -1.4026 -19.1762 9.88575 -1.56095 3.25091 -1.25464
2984 1 -0.652184 -0.688011 23.2508 -0.755708 -0.862587 0.493425
261 1 -2.8436 -24.5794 11.2726 -4.81704 -1.75845 -3.30299
270 1 -23.4433 -15.895 16.4742 4.5135 2.60374 -2.4897
273 1 -18.549 -10.8029 14.0479 2.02558 4.53768 1.89126
289 1 -6.28715 -21.2635 9.6465 3.12067 -3.23041 0.265191
291 1 -11.9063 -17.8643 12.2094 -3.63042 2.69892 -3.74147
304 1 -21.0886 -17.1293 14.233 -0.807433 -2.32641 2.47318
308 1 -18.4948 -21.8498 3.60961 -2.57289 -1.83753 -0.375955
315 1 -15.5681 -23.1008 3.67674 2.50018 3.22458 -3.03912
319 1 -11.475 2.03553 14.7135 -1.07273 0.848523 -3.4979
320 1 -2.21028 -2.02149 7.99122 0.819608 1.10416 -4.53413
323 1 -13.7062 0.931742 2.73575 -0.896583 3.87827 -2.01196
325 1 -1.25753 -20.4756 19.3094 -2.18401 1.56154 -3.72519
326 1 -18.1937 4.06309 0.68016 -6.10394 -1.03309 -2.61376
327 1 -7.79829 -11.161 20.5183 -0.184515 1.38949 -2.65966
330 1 -14.2426 -23.5182 23.2097 1.94278 -2.72256 1.15758
345 1 -11.6171 -5.1615 15.4935 -5.96726 -1.0745 1.8264
348 1 -11.9916 -3.52672 10.0015 -4.93793 -2.99679 4.25469
349 1 -5.75672 10.3881 22.3188 -2.90874 -4.8291 4.24359
351 1 -17.1085 3.64302 11.3649 -2.04341 1.18927 0.115511
355 1 -5.22318 -1.68826 7.68198 1.49845 -3.64341 -1.83142
357 1 -7.48593 -14.3573 2.35794 -2.34078 0.300166 -0.52361
2589 1 -1.08294 -7.73424 9.53893 -2.95483 2.29724 4.15794
363 1 -19.8001 -19.8586 10.3701 2.45797 -2.09009 -4.86393
365 1 -1.0718 -17.1132 20.0205 0.858721 -2.78764 -3.44979
806 1 -0.945313 -13.2447 12.9452 1.75738 1.64143 -0.660046
373 1 -16.4195 6.38619 23.2115 -3.5525 -7.72615 -5.07459
375 1 -22.556 -5.80949 22.9753 -0.315838 0.452209 3.16423
381 1 -22.843 -13.2012 15.839 2.82699 -1.49643 -4.4366
385 1 -7.75327 2.23554 20.6139 5.9486 -0.0236472 -3.37927
3160 1 -11.8367 -24.2473 24.0823 -5.2798 3.40338 1.52131
389 1 -13.0749 8.47748 8.21412 -3.62628 1.64323 -1.95388
395 1 -9.18253 -24.5278 19.8797 -6.94704 -3.57114 2.13063
402 1 -1.6045 8.09325 21.8284 0.865426 -7.41558 0.745739
404 1 -15.6062 -1.518 1.915 -3.72525 2.63131 2.81437
406 1 -9.10626 -18.9573 23.1518 1.93811 -3.91299 -0.0618494
412 1 -17.6081 -7.21573 6.5062 -3.25681 0.55081 -0.616584
417 1 -13.993 0.872314 11.6538 -6.41092 -0.862925 -5.24168
420 1 -1.96555 -3.02798 12.6714 -1.5713 0.255271 -0.554273
423 1 -9.21485 1.37749 3.53503 1.915 1.16068 2.41571
427 1 -15.8568 -23.5726 20.5389 -6.12254 -0.701505 5.78671
2199 1 -17.1374 10.8161 0.948554 0.493539 3.22962 5.42349
448 1 -16.7628 -0.942688 13.6279 -3.94268 0.105035 -0.480813
462 1 -7.06575 -18.852 20.9636 3.89213 1.8303 1.65831
464 1 -14.424 -24.1442 6.16155 0.255506 3.78158 -0.577375
465 1 -2.52376 -12.8269 3.58464 -1.37861 -5.20033 -3.77792
467 1 -5.7273 -11.1694 12.643 0.923118 0.460705 -2.78145
472 1 -15.3891 -5.86557 17.8402 -0.256845 0.495618 2.433
585 1 -8.18322 10.9622 15.4582 6.22581 -1.77234 1.76399
491 1 -19.6306 -12.6042 10.3077 -2.60802 3.94695 -2.61227
500 1 -5.85917 -16.3604 8.62218 -0.869963 6.61457 -1.87584
504 1 -1.76147 4.11047 4.61342 3.78465 -4.90143 1.01496
513 1 -21.167 -13.6112 18.071 3.93921 -1.73531 -0.0253399
515 1 -0.746838 7.48874 17.2484 3.72628 -1.17371 -2.31354
524 1 -1.88652 -2.33587 18.3434 -2.22205 -2.0394 3.55886
529 1 -9.66999 -12.2683 8.00482 1.59387 -4.99406 -1.63695
530 1 -9.32858 2.14446 10.4389 -0.62053 -6.41509 0.69178
533 1 -9.74326 -19.3428 14.7735 0.451142 4.50529 -2.3332
538 1 -21.4778 -7.30333 11.9168 7.15878 2.70139 -2.36618
540 1 -13.959 -11.0219 3.49583 -4.06278 0.488024 1.46459
541 1 -12.8615 -0.0822848 15.863 -0.619355 -2.83494 3.24649
549 1 -20.0211 -4.31166 7.99675 -0.0413992 -1.88887 1.93751
3404 1 -19.3124 -9.93386 0.535136 -0.123827 -0.176047 -0.676919
558 1 -4.09911 -12.1343 14.8893 -4.74157 3.1285 2.10075
559 1 -9.16287 -19.6124 6.72522 -1.24697 -0.599659 3.84288
564 1 -11.327 -20.1487 10.4941 -0.00159544 3.20895 -2.81924
581 1 -16.1912 -9.14897 15.5093 0.0299478 -2.06169 2.89717
592 1 -15.8826 -13.8985 11.311 -3.38015 -0.275114 -1.41963
593 1 -13.0808 -21.8618 17.5665 1.73618 -4.11703 1.27046
594 1 -19.2878 -0.186639 3.01738 2.96323 -3.92627 0.421293
596 1 -12.7792 -20.5137 6.08617 1.89844 -0.842684 -1.79446
602 1 -9.86667 4.31906 21.0882 5.59545 -0.765815 -1.26282
605 1 -21.5669 -2.447 17.7984 -1.00666 0.829729 3.23993
607 1 -1.10208 -3.02737 15.7029 0.181892 -4.18286 -4.07469
622 1 -22.9912 -9.15899 1.4648 3.82008 3.71143 -1.8925
631 1 -4.84676 -17.7149 17.3232 -0.328203 0.235408 -3.92512
632 1 -15.0061 -20.5048 4.35406 -2.40355 -2.62784 0.0681047
634 1 -10.2241 -2.80062 16.7455 -3.18461 -3.70592 -0.733483
642 1 -7.68561 -2.9917 5.33048 -1.99266 7.4705 2.63304
650 1 -8.7967 -0.461295 20.0387 -3.39639 2.03469 -3.17532
664 1 -15.2291 -20.29 12.5479 -0.906773 -3.43319 -0.3632
665 1 -2.27801 -6.58046 19.1582 -4.89397 -0.0473528 1.82578
2711 1 -15.2793 -5.59945 24.0079 -0.103135 -2.24472 3.53531
686 1 -15.0855 -1.00759 17.5684 3.45164 -2.66172 -2.2062
687 1 -13.7117 6.4945 10.5658 0.116233 0.806913 4.90231
692 1 -10.181 -7.1776 4.01446 -4.3047 -1.38637 0.508264
696 1 -9.36559 -22.5315 7.1489 -0.804846 0.356164 1.87605
699 1 -15.2606 -11.7708 16.4463 6.85726 -1.67254 2.30546
702 1 -16.9138 -3.46831 12.0552 -1.44644 2.67998 -0.321751
704 1 -10.5731 -12.1792 12.6406 3.08282 0.489463 0.744602
707 1 -18.2964 -0.146538 21.6451 2.32694 -2.17742 1.19154
710 1 -3.20599 -9.49123 13.6447 0.227025 4.53292 -0.101324
767 1 -0.956168 -12.3733 0.559669 -0.118863 -4.92473 -1.67861
718 1 -13.0723 -6.28984 3.70713 -3.30942 -2.26292 -1.17257
726 1 -4.63646 -8.50078 22.5776 2.03951 5.34473 -3.81699
733 1 -14.6568 -18.0635 6.06335 -0.215547 1.70379 -1.14582
738 1 -10.1811 6.68985 16.1907 3.81943 2.73163 2.6488
739 1 -17.8973 -18.8708 3.04945 -2.14164 -2.59462 1.59303
2677 1 -0.686114 -23.4261 1.69003 -1.08702 -4.2675 -5.0629
745 1 -21.8023 1.89993 19.7043 3.08067 -0.0711242 -0.480115
3936 1 -0.813722 -22.5226 23.1128 1.3733 -0.870431 1.43107
748 1 -11.6919 -19.8414 21.7065 -6.86729 -0.480333 2.33713
753 1 -18.5302 -18.0654 23.5128 -1.54648 1.36653 0.169936
758 1 -16.3429 -18.163 21.1364 -3.54075 0.432177 -0.441203
2417 1 -3.99254 -4.8298 0.44574 -1.03964 -0.175881 -2.32219
768 1 -7.61989 8.88129 9.37029 -1.76575 -3.80133 -2.99286
781 1 -19.1648 2.12033 7.6199 1.1696 1.62693 -1.7852
788 1 -20.18 5.50072 5.87742 -2.8125 2.14105 6.11319
797 1 -18.4814 -13.638 14.4001 0.124597 -0.271592 1.78859
800 1 -19.4478 -11.5177 17.9567 1.39548 2.64502 4.13725
802 1 -20.6088 -20.1184 14.9179 0.627999 4.44438 1.33766
3555 1 -23.7814 -19.5094 1.54804 0.0559898 -2.21746 5.35873
818 1 -9.23215 7.30008 20.8854 -1.33946 3.20535 -0.466379
825 1 -23.796 5.06834 5.46771 -3.14994 2.51979 -3.69552
827 1 -2.09935 -0.24481 3.33882 -0.184964 -1.46569 -1.57638
828 1 -7.25829 -20.2533 13.0944 -3.19372 2.93693 3.41618
830 1 -11.2466 -9.84458 20.4007 1.22074 1.71661 0.647629
832 1 -4.88486 -3.84589 11.2387 -1.13528 1.60388 0.787238
854 1 -23.7341 -13.3993 4.00806 2.21616 0.11324 -3.46333
857 1 -23.854 -6.14401 9.06404 0.139253 3.63997 -2.33796
864 1 -14.54 2.52996 19.5961 0.0964879 3.24273 -1.94157
867 1 -1.90678 10.806 20.7319 0.443869 -0.0839809 3.07356
881 1 -3.29555 -3.89924 20.0245 0.266854 2.83139 7.46429
889 1 -15.7383 -2.82352 15.5114 -2.82496 -1.37976 0.00177062
891 1 -22.9563 -2.31074 4.15043 -1.43096 -5.67969 -4.36906
897 1 -12.6697 -22.582 11.0011 3.96694 1.14762 -1.55866
906 1 -7.61067 -22.2821 19.2531 3.29245 -3.76458 0.658343
908 1 -8.77378 -17.8108 12.5279 -0.175743 -1.89498 0.545944
916 1 -18.743 -16.4257 21.1221 -1.35828 6.54533 -2.41272
918 1 -4.6174 7.08462 2.37233 -1.01849 -1.24313 -0.232549
3842 1 -24.0977 1.17745 21.5754 -3.29327 -1.40462 0.695386
430 1 -22.3734 -1.9644 23.8572 -5.68961 -2.37567 1.0873
946 1 -14.9386 -8.38698 6.35573 3.19362 2.79014 -1.76411
950 1 -19.6123 5.97848 12.6289 2.26266 5.47672 1.94167
957 1 -3.94823 -2.64855 14.8162 -1.10485 5.47478 2.1063
362 1 -20.7536 10.8036 4.86243 1.63851 -3.72333 0.904084
960 1 -2.57446 -21.9213 4.31326 3.35422 -2.7674 -0.0410181
966 1 -17.898 -7.14351 13.9442 1.79599 0.0294359 0.791821
973 1 -12.6449 -4.23695 17.9068 2.5278 -6.54907 -0.917367
975 1 -11.5174 -10.1649 7.05222 -4.17867 1.46313 3.88642
976 1 -18.8504 -6.94949 11.0643 1.12719 -3.39273 -1.22323
982 1 -6.38004 -8.10175 4.76483 -1.01578 -4.55361 1.6119
983 1 -20.8065 6.63171 16.5882 0.823973 1.77269 0.374421
746 1 -17.4563 -7.60724 24.1818 3.7246 -1.53455 1.32505
987 1 -23.2413 -17.5885 12.1183 -4.12135 0.402553 -3.70398
988 1 -10.3445 -23.4765 9.52827 -1.1482 0.903239 0.59607
991 1 -6.58855 -7.82858 7.48439 3.95722 -1.24382 0.958485
992 1 -23.1885 9.90561 3.25112 1.7711 1.95709 -2.24191
998 1 -2.4016 10.131 10.9209 -6.11622 1.11016 0.938543
999 1 -22.1318 9.6331 7.09909 0.0715752 3.97842 0.23711
1002 1 -14.5356 -15.7421 4.23824 -0.860785 -0.0592015 0.322748
1006 1 -22.4547 9.86423 17.6541 1.2414 -3.30244 2.16202
1014 1 -20.9167 -23.6035 3.46857 2.80842 3.9347 1.78817
1016 1 -22.2012 4.23541 7.8342 0.0187266 1.69154 0.0945906
1017 1 -8.89615 1.89218 15.943 -4.62168 -3.75556 -4.74674
1018 1 -23.1783 -20.8433 6.49999 4.95557 -0.770288 -2.90672
1020 1 -20.0874 -23.8372 10.5907 -1.40943 1.24358 -6.18362
1027 1 -23.0501 -4.80781 12.5955 1.75309 -2.37799 -2.91582
1033 1 -5.72582 -16.8786 2.63855 -0.222748 1.20622 0.507154
1037 1 -13.0054 -17.3331 17.8658 -0.0822992 0.884786 0.737201
1038 1 -2.26713 7.19003 11.544 -2.31452 -0.428853 -0.174115
1045 1 -7.09799 -2.43125 22.8749 1.2396 1.4048 6.42215
1047 1 -17.3343 2.17567 20.2405 4.01457 1.37471 1.89653
1060 1 -19.6297 -11.3936 7.81383 5.88055 0.914123 5.53952
1062 1 -8.47216 -0.826479 10.7827 -3.03301 0.776648 -3.29172
1067 1 -20.2294 5.55122 9.77024 3.04824 3.19897 1.17394
1070 1 -7.30422 6.3024 10.6063 3.12441 3.53862 2.80936
1079 1 -16.636 -0.111154 10.6627 -1.84956 3.17087 3.24627
1089 1 -15.6711 6.13756 15.8869 -0.399671 -1.77142 -2.92351
1091 1 -14.8296 9.89156 6.2433 0.0511433 3.11285 7.55068
1098 1 -11.9392 -4.87414 20.5403 4.07189 5.94331 2.97023
1104 1 -23.3232 -1.8447 8.5635 2.46085 0.933885 1.93773
1106 1 -17.2864 -19.3297 5.97582 1.54462 3.82432 1.659
1109 1 -19.3657 -10.8217 4.79277 -0.68251 3.97 -1.46168
1112 1 -2.36828 -14.513 19.9636 -4.13022 -0.368791 -5.25492
1114 1 -19.3207 -4.33401 11.0163 -0.123458 -1.98491 2.82221
1116 1 -14.9741 0.421365 7.60211 2.61582 1.0118 -3.43903
1125 1 -22.8072 7.91044 4.88325 -1.23374 1.82557 0.328718
1138 1 -23.4448 -23.1192 4.78174 -0.924892 -0.835624 -3.8115
1139 1 -5.12561 10.5634 4.37158 0.69521 2.36553 -1.8891
1141 1 -18.8994 8.6778 11.72 -2.85781 -1.39456 -3.46546
1147 1 -7.00276 10.075 2.05634 -4.03221 -0.32162 -4.16942
1148 1 -11.9504 8.45478 11.9808 -0.935609 -0.39317 0.374769
1153 1 -5.20584 -20.5504 0.900085 2.45119 1.38564 1.10322
1156 1 -18.9145 -12.5246 24.122 3.59371 4.91621 -3.25221
1158 1 -17.908 -0.433393 18.6542 -0.750834 -0.286214 -3.19124
1163 1 -18.3763 -22.9512 14.2278 -1.52965 -2.65163 2.78195
1164 1 -20.1465 -15.3693 10.4149 3.73211 0.851154 2.84129
1176 1 -0.677313 -10.9385 14.381 0.976719 -1.54868 2.86489
1178 1 -3.09516 7.01902 7.54387 4.89434 -1.25976 -1.25386
1205 1 -3.87385 -17.764 10.6418 4.28269 -0.929443 2.31094
1211 1 -17.4816 -11.6866 11.5235 -3.26013 0.0194493 1.34241
1223 1 -23.1681 9.37525 11.2552 0.112569 1.23789 -4.94116
1236 1 -5.59508 -22.0329 14.9029 2.93117 -1.12928 3.22123
3105 1 -24.5349 -6.24709 20.8251 1.91397 2.0524 -6.27552
1240 1 -6.05221 -23.5586 2.89496 -1.40346 -1.47522 1.3323
1244 1 -16.8689 2.13045 9.02193 -1.45836 3.68486 -0.370131
1246 1 -7.49941 -15.4154 5.00605 -1.28035 -4.28011 1.76666
1254 1 -21.572 -18.8959 5.13882 -1.77027 -4.3228 1.47398
1255 1 -6.44102 -10.461 8.72834 -0.449555 -0.802475 -2.0217
1258 1 -17.0785 8.53866 21.1166 6.74305 -1.40232 -1.53239
1272 1 -21.1448 9.11598 15.2318 2.43824 -2.52222 3.95991
3672 1 -13.2627 11.0327 12.6132 -0.77273 -1.80729 4.30838
1296 1 -7.60833 -11.5398 5.90351 6.34567 3.48466 7.21281
1305 1 -3.62453 3.44086 9.6149 2.43182 -1.04 -3.59859
1308 1 -17.3279 -3.82904 7.41028 0.326146 3.87116 2.60964
1312 1 -17.9519 -8.47161 3.98923 0.705211 0.918627 -0.945364
1359 1 -21.7674 -23.3065 23.8293 -9.53542 -0.540438 -0.524585
1361 1 -8.35277 -22.9226 4.42969 0.906748 -7.50149 0.74426
1367 1 -9.0059 -13.8206 14.3563 -2.89858 -2.78851 0.659995
1373 1 -13.9119 -8.88128 13.535 -0.572015 5.49207 -0.371077
1379 1 -18.9433 -17.1346 5.25449 -0.178637 -0.218184 -3.35573
1386 1 -13.3914 7.60843 1.59896 5.80654 4.01556 -5.41661
1393 1 -1.46038 -5.3433 2.12329 4.28193 1.97909 1.55793
1396 1 -18.7823 -8.80647 8.5651 1.72062 -1.87278 -1.68226
1409 1 -0.891085 5.5277 22.9378 -0.494063 -5.42163 -1.27758
1415 1 -7.64354 -21.8763 1.14129 -3.51045 3.53951 -3.17813
1416 1 -21.879 -8.15349 9.26083 5.21829 -1.98597 4.46742
1428 1 -4.82418 -17.4776 22.2397 -2.33035 0.742952 -4.35458
1429 1 -21.4613 -16.4575 6.85619 -0.174833 1.1565 -2.28093
1432 1 -11.5076 8.57904 22.8109 -2.14876 2.19762 -1.33568
1434 1 -22.8746 5.15795 21.8993 4.65619 -0.139852 -1.15465
1441 1 -18.1881 -15.8144 18.1588 -1.04579 4.50258 -4.21199
1448 1 -14.9642 2.43 5.47869 2.34458 4.34051 0.504821
1462 1 -10.3806 -17.9493 8.70234 4.05539 -2.95311 1.49717
1470 1 -4.6908 -12.2891 5.87092 -0.786299 3.40951 1.97609
1484 1 -6.46504 9.71628 7.00469 -2.57951 -0.123187 2.80754
1486 1 -17.457 -5.11438 16.0423 1.65248 1.06353 -1.38715
1488 1 -19.1281 -17.3802 12.3274 0.144504 -1.18603 -5.51115
1495 1 -21.6661 -9.25085 20.0152 0.650441 2.00315 -6.38126
1498 1 -13.4107 4.98138 12.9047 -2.3659 0.110736 -4.11495
2753 1 -0.74889 -6.84783 12.3712 -0.739622 1.88496 4.3276
1513 1 -20.9222 0.189327 17.6606 -1.55637 -1.42842 -2.16766
1515 1 -8.58723 -21.4641 21.7778 2.5445 -3.32802 0.823918
1519 1 -12.2026 -17.5359 0.534896 0.610643 1.88249 -3.33409
1521 1 -8.57125 -10.763 17.6638 -0.227019 0.677317 4.2527
1523 1 -6.92575 5.85518 13.3724 -2.74373 -1.13266 -0.874337
1525 1 -11.3258 -6.5866 1.33577 -0.896471 -8.62771 2.27394
1529 1 -6.97624 1.4113 11.9398 -2.32649 1.58849 -3.10853
1534 1 -15.8157 -7.57487 11.8265 -1.81345 -0.493887 -6.22868
1542 1 -22.2309 -5.41839 17.1156 -1.0535 -0.916447 4.62964
1545 1 -7.55772 -15.9685 14.4378 2.03717 -1.63649 4.43352
1546 1 -15.339 -13.6191 21.2449 -0.611996 -6.69535 -6.88083
1560 1 -20.719 -18.0783 19.4289 3.41231 0.987808 3.35696
1563 1 -3.40687 -5.79456 12.7181 -0.8626 0.944226 -1.03195
1572 1 -1.46345 -16.3685 11.4871 -2.64819 2.36004 -3.52052
1573 1 -11.0392 -12.2937 18.7498 0.272632 1.62713 2.4155
1581 1 -7.00962 -5.98366 11.3751 -0.515097 3.04824 -2.92929
1584 1 -6.31393 -4.0685 13.7252 2.11124 1.81996 1.7817
1585 1 -9.63165 -13.2602 22.9956 -5.79435 2.27673 2.36306
1586 1 -18.4371 -21.6322 0.635485 -0.781948 -1.98776 0.693405
1599 1 -22.0928 -4.16436 9.87047 1.13442 0.888145 -1.09533
1612 1 -23.8951 -18.0649 14.7963 -0.208195 1.42766 -3.12897
1614 1 -16.6245 -12.5032 1.55907 -3.56985 -0.848884 -7.8542
1621 1 -19.5232 3.02948 12.6974 0.53907 1.32706 4.2588
1623 1 -10.4586 -16.1615 16.8787 4.27714 -1.27137 -7.00666
1629 1 -5.99142 -23.6638 17.2069 0.0115771 1.21173 -1.47592
1998 1 -12.428 10.1537 0.0982065 -4.08222 -0.919679 0.795622
1644 1 -19.4537 -1.27988 10.8165 -2.02651 -1.01852 2.00701
1659 1 -6.54028 -23.1532 7.14992 2.04539 -0.641337 -3.14961
1665 1 -5.21985 6.28805 18.4014 -3.46974 0.462626 2.60609
1667 1 -13.4431 -2.1746 8.17983 1.11443 3.01277 2.07129
1671 1 -14.204 8.89017 21.3345 1.43996 -3.06779 0.897114
1690 1 -7.12992 -24.2751 11.7734 0.104326 -0.197054 0.686664
1691 1 -18.1868 -13.3606 5.89072 -1.47348 -2.56363 2.88748
1697 1 -11.8949 -23.3418 6.16528 2.42867 -3.0274 1.33812
1704 1 -11.2214 -10.9879 4.18218 1.69746 3.80802 0.409694
1707 1 -10.4252 -8.99956 16.5923 -0.261632 3.45129 -3.15486
1711 1 -2.85361 4.60704 1.92608 -3.92471 0.503365 -1.4348
1720 1 -3.60514 -23.3478 8.639 -4.38558 1.57383 0.554483
1729 1 -13.3288 7.7036 14.6724 2.94073 -5.94992 -2.84065
1733 1 -12.2807 -15.8731 8.40832 2.37027 2.37372 4.39308
1739 1 -7.01613 -19.5028 16.1138 -3.90992 -6.40149 1.41159
1756 1 -15.585 4.29912 7.8952 -5.30718 2.65708 -3.2425
1763 1 -2.54114 3.78039 13.1635 3.44472 -0.596779 0.288775
1766 1 -18.5649 0.551589 15.8839 2.01621 -2.66252 -0.444841
1770 1 -8.79711 -5.37346 21.1492 2.576 1.2553 0.341571
1777 1 -23.7343 -10.3562 15.9954 1.66438 -1.08128 -2.52254
1788 1 -15.8492 -16.6313 16.9126 4.44143 -2.69301 4.04344
1792 1 -13.9693 6.4302 6.15331 4.12633 1.85249 5.32141
1807 1 -19.3276 -9.54185 23.3319 0.996171 6.40935 2.96358
1813 1 -16.3849 7.49046 18.3742 2.43376 1.16611 -3.58874
1818 1 -22.6779 -9.00191 6.56251 -4.46632 2.35674 1.03185
1819 1 -14.1473 -11.7673 18.9921 -0.0332439 -1.09766 -0.510687
1824 1 -17.7942 -18.3732 8.63477 -0.174583 4.98618 -1.0134
1832 1 -24.4827 -12.0193 23.9432 -4.23969 1.32252 3.64516
1833 1 -10.216 2.69536 18.7154 0.0126978 -3.46498 2.38267
1840 1 -22.0362 -11.5222 0.472022 2.59956 5.66988 -3.48302
1844 1 -5.02499 -3.71806 5.74994 0.858361 -0.26912 -0.981327
1865 1 -9.87365 -4.77481 6.063 -1.56429 -0.150412 -2.21582
1868 1 -7.20233 3.36831 17.7921 7.43475 0.751488 0.687272
1870 1 -18.0638 8.62067 14.7933 4.22563 -1.65454 1.58878
1877 1 -15.4244 -5.92944 8.21015 4.68291 -5.07682 -0.301044
1882 1 -8.55666 7.99711 18.251 -4.17451 -0.680495 -0.73577
1889 1 -12.1046 2.49625 9.99013 -2.29532 2.79742 0.976756
1890 1 -23.2168 7.22236 23.9855 1.91046 2.22428 1.85358
1895 1 -19.7815 -6.78412 17.0094 -5.73369 0.0232522 4.9833
1900 1 -11.5692 0.23156 4.635 -0.159561 3.73668 0.283953
1904 1 -9.40743 -20.5415 17.4399 -1.32037 7.61523 -3.17669
1906 1 -20.4964 -24.8811 13.3889 -0.162225 1.4398 1.67638
1907 1 -22.9211 -9.3257 13.332 -2.43424 -0.671371 -1.50558
1293 1 -7.67445 -3.30286 0.324059 -2.28301 3.61279 -6.15763
1910 1 -7.58956 -11.4448 14.8465 0.236646 -0.943425 -0.382157
944 1 -17.1116 -3.21285 23.9515 1.65603 -2.97595 -6.73571
1940 1 -20.7888 -24.0135 6.40672 0.0311688 -0.701029 -1.2729
1945 1 -24.2923 -19.648 22.2612 2.68996 -4.3698 4.75634
1951 1 -5.01878 -14.8845 13.921 -4.45337 1.00068 -0.302148
1955 1 -13.6734 -17.7767 22.5997 -2.2666 1.77713 5.37263
1956 1 -4.59733 0.601798 5.87431 -4.62003 -0.0647384 -4.17924
1967 1 -15.7381 -22.4757 17.7849 2.91885 0.168144 -0.33083
1969 1 -4.47198 -8.14821 11.2869 -4.00033 -2.1591 4.05128
1972 1 -3.86439 -7.56054 8.62142 0.261556 2.51762 0.934361
1982 1 -20.5048 -3.87667 22.5714 -0.118955 3.73044 -0.390337
1987 1 -20.8045 2.69029 9.99733 -5.21651 0.292054 -0.83528
1989 1 -11.6374 -15.403 11.048 -3.53708 2.25033 1.5246
1991 1 -23.3846 -22.3763 21.3717 -0.0100534 -2.40138 1.56463
2922 1 -16.8987 -20.6159 24.198 -5.40553 1.00605 -3.87692
1999 1 -1.8387 -11.0812 23.1674 -4.23476 -2.59424 4.69941
2010 1 -7.99186 2.7308 23.6352 0.791178 -0.897443 -4.72046
2011 1 -1.54919 10.162 17.9716 -2.56026 2.21515 3.3595
2014 1 -9.28313 -9.6309 13.4058 -2.07573 1.94897 -2.22418
2018 1 -16.7137 -1.23502 6.07621 0.495756 1.11932 4.3952
2023 1 -22.4266 -11.5855 7.59403 2.38477 7.32048 -4.14556
2032 1 -8.91493 5.10338 6.78416 2.29377 3.49046 -0.465197
2037 1 -16.008 8.57455 11.2562 2.75397 1.1996 0.952214
2041 1 -13.7965 -12.9852 23.4158 1.71412 2.74974 -1.24131
2047 1 -6.9038 -13.8891 7.56983 -3.84601 -2.41517 6.78264
2064 1 -14.6557 -17.7765 11.5186 -2.34456 1.00019 0.932503
2067 1 -24.0764 9.01073 21.3398 -3.43502 0.304999 0.63942
2071 1 -21.5803 -12.9965 21.1104 -2.65647 3.80015 -3.49164
2072 1 -18.6995 5.98036 21.3749 4.29045 0.297667 -0.262378
2075 1 -7.36172 -15.0327 23.1291 -5.0904 5.80229 -0.540222
2077 1 -17.3878 -4.84409 4.72056 -2.7574 1.88996 -1.32883
2086 1 -11.843 -13.7863 6.62143 0.198239 -1.44542 7.15231
2091 1 -9.47401 7.39948 13.5879 2.58189 2.08467 1.53629
2095 1 -21.317 -8.65353 3.99644 -4.14629 -4.78089 1.24242
2097 1 -4.26397 6.16059 10.0275 2.74412 0.314105 -1.82272
2100 1 -1.61648 -4.46955 22.436 -0.461198 0.947814 -4.3058
2101 1 -23.6776 -7.6929 18.6409 -5.03825 3.37311 -3.39027
2104 1 -21.9125 -4.66386 20.0042 -1.10731 5.22965 -3.4462
2108 1 -9.92518 10.7083 1.44225 -2.68099 -0.795916 -2.74348
2109 1 -4.08453 8.51378 20.6049 3.05275 -3.40434 1.14465
2112 1 -10.8892 3.63034 12.4515 1.57488 -0.128655 1.61486
2113 1 -17.8753 -3.79233 21.1974 6.72933 -3.07356 -6.28195
2125 1 -2.38769 -14.6219 15.0835 -0.278474 -2.95628 -4.08727
2129 1 -13.3629 -22.4469 13.6582 -5.06416 -3.36867 -0.511633
2133 1 -14.5294 -12.8165 6.90454 -3.38506 -2.62376 3.10306
2136 1 -5.25138 -21.6295 5.00634 2.11975 -2.13415 5.28395
2141 1 -21.3945 -22.3009 0.809783 3.22606 -1.48194 3.3575
2142 1 -17.8496 -8.72547 17.681 3.76534 2.90757 1.80063
2160 1 -20.2123 -2.00114 20.33 -2.10351 -4.10346 -2.57556
667 1 -22.0242 -19.4089 23.8296 -5.64877 -1.34577 7.67652
2171 1 -3.50623 2.10734 3.54382 0.143921 6.55768 3.86734
2181 1 -17.1438 -21.064 21.3542 3.83757 -0.9998 -3.19969
2182 1 -2.29479 -0.717149 10.6967 -1.91864 -0.591242 2.99053
2188 1 -12.7467 4.72064 8.49831 0.249314 -0.672067 -4.93159
2295 1 -13.821 10.1868 24.0256 -2.71217 0.314914 4.36345
2200 1 -3.49591 -22.7536 1.63923 3.37614 -3.42559 3.21769
2218 1 -17.7269 -6.64009 21.2098 3.68036 1.68679 -2.55868
2219 1 -10.6799 -22.9429 16.2388 3.4912 2.2373 1.57864
2239 1 -15.5257 -9.71034 23.4542 3.30185 -1.73011 -1.7364
2242 1 -11.3296 -15.3984 19.6682 1.07638 -1.07934 5.23186
3045 1 -0.443464 -3.78661 6.54932 -0.0749825 -1.6629 3.64127
2259 1 -22.2343 -8.71217 22.678 -0.285944 -1.70301 1.59164
2265 1 -1.79192 2.74189 18.8699 -0.499907 6.73451 -0.476054
2266 1 -22.067 7.43583 13.0736 -2.1694 -8.39487 -2.79336
2273 1 -23.2254 -20.6301 16.0361 8.56899 -2.26654 -0.557075
2274 1 -5.75798 -0.517788 19.0892 0.690778 -2.64002 -0.476476
3580 1 -0.773504 -11.4917 7.11723 0.692801 -5.80372 -3.13492
2277 1 -13.4697 3.85495 22.0474 -3.83017 -1.74232 2.9546
2279 1 -12.1567 0.531649 7.58304 3.8001 1.88436 5.85666
2463 1 -14.0878 -20.566 23.3549 0.573532 -0.14896 0.825744
2312 1 -20.8506 -21.9286 8.34272 -2.61786 -2.74669 -2.71394
2314 1 -16.4167 5.86329 9.93563 4.54012 5.39778 1.02482
2316 1 -19.3892 -12.0337 2.44028 2.83872 -0.152809 0.826064
2331 1 -16.6993 -16.0012 13.14 2.41819 -4.70513 -1.57517
2346 1 -3.87909 -20.3228 8.85044 0.287758 -2.14212 -2.95216
2355 1 -8.09089 -0.378838 1.51584 -0.140176 -1.16979 -1.42877
2357 1 -2.48743 -2.52004 1.51303 0.951079 0.843008 -3.86699
2362 1 -20.0591 11.0613 13.102 -0.504365 1.55701 2.00367
2376 1 -15.6719 -1.186 22.3257 -4.87092 3.08295 -2.25138
250 1 -0.634622 -0.738116 5.77773 1.11768 0.355589 0.198332
2387 1 -12.4071 -6.41534 12.6301 4.52198 0.500871 1.50522
2391 1 -8.01952 -2.33583 8.0374 2.0829 -1.09865 5.76519
2397 1 -15.7827 -8.09951 19.4191 -0.0521909 1.72486 2.26217
2398 1 -8.51525 -2.33089 14.2588 1.5512 -6.2997 2.72309
2399 1 -13.2048 -10.1751 10.98 2.67078 -1.36148 -4.93309
2407 1 -13.6667 -13.2355 14.7388 3.38408 -2.98854 -0.0381677
2422 1 -14.8632 3.38279 16.7081 -2.66751 -0.0525529 0.0816135
2430 1 -13.824 -7.20881 15.8234 0.728724 -1.34157 -4.23128
2436 1 -6.6481 10.3014 17.8244 2.77985 2.156 -2.04084
2437 1 -14.6781 -5.00532 10.8511 -7.33765 4.56588 2.34784
2446 1 -1.58049 -5.87665 16.477 -1.21995 3.40632 5.35778
2447 1 -1.21162 -13.6111 17.5296 6.41295 -2.2356 2.15372
2453 1 -1.79006 9.08393 13.4047 -3.66933 4.33725 0.832399
2457 1 -3.98388 1.43767 11.6675 0.32473 2.18892 -0.147482
2639 1 -1.16326 -9.32199 18.9728 -0.68508 -2.93526 -6.61645
2472 1 -19.7856 -1.04617 13.6927 -0.115485 -0.212829 -2.1328
2475 1 -17.0345 11.1028 9.97616 1.25704 3.93177 3.59975
2479 1 -21.3888 -4.17314 2.51508 0.0231065 -1.67969 -1.39086
2485 1 -2.12179 -18.9054 4.2214 -6.12599 2.80624 -1.85937
2486 1 -4.15553 -18.9865 6.4285 2.3114 -0.328746 -3.9466
2498 1 -5.08477 7.45336 5.39618 3.05345 -0.288036 -2.04264
2499 1 -24.3694 -14.5277 8.62321 0.2566 -2.85794 0.673143
2502 1 -6.68352 -12.767 10.3797 -4.22756 -6.49238 -0.184125
2509 1 -3.56205 -8.17343 3.91909 -0.984355 3.52676 -0.903558
2512 1 -10.2199 10.4166 13.4928 2.27213 -0.0670755 3.97935
2517 1 -11.1586 -13.3248 16.1904 4.58527 -2.09943 -0.984524
2522 1 -4.40575 9.37437 0.964854 -2.30978 -0.351454 0.204433
2532 1 -14.7271 -16.3765 1.56544 -1.6511 0.416926 4.28831
2537 1 -1.63994 -23.0416 13.8619 -2.56992 6.88702 -1.48963
2546 1 -15.273 2.93122 13.2096 2.75556 -4.42602 -5.68024
2547 1 -12.4598 -3.44792 5.84171 -4.04389 -4.25019 5.90682
2552 1 -1.86252 -14.2496 8.25941 0.397329 3.27647 0.638555
2556 1 -9.30951 -13.5674 10.5282 -5.69829 -2.86435 2.14871
2559 1 -16.8451 6.89063 5.14677 2.94971 -0.644516 3.64703
2561 1 -10.3015 -2.56843 12.0858 3.70807 -4.01805 -0.638068
2579 1 -10.6276 7.78594 2.52153 -0.435125 -1.81422 1.12218
3812 1 -4.30247 -15.8161 0.0807602 -2.26503 0.540716 1.76417
2591 1 -4.95012 -22.4236 11.9298 3.36565 2.19218 -1.536
197 1 -24.2905 -3.64718 22.6612 -1.90258 -1.57005 -0.761546
2599 1 -5.56768 2.93711 7.07968 -1.98611 2.81083 -3.8871
2601 1 -1.15828 6.89754 5.24308 3.61344 2.7628 -1.55187
2612 1 -16.6133 -19.9225 18.6489 1.63375 2.76123 3.64453
2613 1 -22.2686 4.25898 16.0571 3.07121 1.55583 -0.280055
2615 1 -3.43841 2.93642 16.2492 -2.5752 -4.00407 -0.144542
2622 1 -2.05786 -18.1906 22.9936 1.17701 1.26837 -3.14652
2625 1 -6.9696 -5.34507 23.5326 -1.211 5.76847 3.44466
2626 1 -3.68024 4.42104 22.8997 1.09093 -3.40349 -0.0443777
2629 1 -21.3552 -2.34999 6.50517 3.52838 -3.76721 -2.50722
2630 1 -13.2273 -9.05754 18.1739 -1.87445 3.3475 -0.008366
2636 1 -13.6409 -20.018 15.4242 -1.3124 2.20037 1.53228
2642 1 -6.0792 -19.3699 3.6442 0.42466 0.844552 3.33686
2647 1 -10.4229 5.16341 4.34931 0.0494521 -3.64885 1.85552
2650 1 -4.10673 8.66422 14.9359 3.72645 1.28911 -3.37567
2651 1 -16.2888 -19.3089 15.8146 2.24817 -1.55376 -4.56968
2655 1 -6.65389 -9.54967 1.76524 -2.91006 1.44099 6.16832
2657 1 -10.6583 -7.30193 7.4118 -0.898122 0.876387 2.95873
2658 1 -5.73389 1.02861 16.9095 -1.49915 -3.4806 0.473776
2662 1 -22.7766 -22.5095 10.579 1.21909 2.14866 -0.0628917
2663 1 -8.5661 9.54658 22.8415 -7.77085 -0.0248294 5.06034
2665 1 -21.158 2.43996 1.6201 3.1879 -1.79768 1.65007
1631 1 -23.971 -19.1258 8.7569 0.255989 -0.747058 1.20103
2682 1 -21.6078 0.796969 13.0546 -0.324146 -0.762861 -4.26852
2685 1 -1.72863 -8.63221 6.39105 2.98611 0.862231 -1.79257
2691 1 -20.6474 -22.5668 21.0075 -1.28789 0.846045 4.1312
2694 1 -5.18908 -12.3672 20.0833 0.587857 -5.11872 0.752227
2700 1 -8.78881 -20.0265 3.48371 -1.90184 -0.991607 -2.98319
2705 1 -2.76022 -5.68679 6.5888 5.54911 2.39363 -1.22609
2707 1 -9.99789 -13.0732 1.25687 -1.67344 1.50124 3.00867
2708 1 -14.5339 1.33344 23.568 1.8062 0.729627 -0.465514
2715 1 -11.9238 10.3959 20.6266 2.50346 -1.11719 2.74328
2724 1 -4.1639 4.88393 5.78536 1.48215 4.56817 -6.24101
2730 1 -8.41063 -16.5638 10.0396 -1.61376 -0.89209 0.040427
2684 1 -24.5476 -11.0027 3.27604 3.86814 2.03683 0.0137065
2738 1 -6.88598 8.80768 13.8081 4.95979 2.91798 5.33034
2739 1 -13.0464 -7.43581 20.5621 3.20821 -0.496483 1.3716
2741 1 -7.75935 7.26154 2.55391 0.982617 1.20432 4.42162
1536 1 -7.4188 0.106932 24.3488 -0.164753 -0.698708 2.62018
2749 1 -13.5105 -7.66353 23.3181 3.67438 2.59652 -0.834598
3530 1 -10.9569 10.7295 6.5017 -0.178279 2.2012 -2.04313
2759 1 -18.722 -15.5967 7.91239 -0.790015 2.19217 -2.88273
2761 1 -6.50006 -15.0893 19.1819 -4.31733 -0.57279 -3.91872
2762 1 -10.5114 9.51535 9.27384 -1.4683 0.880208 -1.25492
2763 1 -5.86003 -11.9511 17.1696 -0.288776 4.76271 3.46404
2775 1 -3.60057 -18.8809 14.8819 0.637694 1.64208 4.00607
2792 1 -7.67543 -5.66255 3.75399 3.70162 0.728757 -1.7203
2793 1 -2.02394 1.66847 6.57322 0.0401323 1.31871 0.702635
2812 1 -9.63135 -1.5378 22.6981 -0.995502 0.189356 -0.100845
2822 1 -15.2428 -3.01321 4.57587 2.53468 1.13375 -1.87096
2830 1 -22.4024 6.8946 0.739654 7.52351 3.43822 -0.102824
2833 1 -21.7891 1.62949 6.48571 -0.661821 -0.711836 -0.973278
2834 1 -10.1005 -16.2774 22.1833 3.81619 -2.25856 -1.89061
2846 1 -22.12 0.576159 3.867 -1.69791 -3.93991 -1.2305
2849 1 -22.9964 -23.2952 13.4486 5.50253 -2.36716 -3.27133
2860 1 -21.243 6.85023 19.4024 -3.42746 -0.355128 2.42315
2869 1 -20.749 -16.4256 17.1494 -3.24361 -3.01834 4.13853
2873 1 -10.2218 -2.34988 4.38747 -1.59349 -1.53536 0.993635
2880 1 -1.13999 -0.0634854 15.0707 -5.04388 -1.23881 2.26497
2882 1 -21.7179 -15.9723 21.1538 -0.853875 -2.07246 -3.42983
553 1 -11.3436 5.84212 0.4321 2.88957 -2.34727 0.88285
2894 1 -7.42137 5.91094 16.5082 -1.36537 -1.5985 2.34945
2896 1 -12.4342 4.41816 18.6206 -0.735118 -4.64967 1.47165
2899 1 -5.20662 -21.2738 20.4014 5.20252 2.62261 -4.77762
2903 1 -15.7771 -13.3048 4.46092 -0.822674 1.47907 -3.92556
2910 1 -13.3895 7.35194 18.5986 2.3332 -1.686 7.43013
2917 1 -7.82255 7.28057 5.50604 0.130873 0.0681355 3.24407
2923 1 -13.1335 -0.00661188 19.337 6.10649 3.83127 3.77482
2954 1 -16.0042 -2.58223 9.55224 1.63947 -3.51239 3.55134
2966 1 -3.57194 -22.4097 18.4989 -2.87528 -0.796704 1.17837
2968 1 -3.94777 -12.9829 0.644031 -1.05586 4.06375 -1.13697
2969 1 -4.67651 -2.6761 17.6075 0.987912 1.67521 0.633293
2981 1 -11.8367 8.87977 16.8179 -1.1676 -0.265524 -1.71121
2982 1 -13.1002 -6.21719 6.66002 -0.359224 0.488607 1.07512
1239 1 -1.56782 -23.2291 6.45897 3.51204 0.720878 3.70453
2985 1 -13.258 -13.0667 11.8661 1.41355 2.4804 1.43097
2997 1 -6.86366 -17.9476 6.17909 1.51384 -2.13754 -1.16252
3998 1 -12.454 -3.83545 0.2751 -1.13037 3.35096 2.56852
3009 1 -15.3561 -22.1756 10.0747 2.249 -1.38452 2.98243
3181 1 -21.0999 -16.6041 24.2014 -2.29343 -3.65677 2.97861
3017 1 -13.7283 6.52241 23.2867 1.99866 -1.79441 -1.31664
3019 1 -21.8249 -20.192 12.1647 6.98714 -2.6481 -1.25596
3020 1 -13.9965 -10.3469 8.14003 3.05398 3.77301 0.619452
3033 1 -11.2731 2.98822 6.24248 -2.1647 -0.720281 3.43491
3037 1 -3.61264 -10.4676 7.99375 1.00404 -4.48949 2.68017
4000 1 -17.3614 10.7293 23.2636 -2.78275 -2.8341 2.09859
3074 1 -9.44091 -9.58294 8.96672 2.1228 -0.581486 2.63447
3081 1 -18.3641 6.80011 7.76861 -2.09722 0.0036018 -2.63719
3224 1 -5.29884 -7.45138 0.167426 -2.76636 6.27108 2.60191
3084 1 -16.6306 -23.6839 7.86178 4.18974 0.323319 -3.20579
3087 1 -8.70097 -21.5644 10.983 5.37534 -3.56623 5.72843
3091 1 -3.32244 0.3408 22.6691 2.58953 -1.94086 2.40013
3092 1 -9.02921 -8.27816 20.3943 -0.981564 4.19943 5.45491
3098 1 -11.0429 -18.8525 4.7168 -2.25401 -3.07983 -0.572737
3099 1 -20.2715 7.46256 23.1542 -2.41008 0.480549 0.793312
3104 1 -20.5577 -6.84734 6.95894 -5.93177 0.801651 -2.27573
482 1 -24.1034 -2.46629 19.8167 -0.401541 1.10768 -2.51916
3119 1 -8.65476 -9.67657 3.816 -0.361961 4.43799 2.52891
3121 1 -2.93747 -21.4348 15.9371 -0.615898 1.26354 -0.138761
3129 1 -3.15168 -10.9928 10.9308 0.406524 2.11145 -2.78083
3136 1 -18.3208 -21.9527 6.57898 -2.63649 -1.10946 -2.71142
3147 1 -2.64359 -19.2528 0.55763 -5.06975 0.65761 2.71613
3155 1 -5.70825 -12.1661 2.82649 2.4318 -0.898006 1.02601
3164 1 -20.0371 3.60661 21.2884 0.499136 -2.98244 2.50258
3168 1 -19.3145 -19.7055 17.4861 -8.95558 4.31679 -0.0857475
3172 1 -8.29173 2.15714 6.12367 5.52426 -1.4893 -0.253952
2592 1 -1.05661 -16.9585 7.99819 -1.71877 0.691014 0.772592
3182 1 -18.3716 -24.4589 21.0663 2.88076 2.66813 0.889167
3187 1 -21.558 -14.0113 2.26121 0.963579 4.58387 0.813862
3194 1 -18.8337 -7.2715 1.37384 2.88199 -4.46191 -3.70852
3195 1 -16.4957 0.63261 3.73303 -2.10562 0.580569 -2.85916
3197 1 -2.60044 9.3166 4.54923 -0.0104509 -0.759571 1.91176
3201 1 -15.4688 -3.41465 19.2952 5.63677 4.54491 -0.711661
3204 1 -16.0384 -9.61726 10.2154 3.45988 -0.606328 3.19093
3220 1 -4.69819 -9.30909 17.1528 1.67948 2.35849 -2.5605
3222 1 -15.2296 -19.1184 2.05401 0.58843 3.24861 3.12932
3223 1 -24.1887 7.87644 18.6879 -0.140492 2.10043 0.0619537
3225 1 -9.08216 -6.98997 14.8659 -3.69398 -7.5874 0.604393
3237 1 -3.7677 -13.1039 23.5752 1.0355 2.83086 -4.3122
3239 1 -14.9212 -17.2506 8.68663 1.88363 3.12694 -6.2967
3257 1 -12.0002 6.27213 20.7753 0.978284 4.2922 -2.09777
3258 1 -20.0834 -6.80907 19.6583 1.23583 -0.0377451 1.8747
3867 1 -24.2027 1.56438 1.70419 -3.68136 -3.72989 -1.80307
3277 1 -2.66119 -16.9684 2.4308 -0.23279 1.0457 -4.15499
3281 1 -5.19859 -15.3263 11.2753 0.799874 -0.138929 -4.71136
3283 1 -4.0955 0.334438 14.4499 2.13643 2.16516 -0.192113
3287 1 -4.17771 -14.8387 17.5906 -1.32424 -3.93868 -6.3561
3289 1 -18.0312 -22.1803 11.2596 -1.3741 -4.25556 2.21258
3296 1 -17.7128 -13.3072 16.9532 5.09893 -3.33428 -3.63008
3302 1 -19.2685 -11.1254 20.6078 0.392431 2.58476 -2.23522
859 1 -15.4428 -7.87219 0.430586 1.83602 7.37995 -3.93468
3312 1 -23.9934 6.32407 14.5596 -3.19595 -2.98548 2.45249
3318 1 -10.6772 -0.077757 17.8738 2.82574 1.33886 6.32005
3321 1 -9.4941 -17.5975 19.5186 -2.36042 4.04229 -2.82572
3332 1 -5.10418 7.09623 22.8726 -4.33302 -3.08796 1.24541
3337 1 -14.3701 10.6618 9.71089 -1.79865 -3.30915 3.93334
3348 1 -10.9946 -19.716 1.6299 -2.40872 -1.77978 -4.36621
3350 1 -4.13988 -7.17348 15.299 0.867762 1.73048 -1.12952
3351 1 -21.408 -9.37126 16.9796 -0.311652 -1.60444 1.69714
3353 1 -22.6848 4.42606 18.9457 -0.63383 -3.30545 2.46616
3360 1 -7.69917 -16.7774 17.2027 4.29169 3.22785 8.53664
3371 1 -8.31564 3.58162 13.6698 1.43054 1.09879 -3.31953
3376 1 -15.3737 9.32222 13.8596 -2.89805 -0.0801836 -5.21858
3983 1 -21.1164 8.17301 9.43584 2.89448 -4.39754 -2.8616
3387 1 -18.536 -3.02195 2.48733 1.89877 6.75839 -4.72606
3388 1 -21.7467 -3.22031 14.8535 -1.49431 -0.954122 0.645536
3391 1 -9.66275 -13.332 4.45244 -5.63944 -1.35143 2.12854
3394 1 -12.8548 -1.28863 13.3384 -1.81916 4.06485 2.50903
3397 1 -4.10153 1.92259 20.2257 -4.21259 -0.0738705 0.46861
3403 1 -14.5617 -22.8386 0.8671 1.07186 3.99568 4.01309
3409 1 -3.57036 -18.6881 19.7077 -0.627385 3.11781 -4.43933
3410 1 -20.3351 -8.57958 14.4378 -1.19215 4.94626 0.951969
3411 1 -5.81906 -5.41187 20.5956 -0.623233 -1.72872 3.44545
3417 1 -23.4546 -10.4977 10.0341 -4.37778 -1.65946 -2.77771
3419 1 -11.8605 -10.9534 1.25015 3.31806 0.900409 -1.34911
3420 1 -18.717 9.58296 8.18692 1.5294 0.127793 -1.8613
3423 1 -12.9653 3.39692 1.54295 3.32966 0.546609 1.29132
3875 1 -24.7 0.523536 6.06349 -1.39445 1.31667 1.56644
3426 1 -19.9267 -6.26241 3.92126 2.52085 1.27905 3.78575
3430 1 -14.4107 -16.0471 20.3418 1.0686 1.21617 0.984439
3432 1 -1.93479 9.43638 8.27617 3.73092 -8.26196 -1.13709
3436 1 -4.10919 8.88914 17.7927 2.21363 -5.25547 -0.120335
3438 1 -18.8462 9.43127 2.93084 2.42139 2.24619 -0.0990859
3442 1 -6.88409 -0.382488 4.35058 0.396045 5.21705 -0.289387
3448 1 -19.6398 3.15859 15.4299 4.54844 -0.257216 0.703918
3461 1 -13.1 -23.9298 19.7789 1.20309 -0.619895 -3.66627
3464 1 -17.9871 -20.0401 13.7602 0.500804 -2.58775 -3.52403
3468 1 -7.5002 -8.18661 22.9504 -2.1739 -5.74165 -0.573309
3469 1 -2.7292 -8.24332 1.25617 -1.3575 2.42697 -0.809403
3475 1 -23.7197 -13.0224 18.9548 -1.2901 -1.9162 1.49999
3490 1 -17.7572 3.96246 5.62504 -1.67551 0.89901 -1.20118
3494 1 -16.4325 3.49937 22.7263 0.366254 -2.70847 0.317364
3497 1 -16.3117 10.2224 18.0755 -2.40104 4.03151 -4.10317
3510 1 -12.4071 4.79854 15.6095 -3.62812 3.07196 0.174503
3512 1 -18.4802 2.7923 3.0474 -2.80733 2.40622 5.63501
3519 1 -3.20133 5.60019 16.5533 -1.09051 0.93507 -1.57415
3520 1 -4.81591 -14.7648 21.5386 -6.4575 -4.11171 1.2213
3523 1 -13.7947 -19.9561 8.89419 -0.577949 -2.22434 -0.893748
3529 1 -21.2931 9.24408 21.0635 -0.301816 2.25927 2.31497
3549 1 -10.6699 8.04724 5.6065 -0.714341 -3.50419 3.11166
3556 1 -8.92453 -13.5526 20.1313 -3.91183 -3.21963 2.01237
3566 1 -11.5749 -16.0098 4.78299 6.10582 0.629818 -6.0929
3581 1 -13.122 8.38333 4.25561 -1.17121 -3.69589 4.05318
3582 1 -15.6048 -23.3829 15.0542 -3.47731 -3.48586 0.343446
3591 1 -8.15654 -10.9127 23.5783 0.394086 0.60886 3.86602
3595 1 -3.49865 -16.1663 6.77047 1.15559 1.7051 -6.92093
3603 1 -5.30289 -1.15053 10.6885 1.30005 -3.21867 -8.04044
3607 1 -18.5396 5.79724 18.26 3.14521 5.86504 -3.66775
3616 1 -11.8982 -11.089 22.7983 -2.09568 0.155818 -1.56881
3629 1 -4.77436 -1.06156 2.63967 4.47458 0.545451 -2.70223
3632 1 -14.2687 -16.0531 14.7239 -2.78446 6.43655 0.884238
3634 1 -0.949987 3.1568 8.89732 -0.0278549 6.72796 -1.60241
3642 1 -4.4022 -15.0935 4.40605 -8.64201 4.84643 -1.67694
3651 1 -10.0372 6.27207 11.1002 1.27454 1.80898 -2.43573
3656 1 -11.7313 -19.5935 18.7548 1.31017 -0.085409 -5.60644
3668 1 -13.3524 -2.30143 20.9744 -0.731374 0.0118613 -2.13143
3979 1 -10.8023 -24.0799 3.68892 -2.33631 0.0987172 1.34567
3673 1 -5.21582 -22.8147 22.9525 3.42774 4.20362 0.406716
3678 1 -18.406 5.88033 15.1945 0.412366 4.9082 1.43048
3681 1 -7.07785 -0.0162274 14.4873 1.56254 3.54181 -3.46702
1912 1 -15.4952 3.97819 0.250075 -2.65563 -1.69386 2.99909
3695 1 -8.00863 -6.4111 0.941879 -5.78912 -2.27422 -2.41613
3698 1 -22.7767 1.38375 15.7448 -3.43696 -0.810409 -2.55001
3699 1 -9.49671 -5.33243 12.5444 -0.734014 7.30897 -1.52664
3710 1 -7.13985 -8.21331 18.0916 -1.95602 1.09356 2.51363
3714 1 -12.2275 0.21285 22.1174 0.941658 -1.42761 -2.12402
3718 1 -17.93 6.7359 2.19703 -1.18195 2.46987 1.98344
3738 1 -6.70613 -6.20498 16.0644 5.04812 0.261784 -1.69088
3749 1 -24.5689 -2.63646 14.0918 1.90848 -4.76783 4.14427
3751 1 -5.71967 -3.63834 2.5894 0.711178 2.18224 3.5672
3754 1 -10.5946 6.69961 8.2937 -5.94561 4.11876 -2.98208
3767 1 -11.9619 -22.3402 1.61239 1.085 -0.148083 3.27176
3769 1 -21.7913 -17.6711 9.49781 -1.69964 -0.295744 2.07541
3770 1 -8.04554 -5.35015 8.67306 0.528558 1.01735 -3.45935
3779 1 -9.3099 0.176032 8.17489 6.85768 -1.23395 4.62929
3781 1 -5.07336 -4.52146 8.62157 0.650159 1.11585 3.76183
3792 1 -10.9102 -8.77042 11.35 1.13518 -3.6686 -2.60809
3797 1 -15.9864 -14.7188 8.49643 2.36356 1.96073 1.64946
3810 1 -19.1292 -4.10626 13.8337 -0.762037 4.38753 -0.33388
2194 1 -20.8411 2.75101 23.8296 2.52835 -2.26202 2.64059
3816 1 -15.1793 -8.40642 3.26953 -1.4712 1.42768 -1.38567
3840 1 -10.3639 -21.9131 13.5005 -3.24511 -0.0509231 -1.00386
3843 1 -1.46452 -17.0173 14.4901 -0.478438 5.67378 1.82109
3844 1 -22.76 -14.1807 6.33005 -0.94134 2.8396 -1.18893
3855 1 -4.10858 -5.74183 23.2593 -1.29656 -4.44182 -1.69977
3861 1 -18.1339 -13.8712 22.0854 1.97693 -2.89793 4.13089
3863 1 -13.5985 -3.99404 13.6399 5.41964 -1.06244 1.95922
2114 1 -0.528336 -23.1663 20.1517 1.46098 1.11656 -2.23927
3869 1 -7.51894 3.94275 9.01075 -5.15847 0.698769 -4.88324
3873 1 -4.06981 5.95574 13.661 -0.891191 -3.56215 4.02119
3876 1 -23.6566 -10.824 21.1949 3.05689 3.47338 3.6778
3893 1 -6.75791 10.3686 11.4842 4.90637 3.24324 0.392355
3903 1 -18.9133 -14.7443 3.4225 -1.53743 3.57721 -1.80719
3907 1 -22.2319 0.0372164 10.3294 -5.91434 3.97118 1.28316
3912 1 -9.67522 -9.08716 1.02628 -1.04434 -7.3227 2.88793
3913 1 -7.80254 5.02262 0.629203 4.25142 -1.80813 3.73075
3920 1 -10.3348 10.4749 18.4282 -1.31329 -2.98815 -4.6632
3924 1 -10.6242 -6.25216 10.1259 -2.50015 -0.503243 -3.62289
3925 1 -22.6687 4.81967 2.6982 3.65243 0.674941 -3.09317
3931 1 -1.504 9.75759 1.89589 2.04378 2.48731 -0.703233
3933 1 -3.2429 -10.2338 20.7741 2.30789 2.60327 -1.60938
1908 1 -16.9686 -5.35247 0.419348 -1.7636 -2.10759 -2.51602
3943 1 -20.6542 -19.7095 2.48614 2.17591 -4.19441 -0.960452
3965 1 -5.47898 1.36928 1.39583 4.07849 -0.164179 1.57427
3971 1 -4.77585 -1.82773 21.3099 0.07445 -0.665089 -0.711115
3686 1 -22.8468 9.97749 0.433205 5.34214 0.0470426 3.83888
742 1 -7.51997 -22.386 24.2204 0.953926 -3.18524 2.37489
1648 1 -21.6951 -13.8593 23.9395 1.50311 4.15053 -1.59129
1994 1 -24.2652 -18.1599 4.27464 -2.08243 -0.508043 1.38076
865 1 -1.44682 -21.9277 11.2148 0.707831 0.953213 0.17953
678 1 -20.8156 -5.77514 0.13417 5.90793 -0.294481 3.69207
2747 1 -0.593169 2.70562 15.0831 1.69985 -1.81662 -3.40595
1048 1 -0.602665 0.239322 18.1594 -3.53105 -0.80271 0.581634
2893 1 -12.0468 -15.94 24.2957 -4.60939 5.49582 2.38405
2252 1 -24.3086 -13.146 0.102719 -0.959444 -0.974454 3.98841
628 1 -22.7516 -15.6371 0.339263 -0.75555 -4.84037 -4.15654
32 1 -9.93665 12.8032 -20.5384 2.08106 2.05158 -3.42613
36 1 -14.1628 20.367 -17.9976 2.66248 4.51402 2.26936
45 1 -9.85151 12.9213 -2.88144 -1.01249 -1.15124 -0.637124
1034 1 -14.0258 12.1467 -9.40745 2.92489 -0.911141 -0.137812
67 1 -14.6797 22.9104 -11.6542 -0.762523 -3.45349 -0.347412
4110 1 -9.68846 46.1937 -0.18524 -2.59858 0.0371555 0.0360364
70 1 -16.0881 14.6231 -16.3593 -3.36245 0.137679 1.02082
2731 1 -24.12 22.9722 -7.89819 1.18214 5.43722 -1.15675
78 1 -18.4773 13.0624 -8.26615 2.40364 2.18173 2.89273
80 1 -13.2947 13.699 -12.9523 -5.25331 -0.0548378 4.08514
83 1 -21.1349 11.6158 -0.991316 0.0960445 1.67335 0.180312
88 1 -9.95727 21.0104 -19.9636 1.01509 -1.31434 -0.302358
109 1 -12.2332 15.692 -14.9553 1.6231 3.90758 -1.81004
130 1 -9.67929 16.688 -19.7997 -1.46214 0.49635 3.56729
154 1 -8.19096 21.1736 -5.11662 1.37107 1.98741 4.75535
172 1 -19.7202 20.0918 -19.9055 1.23278 -0.346133 2.63578
176 1 -2.97597 22.5234 -3.74523 1.80104 -2.92346 5.47511
209 1 -6.61957 16.2906 -15.5967 1.2645 -3.53601 2.34307
210 1 -18.3011 12.2429 -1.44026 0.8584 -0.940192 -4.24538
212 1 -14.8052 24.5994 -4.66471 -1.3535 -3.39755 3.22857
4182 1 -1.4449 37.1944 -0.796409 -2.8094 -3.48859 2.31722
245 1 -10.0552 23.7964 -12.1868 0.53478 1.42093 -1.45416
267 1 -11.7176 20.3009 -11.0825 -2.25172 1.01731 -2.1387
268 1 -21.0173 17.9967 -12.9149 -1.53377 -5.27422 4.25423
286 1 -4.69228 17.4562 -1.10738 -0.623111 -2.82061 -1.93654
301 1 -5.88528 20.6799 -21.0991 4.8926 1.39383 1.22992
322 1 -11.6661 12.783 -0.811674 1.19127 2.96705 -3.19292
374 1 -5.49929 18.5711 -12.0888 1.05124 -2.46273 -0.676639
394 1 -8.98981 11.7296 -5.21775 2.1974 -3.25491 2.29057
4205 1 -2.82724 39.5891 -1.61945 -4.14035 1.86375 0.585891
2768 1 -5.07456 23.406 -0.424373 0.722554 -1.38944 -1.94163
439 1 -1.65958 23.2406 -6.39698 -1.30113 -1.39436 1.47466
440 1 -9.77386 14.1541 -14.8986 1.74352 -0.254476 0.137908
489 1 -12.3419 22.0792 -13.0843 0.0560431 4.5112 -0.161725
3235 1 -5.98107 11.3845 -11.1107 2.98146 -1.09288 4.8792
521 1 -9.73059 23.2221 -7.21109 -1.13907 0.25595 -0.273916
526 1 -19.9727 14.7397 -5.20837 1.12165 4.96921 -2.56386
527 1 -3.22407 13.9573 -8.22555 3.39195 -2.14347 -3.83974
528 1 -13.6378 15.7763 -10.9091 3.88624 -1.43073 -4.82235
556 1 -11.2881 16.8935 -2.69218 2.28937 -0.552003 0.703538
567 1 -19.9171 22.2428 -2.49312 1.82074 2.28164 0.729593
569 1 -6.61693 23.2798 -16.5193 2.9385 3.21488 -1.65486
612 1 -3.89665 11.9264 -13.2697 2.05843 0.365814 1.89051
617 1 -11.8016 23.1869 -19.0095 4.71602 -0.789365 0.918486
621 1 -6.90874 13.9144 -14.1481 6.93741 -7.04216 2.23173
4198 1 -2.24403 41.3903 -8.42294 -2.57339 -2.59055 0.789493
673 1 -1.11876 18.3673 -23.3805 -2.70796 -2.97333 3.72581
682 1 -3.60664 16.6791 -7.36686 3.37632 -4.49469 4.6841
697 1 -20.7608 16.2507 -19.7592 -3.00185 4.99872 0.961242
723 1 -22.0928 13.1591 -5.26673 -5.03165 3.69625 -2.89858
724 1 -8.86213 21.276 -10.7625 -1.64896 0.897826 2.40074
728 1 -10.8803 17.0433 -7.72999 0.619748 0.378682 -1.19026
731 1 -11.9989 11.8997 -23.2821 4.25396 -4.08915 2.12731
757 1 -18.1518 12.9102 -4.14629 2.78102 -1.20397 -1.08392
4221 1 -3.44346 43.9256 -9.18886 -6.48118 -2.55881 0.342362
766 1 -11.1707 17.7929 -16.7725 1.59099 -0.662388 3.48861
1698 1 -8.09809 11.7543 -0.820612 8.30902 -0.198908 1.81429
4170 1 -1.92483 37.0889 -5.64489 3.00149 -1.51012 2.98929
792 1 -23.3425 13.6524 -7.83709 -3.93511 3.94837 -5.06037
799 1 -10.2903 19.5512 -1.94352 -0.435899 -0.448941 2.56788
809 1 -4.39046 23.197 -18.0934 -3.36515 2.18747 -2.3413
813 1 -15.7982 22.61 -18.4136 6.78486 1.873 1.73294
839 1 -22.7808 18.9093 -10.6719 -0.646772 -0.304206 -2.37768
848 1 -4.75923 16.0671 -13.2929 -1.16631 2.6842 0.389075
851 1 -22.912 16.8739 -14.8936 -5.68224 3.60682 0.431956
855 1 -17.109 21.6413 -20.9472 3.15757 -1.73209 -3.82876
4230 1 -1.00154 45.8929 -1.3191 -2.06205 -0.53401 0.557286
902 1 -8.34711 15.9293 -0.407698 -3.97155 -7.24435 -0.816865
903 1 -5.52893 23.5077 -20.7612 0.501919 -2.25118 -7.69433
912 1 -15.8862 21.9815 -8.79612 1.3423 -4.38551 -1.49062
934 1 -3.07293 17.2617 -21.4608 1.31677 -4.1707 -1.80883
955 1 -11.4833 18.7333 -19.6023 0.92941 0.64709 0.876812
963 1 -16.1218 23.7401 -13.7736 -1.16834 -4.66266 3.28794
968 1 -1.84627 22.9891 -14.7034 -0.260359 3.03965 5.38988
984 1 -14.717 16.5617 -4.88008 -2.10775 -1.74363 5.00647
861 1 -24.2111 21.1739 -12.3519 -5.82137 -4.73554 2.27142
1044 1 -3.84778 21.3851 -10.9472 2.58937 -0.327212 -0.0810746
1054 1 -14.5279 22.2073 -0.433658 0.994375 1.61243 -0.369194
1071 1 -20.7062 23.0695 -12.8585 -2.61141 -9.18008 0.123893
1074 1 -10.2389 11.6451 -15.983 -1.20624 3.33547 0.781711
4218 1 -2.17205 46.1412 -5.39602 2.15276 -1.5675 -4.05937
1094 1 -22.7715 17.8608 -23.5464 0.535488 1.84178 3.23263
1095 1 -6.61652 21.253 -12.3472 -1.37976 4.04294 -2.29762
1122 1 -7.34975 22.8853 -2.04261 3.59654 2.87895 -0.0530893
1124 1 -1.87121 13.7153 -16.8295 -4.01332 -1.61071 -4.38165
1130 1 -2.42833 14.3131 -14.213 1.55534 4.44411 -1.10457
1187 1 -13.8029 17.1252 -7.93467 0.990868 0.85369 5.39758
1210 1 -3.16179 18.4093 -4.89959 -3.41454 -2.7258 1.34889
1232 1 -20.3824 16.0693 -22.7917 -4.50093 1.24484 0.526338
1265 1 -8.30053 12.9738 -10.3821 3.31963 2.22528 -2.53664
1277 1 -10.2247 22.3181 -3.37602 -2.50583 -2.90762 0.721963
1279 1 -19.2091 15.5922 -12.8486 -7.3384 1.30766 3.677
1292 1 -5.87933 18.1052 -3.76617 -6.82856 -3.66516 4.61008
1311 1 -3.12774 18.3713 -13.9076 -0.687966 -3.17695 0.554352
1327 1 -8.48287 21.2915 -22.5118 -1.27768 -3.3448 2.72873
1330 1 -8.84833 15.796 -6.56528 3.8745 1.92044 -1.68018
1335 1 -14.7724 23.695 -16.0911 -3.05983 5.97315 -1.00428
1368 1 -17.3062 16.9777 -0.54605 2.5141 1.08289 1.93498
1400 1 -12.3277 14.9375 -23.3018 1.18855 3.34442 0.330064
3080 1 -21.1997 11.3164 -7.85753 3.90616 -2.24227 4.83934
1420 1 -12.5977 18.7624 -22.3456 0.877464 1.62502 0.170718
1440 1 -22.8379 13.1947 -2.5252 1.39018 1.24988 0.754897
1465 1 -22.5638 21.6546 -14.592 -5.15567 -4.47466 -5.05076
1476 1 -21.087 13.6824 -20.7752 4.9837 -2.18316 -0.119109
1481 1 -6.66337 15.4953 -2.35224 -6.66254 0.192152 4.98349
1489 1 -22.9449 15.7073 -1.11253 -0.930929 1.0285 1.19543
1507 1 -19.4995 19.7211 -7.36934 0.329766 -0.231487 -3.07694
2754 1 -11.6101 25.2509 -0.512229 8.43026 -1.1969 2.83065
1537 1 -1.87323 23.8149 -17.229 -1.81858 0.560252 1.60276
1544 1 -3.85416 20.5742 -18.8136 3.96696 3.4259 -2.95292
1553 1 -9.6219 19.9225 -15.5746 5.67211 1.0173 0.408371
1565 1 -7.19093 15.3693 -11.4408 -0.0568341 -0.682412 1.60881
1579 1 -5.31048 12.9976 -6.59802 -1.6341 0.966743 -1.14274
1609 1 -23.0669 18.0369 -19.8921 4.21119 2.1808 0.51358
1610 1 -12.5092 19.9834 -15.3946 2.49196 0.588099 -4.05443
1637 1 -1.45693 19.8105 -3.31043 1.06277 -2.80474 2.5224
1643 1 -7.17001 22.5316 -8.72327 -3.21267 0.887816 0.300261
1692 1 -2.08097 20.1135 -6.98656 0.426363 6.00831 -0.442535
422 1 -2.40119 15.5552 -24.0337 0.829431 1.7294 -2.22875
1734 1 -7.14491 24.0261 -23.2242 1.1821 -1.82243 0.73281
1764 1 -14.4461 17.3747 -13.5492 1.71086 0.444804 2.74664
1803 1 -15.4265 14.7414 -8.86425 1.46029 -3.61 -1.45136
1817 1 -0.963613 18.0227 -17.6812 -1.9974 7.89354 -0.278854
4173 1 -3.7598 34.5619 -9.54752 2.10993 -0.684438 -1.07193
1899 1 -5.40998 20.2216 -5.62555 -0.324029 0.0961032 1.41025
1933 1 -1.82086 19.4095 -20.0742 2.06035 0.254866 -0.922906
1947 1 -17.6115 12.6085 -14.4494 -3.4969 0.65747 -3.6061
2002 1 -21.9218 21.0776 -8.94788 -2.60233 0.802814 1.2677
2007 1 -10.6419 14.1169 -11.6897 3.30838 -3.65616 3.68781
68 1 -0.576332 14.0141 -20.6279 -0.571657 -2.39701 -3.19453
2062 1 -16.8691 19.1617 -8.70212 2.32626 -0.723902 6.4231
2076 1 -13.1892 23.7612 -9.4328 -5.35042 -0.74966 -4.57565
2081 1 -23.9476 19.253 -16.0948 -0.470991 0.322245 -1.00921
2092 1 -18.4749 22.2531 -23.2309 -0.00718231 2.73099 2.30623
2093 1 -2.90701 13.0639 -2.11457 2.60921 -1.57833 0.819341
2154 1 -10.4044 17.5238 -23.6986 -4.54052 1.3949 5.11291
2156 1 -21.053 17.6077 -8.74176 0.0581765 -7.14658 -1.00586
2166 1 -15.2448 18.7217 -15.9076 -2.4954 -2.52651 -1.55491
2223 1 -20.06 13.1038 -23.4259 -2.24824 -1.39355 1.04907
2224 1 -15.2271 13.816 -4.04277 -1.02878 1.45588 -0.237034
2232 1 -23.0491 23.4297 -16.7142 0.192699 1.7943 -2.33946
2249 1 -14.8379 11.899 -16.6222 7.01264 4.69525 1.92564
2258 1 -9.56953 15.0312 -22.3855 1.86827 0.854843 0.816307
2275 1 -11.9252 22.73 -15.8753 -1.95682 -5.71761 -4.00308
2284 1 -21.0937 22.6942 -22.8627 0.25535 3.02747 5.06509
2289 1 -2.81387 13.1 -22.2053 0.0371227 -3.55283 -0.284295
2303 1 -11.5856 18.2169 -13.221 3.58964 -0.609109 -0.34893
2313 1 -8.08012 13.1328 -18.4877 1.52719 -1.61853 -4.09277
2352 1 -1.61778 21.0626 -22.4969 -2.25543 -0.606274 -1.69314
2382 1 -13.9615 16.4077 -17.3969 -1.04261 -2.00833 0.0519646
2401 1 -16.7135 20.638 -3.75719 0.945742 -7.62244 0.0674834
2421 1 -24.0318 16.5071 -7.4446 -3.35157 0.487601 3.51821
2431 1 -18.8613 17.508 -10.7864 -4.30466 0.141181 -2.00856
2458 1 -22.9217 21.2088 -1.90247 -0.937617 -0.733914 -2.79284
2459 1 -19.1519 15.8869 -7.71241 3.87057 1.73547 -0.104867
2461 1 -20.2238 17.3184 -4.08006 1.85937 0.968129 5.55662
2471 1 -1.27471 23.9486 -21.8728 1.61977 2.82714 -0.698868
2533 1 -13.0347 23.6896 -2.63788 1.79797 -0.673277 -4.2446
4181 1 -2.98236 34.98 -1.99873 1.18384 -1.5006 -2.56875
4112 1 -5.40057 44.3967 -0.405425 5.80279 0.0730513 -2.40329
2570 1 -20.4933 16.6363 -16.6319 -1.04933 2.83737 -4.66984
2580 1 -24.012 13.3817 -21.1523 0.392526 1.11545 4.68785
2603 1 -23.257 19.0998 -6.97664 2.24449 -0.433823 2.53717
2611 1 -21.9251 24.1073 -20.5563 -2.85813 -1.70309 0.58359
2614 1 -12.4228 12.2274 -17.8674 -0.966338 1.15479 -3.77307
3929 1 -1.69808 11.5947 -8.27053 -0.57766 3.20192 -0.540119
2623 1 -19.8123 18.9692 -22.8768 -1.76052 -1.20289 -1.31751
2624 1 -18.0817 18.3484 -5.19489 2.41119 -1.56912 -0.0338292
770 1 -4.24335 20.8417 -23.2317 -0.584499 3.69637 3.3468
2649 1 -17.7648 20.1918 -11.4131 -1.45117 0.705094 -4.71979
2699 1 -16.115 14.4617 -1.53899 0.37903 4.31197 -2.43719
2702 1 -7.1044 17.6672 -19.1524 -0.727027 -4.17338 0.229926
2722 1 -10.0313 19.5695 -6.50411 -2.12866 -3.43378 3.50953
2750 1 -14.0238 22.1184 -20.6673 2.0195 8.72897 1.65482
2752 1 -9.32911 18.9179 -9.40118 0.310167 4.18475 2.71306
4193 1 -2.97894 39.2066 -4.32581 -2.52433 -0.476269 1.74266
2551 1 -5.8246 11.7114 -15.4495 1.67081 4.23016 2.78072
2772 1 -14.2487 18.1253 -20.0313 -0.704557 1.89497 -4.20257
4206 1 -1.21268 41.6724 -0.972279 -4.61308 2.50384 2.80893
2804 1 -17.7706 14.7248 -10.433 1.84599 -1.87132 0.965223
2806 1 -3.82785 18.9017 -16.6323 -0.320938 3.72643 0.969647
2807 1 -20.0709 17.1555 -1.26812 -4.64884 0.242483 2.89687
2836 1 -12.2153 18.1799 -5.04998 -8.17827 0.348853 -2.87529
2866 1 -18.7422 22.4452 -7.40082 -1.6616 -1.49557 5.05392
2867 1 -17.1125 16.492 -14.5282 -7.79862 -6.20224 0.461867
2870 1 -10.9226 16.8161 -10.7685 2.55926 0.567006 -1.30218
2878 1 -18.2197 21.817 -13.6019 -0.676295 2.27113 0.202113
2881 1 -16.2116 15.4981 -20.1526 -2.51367 5.41492 -2.16206
2897 1 -2.3178 15.6865 -1.38654 0.351856 -3.09989 0.643548
2904 1 -5.66354 12.6467 -2.27932 -4.04204 2.49282 2.34857
2907 1 -16.0746 22.2767 -6.01715 -0.0743883 2.89561 -6.09459
2952 1 -11.6631 21.6676 -22.6467 3.18846 0.0413512 3.49211
2956 1 -13.9723 19.6047 -1.65832 -1.46303 0.940363 4.72815
2959 1 -17.7325 16.8692 -22.0867 -3.20067 -4.5072 -6.26218
4229 1 -2.87259 43.8732 -1.80273 0.254915 -1.59851 -2.20467
2976 1 -20.2943 19.8916 -14.9839 1.06005 -2.08918 -1.70512
2983 1 -7.01453 14.0277 -23.6177 2.32328 0.269796 -0.643466
2986 1 -5.87639 17.842 -21.6725 -2.28416 0.0655339 -1.66373
4197 1 -3.5121 39.0159 -9.08998 2.05378 3.89018 2.68616
3021 1 -17.1817 22.5629 -1.64582 2.1497 -7.25395 0.775768
3030 1 -15.0764 19.7931 -11.9984 -4.23336 7.03898 -0.605192
3044 1 -5.00324 15.186 -4.93363 -1.4732 0.17643 -3.41135
3052 1 -21.567 14.355 -13.9563 -0.534778 1.00142 1.1203
3060 1 -20.66 21.8536 -5.18429 3.01695 1.79664 -1.57938
3061 1 -9.24501 22.5922 -17.4663 2.19881 0.0431848 1.19403
3062 1 -9.26119 15.6528 -17.2812 -2.13237 3.83959 3.60172
4217 1 -3.36361 43.8742 -4.72464 1.55793 -1.35356 -1.18463
3151 1 -11.6802 47.297 -16.0001 3.89028 -1.71079 3.1751
3115 1 -18.1966 18.326 -16.6289 -3.35953 0.215744 -0.00897363
587 1 -19.0068 47.2256 -8.92357 3.44891 0.789557 2.32413
3882 1 -24.1293 17.8377 -2.57568 -0.465809 4.44924 -2.45461
3133 1 -1.2182 14.4483 -11.664 -0.413744 3.88566 -0.0892089
3152 1 -13.4808 15.3341 -20.9785 0.718918 -2.38563 0.219471
3165 1 -5.93185 20.5815 -15.8491 0.904735 -4.97535 -0.0351679
3171 1 -5.05069 14.9349 -21.5755 -0.830397 -3.4793 0.300312
4222 1 -2.099 46.3045 -8.31046 2.79082 2.76116 -3.34804
3185 1 -16.3618 19.3529 -21.8345 -7.31719 -4.38391 0.245032
3188 1 -20.0534 13.0557 -11.4503 0.686602 0.308863 -0.298935
3190 1 -21.5083 19.1863 -17.79 4.36705 -1.96142 2.01624
3218 1 -4.53308 21.3098 -8.06984 2.98239 0.0957674 -1.94545
3226 1 -22.7629 23.209 -10.8075 -0.462666 0.0371073 -3.27064
3230 1 -23.1293 12.5492 -24.0391 -4.93477 -4.24788 8.94635
3041 1 -20.6646 19.8662 -0.469466 1.08404 1.29324 -0.516824
3255 1 -18.9251 12.2938 -19.4742 3.38999 -5.82954 1.9009
3256 1 -7.03614 17.5077 -9.74598 -5.07058 -3.10322 1.02785
3299 1 -13.5294 21.454 -6.13204 4.74197 -4.24381 -1.69002
3308 1 -16.0247 18.0014 -2.93278 -2.51453 -2.11496 -2.49443
3330 1 -7.41605 18.6812 -14.2038 3.99499 7.37018 -6.24567
3347 1 -23.7868 12.5631 -14.6865 -1.01639 -3.24586 -1.55407
3383 1 -20.8253 24.6482 -17.8203 3.35868 -0.904565 0.994433
3393 1 -11.5895 14.7912 -18.8807 -2.60631 0.918881 6.91705
2617 1 -4.03331 12.0233 -17.6438 0.772865 -0.330005 -3.12634
3435 1 -3.87494 21.2345 -13.716 -2.20046 -0.70424 -1.28346
3462 1 -11.6535 21.5227 -8.14188 -4.1712 -1.53802 3.82315
3480 1 -23.1615 23.2091 -5.28919 -3.0139 -2.63788 -2.24097
3499 1 -22.2762 20.1612 -21.4961 -0.567937 -1.12697 6.70451
3501 1 -16.5492 16.9211 -7.08899 2.64257 1.58667 1.31121
3502 1 -5.58612 22.9447 -4.46408 4.31639 1.03659 -3.15127
3506 1 -22.1651 19.2882 -4.31967 1.78428 2.53342 -0.889673
3514 1 -4.29593 18.6729 -9.2828 -2.3357 -0.860271 -4.30043
3525 1 -16.7975 12.868 -21.5733 1.74015 4.87857 -0.0811773
3532 1 -7.95158 13.3609 -7.44772 3.19207 2.92667 -1.13448
3540 1 -1.56324 12.9555 -4.52749 -3.41945 -2.12303 -4.7731
3543 1 -16.3209 12.7841 -6.41578 -0.702984 0.0833329 0.899932
3544 1 -7.41057 20.019 -2.46594 1.14085 -1.61101 1.97783
3553 1 -9.13532 15.5257 -3.88429 -1.87299 -7.69269 5.67957
3560 1 -18.3967 14.759 -18.2195 -4.41091 -1.78863 -5.00607
3600 1 -19.6601 22.2766 -10.3468 -0.0143699 3.59105 -1.23866
3611 1 -17.1489 21.0916 -16.2836 -0.105788 2.56942 0.882677
3612 1 -2.03377 15.892 -4.33466 3.47811 -2.11963 -0.600942
3620 1 -4.18958 13.9809 -11.0241 0.669157 -4.39715 -2.30532
3655 1 -8.68057 22.3315 -14.3149 -0.947893 3.82291 0.517521
3675 1 -13.9134 19.6406 -9.29457 2.50661 1.96885 0.181714
3717 1 -2.32235 15.6661 -18.8425 1.45935 -0.981535 0.20022
3719 1 -0.437365 14.8738 -6.71956 2.39892 -4.65329 -0.0168915
3721 1 -1.46019 17.9467 -8.98313 -5.02703 -0.195985 1.34763
3725 1 -12.4804 20.7392 -3.69869 -3.89978 -0.0582896 -4.39679
3736 1 -22.7479 13.9336 -10.7047 1.61767 2.46567 -0.603539
3747 1 -18.8123 22.4998 -18.3406 -3.08959 0.503982 3.12645
3752 1 -20.0299 13.4741 -16.1931 0.962474 -3.91622 5.14322
3791 1 -9.14195 16.401 -13.1174 -2.35364 5.07745 3.21258
3805 1 -4.82197 16.5257 -17.8128 2.07857 -0.215121 0.555343
3807 1 -7.49763 20.3307 -18.5989 -3.72003 1.55758 -1.48809
3826 1 -0.984302 16.7638 -15.0679 -2.19468 2.0961 6.06007
3828 1 -18.2968 17.554 -19.3092 -3.0838 -0.927619 -2.86152
3831 1 -2.81901 21.5942 -1.10119 -1.67223 0.286853 -6.3783
3473 1 -24.6006 23.7624 -20.4207 3.06623 -3.78962 4.52596
4194 1 -1.98784 41.5477 -5.58295 -6.02249 1.98686 -2.87311
3901 1 -16.1176 13.1674 -12.2167 -4.71681 -1.07265 -2.11985
3910 1 -6.46563 17.4605 -6.87082 -0.80612 2.70446 0.609501
4174 1 -1.98997 36.838 -8.42356 -5.56845 5.56108 -1.63406
3940 1 -2.40698 23.1393 -9.09933 -1.09971 3.55469 0.0191364
3956 1 -12.8981 12.3343 -3.4365 -0.558921 1.22896 2.7833
3978 1 -1.65446 19.3446 -11.4646 -3.27906 -1.54037 5.23429
3984 1 -5.49846 13.8765 -18.9859 2.85985 -2.76618 -3.52865
4001 1 -10.3924 24.831 -4.88939 3.88132 1.14978 -3.35681
4002 1 -9.48035 27.2853 -5.43736 4.67828 1.11029 -3.20142
4003 1 -6.89754 27.6816 -4.50684 -2.6574 -6.23468 0.360122
4004 1 -5.47639 25.55 -5.72538 -0.414581 -0.499635 3.91061
4005 1 -10.5469 24.738 -9.49374 -1.26137 -1.13962 -2.19062
4006 1 -10.181 27.133 -8.08655 2.37967 -1.32969 -0.192726
4007 1 -7.38421 27.667 -8.42218 0.479911 0.267382 4.62372
4008 1 -6.1547 25.0197 -8.34399 0.730813 1.06456 -2.63599
4013 1 -9.27381 25.0634 -2.19673 -0.145821 -4.01395 2.71592
4014 1 -8.80499 27.621 -0.587194 -3.62173 -0.425451 -4.02173
4015 1 -6.24841 27.7227 -1.83961 0.570207 -2.14324 -3.60938
4016 1 -4.00309 26.2347 -0.85386 -1.61781 0.372368 3.53925
4025 1 -10.3756 29.4593 -3.92294 -5.06125 -2.15399 5.67682
4026 1 -9.52987 31.9106 -4.89386 -1.59528 -3.38309 0.542893
4027 1 -6.93319 32.446 -4.10239 0.878364 -1.05724 0.989745
4028 1 -5.82441 30.0834 -5.21321 -1.95761 0.00839184 -1.60369
4029 1 -11.2432 29.6204 -8.65639 0.917218 -2.75597 -0.0332299
4030 1 -10.3566 31.8779 -7.74769 2.15761 6.18229 -0.022734
4031 1 -7.61047 31.9705 -8.35159 -1.65989 -4.02554 4.6559
4032 1 -5.75468 29.9066 -8.08471 -0.448799 4.7755 4.22143
4037 1 -10.0732 29.732 -1.26202 -2.09285 3.18205 1.14882
4038 1 -9.36693 32.2442 -0.171776 0.761197 4.31036 1.64907
4039 1 -7.00401 32.6412 -1.36419 4.29352 2.84095 0.0693922
4040 1 -5.17831 30.2548 -0.636706 -2.19844 -0.643948 2.03264
4049 1 -10.5835 34.2378 -3.75688 -3.70035 -2.64479 -5.81769
4050 1 -9.73377 36.5194 -5.09264 1.79791 2.04962 0.666707
4051 1 -6.95584 36.8877 -4.60455 0.0723393 5.61639 1.50219
4052 1 -5.89488 34.5954 -5.62218 -1.68113 -4.4825 -6.35566
4053 1 -11.4985 34.0893 -8.21802 1.42199 -0.0463413 -0.253044
4054 1 -10.1667 36.6427 -7.89558 2.94227 -1.48273 -1.48953
4055 1 -7.50884 36.7572 -8.7523 -3.68332 -1.19742 -4.7711
4056 1 -6.20899 34.3376 -8.3514 -0.56231 1.4399 -0.00666991
4061 1 -10.5462 34.68 -1.11288 -1.22086 2.71064 -1.02519
3228 1 -11.3419 11.6191 -10.1086 0.752535 -1.51922 -4.84384
4063 1 -6.78261 37.2391 -1.77201 -0.360955 -2.25715 -1.8018
4064 1 -5.25687 34.6577 -0.527451 5.84218 0.829394 0.911635
4073 1 -10.3534 39.2518 -4.07398 -0.0156128 -4.71108 -2.13497
4074 1 -9.30794 41.478 -5.02965 -3.26179 1.14444 -1.6171
4075 1 -6.75127 41.5685 -4.18458 -5.29999 4.94013 -6.732
4076 1 -5.6817 39.2131 -5.20687 -1.41756 0.761843 0.799527
4077 1 -11.3506 38.9857 -8.33597 6.88471 0.0505914 -2.82839
4078 1 -9.69817 41.3395 -7.82409 1.28158 -5.4081 1.41015
4079 1 -7.21503 41.011 -9.12025 6.87646 3.62283 2.98528
4080 1 -6.02772 38.95 -7.91009 -0.346362 2.836 -7.19639
4085 1 -10.7909 39.3364 -1.414 1.63076 0.510005 -0.57377
4086 1 -9.32817 41.8199 -0.829884 1.98399 -2.36028 1.70026
4087 1 -6.57025 41.9624 -1.39938 -0.260857 -3.61979 -1.56955
4088 1 -5.38764 39.6363 -0.517789 -0.276541 -2.37375 -1.39511
4097 1 -10.1346 44.0638 -4.45963 -0.230594 0.104903 4.61476
4098 1 -10.2039 46.6598 -6.10111 0.161222 -4.87019 2.64084
4099 1 -7.80053 45.7236 -4.49842 4.47927 2.28476 1.83726
4100 1 -5.88234 43.9585 -5.63443 2.23731 -0.312657 -1.95341
4101 1 -10.348 44.1366 -7.46944 -2.74484 0.14003 10.9664
4102 1 -8.45665 44.9703 -9.49914 0.278674 -4.58652 -1.47004
3124 1 -13.4324 11.7613 -6.27695 1.74575 3.93796 -0.725995
4104 1 -6.38456 43.5917 -8.49287 5.0446 -0.279083 0.240079
4109 1 -10.9145 44.1586 -1.83162 5.08388 -5.52233 0.549778
1516 1 -9.78159 23.2488 -24.23 -2.74211 2.46301 -0.92991
4111 1 -7.49509 45.7186 -1.8029 -1.38926 -4.06767 -4.1594
3064 1 -2.18521 11.5872 -19.6992 -2.75484 -5.31491 -2.28485
4121 1 -2.86652 25.6117 -5.16078 -1.8584 1.3128 1.68214
4122 1 -1.75497 27.9619 -5.71084 1.72923 0.00897233 0.589405
4125 1 -3.4822 25.5746 -8.91982 1.08194 3.31489 -0.858592
4126 1 -1.93395 27.7887 -8.74478 0.371639 -2.24369 4.05401
4133 1 -1.58977 24.9579 -2.65352 3.61488 2.87162 6.29236
4134 1 -1.30833 27.5808 -0.955017 -7.57301 -0.999842 0.421899
4145 1 -3.0765 30.2042 -4.66609 -0.631067 -0.55092 -2.57375
4146 1 -1.88863 32.5129 -5.8523 3.06846 1.53985 2.28315
4149 1 -3.41759 30.1376 -9.50096 -0.585054 2.06102 2.04215
4150 1 -2.04096 32.3607 -8.52094 3.4064 -0.309802 1.50011
4157 1 -2.57841 30.1007 -1.78713 6.08417 -0.24207 0.764925
4158 1 -1.5395 32.6886 -1.16292 1.93154 -0.801123 -3.18748
4169 1 -3.29498 34.762 -4.82355 0.60532 1.48917 -0.656323
578 1 -24.5403 21.5761 -22.3813 -0.351554 -1.54951 0.799716
2634 1 -5.43288 11.6376 -22.8146 0.310383 3.21117 2.89336
413 1 -23.578 23.8036 -0.150398 3.69271 -4.81541 -0.989319
3880 1 -7.78371 18.6307 -23.7308 -2.46301 0.906139 -4.73892
4062 1 -9.31022 37.1013 -0.414237 -2.20261 0.786677 -1.67572
2871 1 -14.6668 19.2673 -24.3349 -3.13656 -2.42395 -0.594224
2 1 -7.17549 14.4818 1.96853 2.09784 4.44847 0.581211
19 1 -14.5068 22.5195 19.3054 3.72343 -2.05734 -0.679484
26 1 -1.21128 15.0182 9.74049 0.0261991 -0.200886 -0.462929
53 1 -2.18299 21.3555 7.86634 -0.19917 4.34356 -0.969198
69 1 -8.00067 13.2327 9.35301 1.91952 -1.16252 0.855609
98 1 -3.23625 15.4716 12.1248 -1.16102 -3.47351 -0.349351
148 1 -18.0574 12.8394 11.8682 1.86444 -2.18381 -2.27046
180 1 -23.5693 19.4344 9.85106 -0.835777 1.53313 3.40489
196 1 -15.7326 22.2252 5.86416 -5.48438 1.86514 0.276892
203 1 -23.8577 18.4207 7.25514 -5.45052 1.06979 2.00348
219 1 -5.45698 22.527 21.5375 -2.07417 0.310322 -1.31621
230 1 -8.55664 13.7357 20.1933 2.07878 -0.449021 -1.94215
233 1 -12.5777 15.5669 11.5179 -1.01067 2.01118 -0.404075
234 1 -6.84397 18.8849 7.49935 -1.38441 2.42692 1.1761
237 1 -16.4701 21.3329 1.86093 -1.45155 4.15739 -1.53932
239 1 -19.4993 18.9053 17.4007 -1.17507 1.50988 -0.0397424
285 1 -14.7581 18.3621 14.8011 -0.963221 -0.569789 -7.02475
337 1 -18.0896 19.3659 0.706704 1.93166 -2.52684 3.05744
350 1 -23.1357 17.454 22.336 2.33002 1.73697 3.26214
372 1 -7.99698 22.8575 8.26905 -0.882016 -4.00471 -1.12039
3928 1 -17.5054 16.4434 23.861 -0.524134 -1.0999 -1.2917
2787 1 -14.0257 14.3004 0.165237 1.00907 3.55779 1.46706
425 1 -19.4647 13.6177 17.9978 -0.966805 2.01147 0.617315
453 1 -16.3659 13.4051 8.23369 -2.92458 3.61934 -1.12685
456 1 -4.15234 15.2049 22.2005 -0.0420365 5.24987 1.32116
514 1 -13.6444 19.7076 19.4046 0.181722 0.185195 -1.51972
216 1 -19.0667 47.2922 8.49185 3.69976 2.87782 -0.0414083
577 1 -7.21959 21.7261 0.68717 -1.14341 -3.39543 -1.50027
583 1 -21.5555 22.2702 12.6244 3.09895 0.480479 3.33388
1917 1 -24.4969 23.3272 18.6246 -2.44774 -3.32331 1.51277
588 1 -18.6477 21.9806 6.19082 0.111717 2.08545 -1.46032
590 1 -4.81454 17.951 21.282 -2.4287 -0.00267362 -3.75283
600 1 -22.6382 24.1202 16.7822 0.162228 0.0101788 1.26744
630 1 -22.9001 22.1595 10.0615 1.87584 2.34614 -0.114564
641 1 -14.0067 17.8318 5.72826 3.13874 0.865677 -0.216372
668 1 -9.30724 12.8267 17.3576 -2.38485 1.88996 0.311389
693 1 -8.34805 22.8557 2.88702 3.51202 0.660808 2.17384
729 1 -13.4939 14.2312 16.0254 -1.84611 1.19624 4.79125
734 1 -19.3313 23.5261 19.9308 5.12628 1.37511 -2.85713
743 1 -22.909 18.7547 1.2239 1.59689 -1.61155 -1.59602
754 1 -14.4869 22.8641 14.3385 -4.19299 0.857693 -3.12029
785 1 -2.38342 20.9665 20.6044 -0.781937 -4.52339 3.3895
786 1 -21.6859 19.9323 22.1345 -3.36701 2.23459 3.04127
791 1 -2.66398 22.492 14.2806 0.99815 2.61431 1.90365
869 1 -0.755735 19.1738 3.95973 4.60463 -3.68651 -1.9841
886 1 -3.5111 23.1021 3.3709 3.7778 1.25593 0.576211
2209 1 -24.4815 23.4452 21.3945 -1.82648 -1.94619 1.20407
913 1 -5.06247 22.6525 15.6631 0.508875 -0.750462 -0.959723
914 1 -22.67 15.0397 9.05685 -0.912916 -6.01393 -4.58334
919 1 -9.81998 16.9403 11.7645 -0.698351 1.47406 1.15764
924 1 -6.88122 16.6209 5.96469 1.19836 -0.163059 1.32648
932 1 -18.6516 15.7097 15.0951 -1.09364 -5.68916 -0.887803
941 1 -20.9383 21.9735 7.97999 1.93166 0.655431 -0.189498
947 1 -9.82182 16.2449 18.8837 3.47189 2.49794 0.417525
949 1 -3.26492 13.2546 20.0444 -0.00954625 0.000284841 -1.88847
961 1 -5.59171 12.2983 0.573709 3.39932 -0.328897 -1.48724
965 1 -13.3229 11.9699 7.26825 0.667874 1.84118 2.97165
985 1 -16.9715 17.711 11.4618 0.132221 -2.03708 -1.22339
1005 1 -14.0734 16.4795 2.0394 5.20502 4.84622 1.12956
1055 1 -7.55519 17.291 15.3258 -2.84654 2.76429 7.14297
1056 1 -8.84983 18.592 5.20141 2.13181 2.9688 3.64511
1068 1 -3.5955 19.6204 0.454897 1.2547 -3.73473 1.55473
997 1 -22.954 21.8189 23.8365 -2.10184 0.922079 6.49063
1088 1 -22.2071 22.447 5.38133 1.47633 1.67255 2.0407
1110 1 -10.5316 24.0324 8.1733 -2.67434 5.27334 2.57347
1113 1 -18.9755 18.9751 22.9641 -5.66047 -0.640421 1.50268
1117 1 -5.35709 13.7395 9.30894 3.19712 -1.22044 0.863312
1150 1 -12.4079 14.2624 8.93687 0.480479 -0.973421 -0.578547
1152 1 -13.2076 14.0392 18.8903 -0.834936 1.32969 2.56635
1166 1 -15.8452 23.1652 16.8455 -2.70928 -1.02937 -4.17833
1167 1 -0.65772 13.9775 18.6773 1.46889 -0.249326 -7.10292
1175 1 -10.534 12.6991 21.6726 -0.580794 -0.262742 -1.0768
1197 1 -19.5728 16.2179 21.7027 -3.1599 -3.46855 4.25267
1204 1 -1.98948 21.1172 2.32518 -1.00839 0.45248 0.914355
1220 1 -20.5182 22.6837 15.4416 -1.39057 -1.1533 4.3059
1226 1 -20.8109 13.5099 1.00812 3.0047 -0.66978 -4.16623
1237 1 -18.907 20.5803 14.8672 -0.0478649 4.04965 2.06637
1270 1 -23.6121 15.2395 11.8895 -1.38953 4.47482 0.248747
1285 1 -12.2352 21.2604 15.4857 -0.244866 0.214693 2.28869
1291 1 -17.7428 14.2369 0.803393 1.35403 -0.603439 1.41533
1325 1 -4.55831 15.1242 6.90499 -0.444675 0.811827 -2.0082
1340 1 -18.9221 16.038 10.1669 -0.120042 1.69957 0.943851
1355 1 -8.29059 22.6786 17.7611 0.828314 1.39724 1.38251
1358 1 -10.2109 23.029 21.7408 1.61513 -2.4175 -3.68896
1372 1 -10.7426 12.0199 3.69948 5.9595 -1.39805 -1.75665
1374 1 -18.7229 23.8109 17.3153 -1.11847 0.919877 -6.80277
1377 1 -12.8723 21.1856 23.5148 0.745367 1.12213 3.18151
1385 1 -16.2955 23.1325 12.2133 0.265849 0.301 2.46602
1391 1 -11.6868 19.8182 21.3624 -1.83947 -0.44318 1.75836
1456 1 -16.2323 14.8494 10.9552 -3.94212 -1.30538 1.21386
1458 1 -19.8186 12.2908 7.45456 -3.5556 1.27241 0.149913
1461 1 -13.6822 14.7586 22.9625 -4.06999 -0.295937 1.83331
1492 1 -11.5174 11.8688 10.3037 -0.216574 -4.37607 -1.50726
1500 1 -18.8435 17.9441 13.5449 -2.34995 -2.67567 -3.19903
570 1 -23.8575 12.181 17.1803 -0.131582 -0.565636 -0.806562
1575 1 -17.6334 14.8124 3.97284 -0.317535 0.339381 -5.26691
1606 1 -21.0937 18.3997 6.49029 -1.49317 -1.13475 3.58175
1622 1 -16.2272 20.8112 15.3096 0.0520184 5.87226 5.09067
1642 1 -1.48473 22.8518 5.50598 5.36097 -5.33114 -1.35622
1655 1 -1.88458 12.9667 13.0134 3.28473 -4.20236 0.535194
1656 1 -4.56308 12.5594 17.2632 -1.51287 -1.92591 -2.18691
1658 1 -17.51 19.2335 6.77317 -2.14619 0.779523 0.598579
1668 1 -9.78703 18.5126 7.98236 -4.28243 -1.99324 3.35905
1679 1 -10.2224 21.4873 19.448 -1.83401 2.88058 -1.68898
1685 1 -21.6943 14.9637 23.163 -1.02432 5.23748 -4.61771
1705 1 -0.968811 24.1404 18.8968 0.201167 -0.393854 6.26537
1708 1 -6.95898 23.2108 13.2327 2.53449 0.762033 2.54399
3015 1 -4.34738 11.1703 8.08066 -2.20528 -4.06979 0.611246
1769 1 -22.6907 16.1168 15.363 1.27357 -4.32769 -2.28797
1784 1 -8.54384 14.5477 13.16 3.00379 3.42357 -0.768554
1864 1 -6.01687 12.0002 19.9538 -1.60877 2.67778 -0.416604
1869 1 -0.686188 23.2661 16.2637 -3.78574 3.91311 3.30888
1873 1 -9.92785 15.5357 8.99573 0.68876 -3.01465 0.457812
1885 1 -7.56787 17.894 21.9996 -1.46032 -5.58718 -3.82048
1898 1 -21.5963 17.4299 12.9461 -0.812185 2.29073 0.442501
1916 1 -4.30443 16.4044 4.24032 4.64218 -2.26906 5.07151
1723 1 -23.9055 16.1947 2.5268 -1.15448 2.65824 -5.5227
1932 1 -0.779303 18.8769 7.08115 2.62208 -0.921211 3.31032
1963 1 -1.35879 17.6521 1.57928 4.19637 0.337816 -1.06601
1968 1 -22.4561 11.9868 11.8542 -0.835302 -1.85823 0.303097
371 1 -11.4938 47.4375 17.8147 -3.32996 -1.04919 -5.61175
2008 1 -9.82099 24.116 12.7447 -2.31592 2.52838 -8.72302
2013 1 -13.4879 23.0688 4.00214 1.4735 0.956193 -4.14946
3711 1 -12.4572 11.2677 15.3437 4.07414 -2.41502 0.707029
2046 1 -7.50358 15.0048 17.4918 3.16005 -0.656044 -1.17608
2701 1 -20.6881 23.2713 0.141391 -2.51632 -3.17114 0.404876
2082 1 -7.18569 17.2528 2.99203 -3.15079 -1.87657 0.720177
2119 1 -10.13 17.3843 2.71888 2.00917 -2.39507 -1.06923
2157 1 -2.76857 16.191 19.7509 -2.88764 0.280465 -4.06986
2158 1 -16.9064 13.5809 14.357 3.41164 5.34189 -2.06521
2168 1 -19.6029 18.0165 3.07821 -3.42911 1.66395 0.658517
4233 1 -2.16502 43.9366 9.93964 3.35553 3.61484 3.10956
4226 1 -1.40228 46.4028 1.49468 0.768542 1.76961 -0.129196
2231 1 -11.9908 21.5826 9.45582 -0.263729 -1.66634 0.26342
2264 1 -3.52301 19.1135 4.26795 -1.59368 0.579305 0.450691
2270 1 -5.72513 19.8945 2.53648 -1.07347 2.74676 -0.202671
4209 1 -2.42531 39.382 9.46412 -0.84402 1.99476 -3.4008
2282 1 -5.57198 23.3549 7.18452 -0.0661536 -3.86212 3.88326
2285 1 -21.3233 16.3321 1.35302 1.04972 -8.9596 -2.63591
2305 1 -14.0061 17.7862 12.0686 -0.977641 -0.102837 1.66535
2307 1 -15.1291 12.3947 22.5205 -4.81929 2.91383 1.24064
2315 1 -10.7964 13.6595 15.1135 -2.95782 -1.82335 -0.494219
2321 1 -2.01066 24.6131 23.9249 -2.9139 -0.620934 -1.70323
2322 1 -4.05573 19.6474 18.8828 -0.419153 -1.32925 0.194811
2334 1 -10.3212 17.9953 14.4122 -2.98236 -4.11647 -0.173007
2335 1 -3.0634 19.3296 23.2044 0.689248 -0.831388 -0.825235
2349 1 -9.4598 22.3228 14.9646 -0.578506 1.4743 1.10974
2379 1 -22.173 12.2078 9.0595 5.21179 2.08244 -0.434195
2413 1 -5.82331 21.8594 4.35146 4.5993 3.84042 0.23362
2424 1 -24.1872 15.6937 6.98521 2.09337 -3.89725 1.27953
4202 1 -1.48895 42.063 1.99291 4.44531 0.596018 0.749672
2435 1 -14.4241 22.8443 9.98025 -1.40621 -5.34122 2.56083
2439 1 -14.2175 18.4416 9.22496 -2.41666 1.26786 2.94347
2441 1 -22.4569 14.2887 18.715 1.54978 2.16048 -2.85653
2462 1 -11.7103 24.4027 2.16157 -5.45774 -4.23591 0.277359
2488 1 -8.60603 18.7749 19.4643 -6.41509 -3.51278 -3.68373
2490 1 -12.1354 22.6336 17.904 3.35968 -1.20276 -2.16352
2505 1 -10.4579 17.5571 22.202 1.12099 -0.156522 1.81438
2519 1 -22.7234 19.9534 14.3014 -1.84765 -4.96025 4.0212
2528 1 -8.47836 12.1477 6.86975 -4.59956 -6.78117 -7.0578
2581 1 -7.14771 15.1516 22.2976 0.091097 -0.0209289 3.45236
2586 1 -14.3365 13.7828 12.8601 -3.67163 0.300926 1.73855
2620 1 -9.00822 14.8297 6.21972 -0.804473 -4.08145 -4.30957
2660 1 -12.5063 22.4988 12.1951 3.72593 2.09246 -2.24348
2664 1 -15.0542 17.1034 22.6247 -2.933 -2.05004 0.159446
4189 1 -2.22574 34.6549 5.74978 0.999038 2.86316 -0.953774
2710 1 -4.33861 15.6637 17.4254 -1.0276 -2.18345 0.738803
2723 1 -5.03364 16.2043 14.3621 0.130973 2.35549 -2.50024
2742 1 -15.0406 13.4968 5.3758 -3.57048 1.39587 3.94845
2745 1 -10.8448 21.6776 2.15307 0.790307 2.94614 2.49785
2769 1 -15.8641 15.9718 15.8485 -2.29585 0.212806 0.197041
2777 1 -13.2816 15.396 4.51728 -1.49303 -1.89323 -2.45089
2778 1 -21.7222 16.7763 19.8708 0.660531 0.250044 3.76541
2788 1 -20.6731 14.5203 12.3923 -3.53375 1.22771 0.076354
2809 1 -11.4522 16.23 16.3939 -2.16385 -1.09013 0.409487
379 1 -23.734 23.3021 2.65916 -0.3722 -1.80079 1.53077
2820 1 -15.8516 20.6513 8.66273 0.541172 0.752384 -1.3268
2851 1 -5.83537 22.1642 18.7385 -1.91224 -2.04427 -2.74192
2853 1 -2.66168 23.6722 21.1935 -1.85127 3.78837 -5.64
2864 1 -15.4208 11.6259 15.7177 -2.89118 0.774692 6.0848
3307 1 -17.5341 11.3599 20.4404 0.958462 1.39186 1.27986
4238 1 -0.960737 46.6246 6.50056 -4.08444 -2.79782 -0.257674
2895 1 -18.1951 19.1668 19.9422 2.14922 6.61842 -1.4891
2905 1 -17.0993 21.9486 20.5338 -1.90348 2.65279 5.53554
2921 1 -17.9475 20.1916 10.5595 -1.36707 1.69239 3.88947
2939 1 -11.6645 19.2592 4.48203 3.76672 1.7454 2.86394
2942 1 -21.9414 12.9502 21.0442 2.50329 -4.78347 1.18565
2950 1 -19.9939 15.9506 5.11073 6.02614 1.2417 2.54128
2971 1 -3.00653 20.0039 10.4408 -2.56282 2.04028 0.732953
2973 1 -11.586 15.4013 20.9722 2.45568 0.658864 2.12468
2980 1 -2.49088 12.3648 0.58097 1.42959 -2.52112 0.727337
3000 1 -1.85553 12.6637 16.2031 2.98357 -5.88092 -2.56818
3002 1 -20.4112 16.3717 17.0734 -2.42876 -3.29459 -1.9324
4225 1 -2.82295 44.0137 3.11476 -1.3447 -0.00828136 -1.33663
3028 1 -14.3122 11.4883 19.9245 1.08317 -4.43391 3.36328
3014 1 -24.2762 11.7168 22.0045 1.96623 4.64933 -1.95998
3042 1 -7.90047 20.1293 14.6069 -0.838508 -2.44069 -3.06058
3056 1 -23.3682 13.5828 14.4332 2.6434 0.0672576 -2.60212
3076 1 -10.712 19.3378 10.534 8.28839 -2.56494 1.97222
3122 1 -13.0282 23.1681 21.5985 5.23078 -2.35797 -1.62758
3131 1 -9.76477 13.5039 1.33114 -1.06602 1.74325 -0.570251
3144 1 -1.59551 14.9663 1.56546 2.8358 -3.77601 3.09603
3150 1 -22.4144 12.8122 3.22592 -0.154108 -4.68194 -1.72172
4201 1 -2.52294 39.3347 2.69429 5.58037 1.78995 -2.93198
3186 1 -4.58641 20.3827 6.44111 -5.6811 1.70603 3.54658
3193 1 -18.0898 23.3957 1.1283 5.21916 -3.97367 -6.31545
3211 1 -2.12787 18.2708 12.4146 0.202048 -0.60845 0.289505
3214 1 -1.45934 15.6454 16.4266 -2.93355 0.488086 -4.99304
3232 1 -22.6734 15.0456 4.63631 1.83078 1.43395 1.62072
3233 1 -2.20307 16.3759 7.39058 2.21064 0.732868 0.417668
3245 1 -8.2407 20.532 9.62409 4.08651 -1.55868 3.135
3286 1 -15.8983 19.6841 4.34752 0.918531 4.33939 0.562757
3290 1 -12.7027 18.7737 16.8671 1.05784 -2.20417 -2.87238
3292 1 -21.7744 21.1883 2.03545 2.53234 -1.16352 -0.734096
410 1 -14.5033 11.6203 1.19261 -0.926783 -1.71289 -1.68373
3297 1 -16.9842 21.0561 23.3349 2.92721 5.4994 8.69679
3323 1 -2.87203 18.0514 15.1884 8.30752 -3.26086 3.81242
3325 1 -10.4216 14.7814 3.82792 -2.7192 0.822442 -0.495255
3334 1 -21.8332 20.5564 16.8395 1.12173 -0.64766 -1.76382
3356 1 -8.51799 21.4624 5.47299 2.21016 3.54159 -2.97484
3358 1 -0.911517 20.1419 14.3435 -3.95799 4.04232 0.762072
3359 1 -4.28214 22.2116 11.9427 -4.08743 -0.277761 -3.11932
3361 1 -3.75858 23.3763 9.32113 7.72616 3.63164 -2.08949
3382 1 -20.3539 13.2951 15.1381 -1.83169 2.68539 -3.7368
3428 1 -4.32333 11.848 14.5387 -3.06431 -0.746876 -3.46173
3444 1 -18.8104 12.4321 2.99854 1.87789 -3.08183 1.48484
3454 1 -21.5044 17.6154 10.0921 -0.523833 1.2242 -0.0825233
3455 1 -17.9116 14.3557 20.0417 0.280427 2.78916 5.70405
3459 1 -1.73654 18.3494 17.9104 -4.53175 3.57519 0.438553
4213 1 -2.33003 39.4144 5.54029 -0.496914 -1.70627 -2.74294
3498 1 -17.6952 12.2895 5.58178 -1.99319 2.29652 4.16711
3517 1 -6.37742 17.8746 17.9013 -1.80969 -0.935868 -0.950069
4237 1 -2.60793 44.1951 5.79705 -1.16895 3.64549 -3.14393
3527 1 -1.88457 11.6176 6.21654 0.00218429 2.77176 -1.36649
4234 1 -0.914401 46.3882 9.56954 -3.45762 3.04175 -0.533015
3550 1 -14.9146 15.8655 8.44919 2.56153 -1.82054 1.69594
3561 1 -20.5672 20.3854 4.60496 3.36806 -1.52663 1.61545
3583 1 -16.6948 16.6246 6.2062 4.97902 4.98587 0.0512935
3597 1 -3.98702 13.0936 5.03931 2.74231 0.466301 1.43105
3621 1 -8.974 12.052 11.6975 -1.86929 0.00619544 2.17481
3627 1 -4.18994 18.2243 8.43783 -3.90324 -5.5367 1.19919
4190 1 -1.12656 37.0866 6.17963 2.78805 1.77452 -0.735954
3654 1 -18.7455 22.0185 12.3577 6.81396 4.94106 2.31573
3677 1 -6.65726 13.5496 15.2352 -1.2998 1.808 -3.80376
3709 1 -18.8583 15.0356 7.61263 -3.45158 2.70453 0.0524854
4210 1 -0.854206 41.744 9.00146 0.259906 2.92257 2.8422
4214 1 -0.984449 41.9192 6.09901 0.430331 1.54301 3.70968
3744 1 -16.7411 17.3945 2.48145 0.652723 3.90896 -1.10195
3766 1 -12.209 19.7126 13.0008 -2.03186 -3.94595 -0.0165992
3771 1 -15.6744 17.8162 20.1063 2.10706 4.99992 -5.51631
3774 1 -7.66406 12.2145 3.99043 1.75787 -1.23553 -1.93248
3793 1 -13.6567 20.52 2.50811 -1.70778 3.6831 -1.79153
228 1 -10.0609 19.3424 0.820008 4.33662 -0.231934 -0.359462
3846 1 -21.7986 22.4812 20.4169 4.44724 -4.42214 -3.0635
3852 1 -5.25741 19.8203 15.9753 0.969791 -3.89671 1.54421
3889 1 -15.7865 15.4409 18.6768 -4.63883 0.977406 -2.29852
3892 1 -11.5472 22.1155 6.03228 -4.54812 0.323216 0.281211
789 1 -12.775 18.6002 0.561693 0.502275 0.246385 -3.13805
3946 1 -5.26789 16.4397 10.4271 -1.90854 1.00356 0.891043
3955 1 -6.75789 20.3379 12.0241 0.786075 4.73727 -0.224115
3966 1 -19.6633 19.4279 8.60247 0.593296 4.56683 1.73635
3970 1 -5.91527 20.0217 23.0877 -1.62881 -1.59852 -1.3528
3976 1 -4.21225 14.0857 2.47095 2.58264 0.820529 0.598051
3985 1 -12.3413 19.4256 7.29659 2.0782 1.24793 3.38703
3988 1 -22.3203 19.5686 19.3998 -1.45983 -0.604086 -1.09458
3999 1 -6.97324 17.3615 12.3149 1.52831 1.90762 0.866178
4009 1 -9.55028 25.4609 3.47053 1.97016 1.8674 2.41186
4010 1 -8.60254 27.6559 2.14581 -2.81136 1.99293 0.273926
4011 1 -6.021 27.8384 3.07229 -3.19788 3.21698 0.203201
4012 1 -4.69196 25.5621 1.79012 0.909601 -1.88529 -3.8763
4017 1 -10.1733 25.6436 10.3517 0.416145 2.02494 3.86472
4018 1 -8.32268 27.6019 9.75088 1.17354 0.144424 5.25355
4019 1 -5.67805 27.9891 10.5993 1.78104 -6.99319 4.07425
4020 1 -4.06005 26.0919 9.62985 4.70483 -1.44501 -2.38923
4021 1 -10.0295 25.9387 6.13253 4.64188 0.137405 -3.10658
4022 1 -8.36827 27.7701 7.10475 0.724854 -0.433974 1.39988
4023 1 -5.97161 28.0125 5.90452 1.5629 9.25618 -2.95149
4024 1 -4.45656 26.1902 6.92059 -3.84254 -0.687329 -1.53087
4033 1 -10.0279 29.6788 3.45629 4.60291 2.63886 -1.87763
4034 1 -9.24244 32.1106 2.5624 2.33253 -0.939263 1.90528
4035 1 -6.46734 32.4767 3.31927 5.71595 2.85571 2.30668
4036 1 -4.92861 30.4101 2.11981 0.406569 -0.771959 4.01889
4041 1 -9.5954 29.9102 10.472 -5.6943 -0.0502791 -1.37883
4042 1 -8.6837 32.7527 10.1057 -0.470338 4.64859 -0.206182
4043 1 -5.97404 32.6069 10.1529 4.03174 0.855564 -0.0265816
4044 1 -4.36921 30.2918 9.70416 -5.17103 5.54233 1.81213
4045 1 -10.1621 29.8571 6.38958 3.08398 -1.90818 -1.90399
4046 1 -9.03737 32.319 7.26351 0.160538 -0.447418 6.93091
4047 1 -6.28273 32.2525 6.06352 -4.95287 -3.64704 -2.90267
4048 1 -4.33737 30.1948 6.81534 -0.903433 -2.78027 3.45382
4057 1 -10.0448 34.4609 3.58009 -0.515687 4.34879 -4.14675
4058 1 -9.28048 36.8615 2.4221 2.64113 2.82663 2.25584
4059 1 -6.55926 37.1603 3.26295 -0.341379 5.14534 -0.44977
4060 1 -5.39581 34.7426 2.40775 -2.60622 4.19219 1.81225
4065 1 -9.58481 34.8263 11.6807 1.32246 -0.592954 -4.5678
4066 1 -8.86838 36.9869 10.1011 0.326773 2.62373 -4.65551
4067 1 -6.11014 37.1099 10.1221 -2.07565 -0.188701 0.698903
4068 1 -4.65721 34.9318 9.57884 -3.07468 -2.68721 3.0133
4069 1 -10.3581 34.7448 6.27501 -4.63933 -3.08604 -0.780322
4070 1 -8.78516 36.9716 7.16039 0.780892 -6.011 -0.655268
4071 1 -6.2026 37.0058 6.0347 2.09996 -0.237564 -5.22625
4072 1 -4.94165 34.5831 6.72973 -1.46814 0.438028 2.09575
4081 1 -10.1526 39.3738 3.21437 0.694818 0.196261 -0.316951
4082 1 -9.44599 41.8636 2.04147 -0.710047 1.24138 0.713928
4083 1 -6.86903 41.7861 2.97506 -1.65723 1.42238 2.32656
4084 1 -5.32451 39.4571 2.31467 3.76282 6.18289 -4.57155
4089 1 -10.0286 39.5885 10.844 2.21021 0.813758 0.907769
4090 1 -8.99434 42.0829 10.1663 0.389404 0.823705 -1.47429
4091 1 -6.20804 41.6019 10.2679 0.392004 -0.724152 -3.01363
4092 1 -4.98152 39.4649 9.02285 -0.914054 1.72361 3.66403
4093 1 -9.74965 39.3102 6.02471 3.0068 -3.99607 -3.67088
4094 1 -8.90487 41.6446 7.22428 2.19529 -1.98886 -2.91743
4095 1 -6.46435 41.792 5.7942 -0.587369 -9.84248 -3.7224
4096 1 -4.82788 39.3763 6.24351 -1.40444 -2.7874 -1.79106
4105 1 -10.6116 43.8044 3.71359 6.22767 -1.19642 1.97082
4106 1 -9.81839 46.1344 2.60969 6.99634 5.39972 0.243478
4107 1 -7.07792 46.371 3.21573 0.331363 0.511419 -0.878043
4108 1 -5.45726 44.3265 2.27234 0.592746 -1.705 4.20712
4113 1 -10.2874 44.2055 11.4137 -1.52879 -1.32438 -3.28386
4114 1 -9.15355 46.6492 10.1595 4.79961 1.05575 7.04078
4115 1 -5.41138 46.5117 10.6596 0.535346 4.05604 0.859694
4116 1 -4.7545 44.0608 9.60409 -0.352735 1.775 5.85195
4117 1 -10.5088 43.8028 6.46569 -1.49951 -9.69116 3.12897
4118 1 -9.2183 46.0842 7.47069 2.2173 -2.18748 -2.65841
4119 1 -6.70489 46.5047 6.11532 5.81197 -1.57421 -1.23539
4120 1 -5.28123 44.2476 6.84372 -3.36831 -0.781833 -0.62796
4129 1 -2.25233 25.9659 3.30231 -0.615378 2.01996 -2.89159
4130 1 -0.987204 27.9344 1.72236 -3.92516 -2.58595 4.33327
4137 1 -1.28268 25.0732 9.28405 4.28629 -1.98596 5.98497
244 1 -20.334 11.2196 22.9281 -3.54464 -2.05321 2.00343
4141 1 -1.92466 25.5514 6.22403 -0.614831 -1.1659 -1.1972
2021 1 -4.47259 12.1799 11.6434 -3.497 -2.40009 2.87495
4153 1 -2.33567 30.2177 2.82912 0.998067 0.0867145 0.570886
4154 1 -1.05252 32.3729 1.80759 2.96922 -0.625099 -3.60737
4161 1 -1.66379 30.019 10.274 -0.774732 -4.05005 -0.900238
3637 1 -4.07602 12.3742 23.0824 -3.46144 -2.19181 -0.899814
4165 1 -1.79516 29.9976 5.57932 -0.855198 -1.78518 -0.145878
4166 1 -0.465131 32.5476 6.40925 -0.682225 -1.55262 1.27468
4177 1 -2.62812 34.6617 2.89613 -2.21099 1.0435 -1.2215
4178 1 -1.30869 37.0604 1.8816 -2.91456 5.44697 1.58837
4185 1 -1.96305 34.7685 9.84529 1.55831 -0.711256 -1.63387
4186 1 -0.804676 37.1988 8.96997 2.95726 0.27753 0.569194
3116 1 -11.4052 15.7881 0.15147 -0.669955 0.544555 -3.16249
1518 1 -1.38248 11.8744 24.1312 2.20603 0.410054 0.92852
4162 1 -0.493695 32.42 9.21561 -0.491147 -6.65061 -2.43424
59 1 -20.5315 11.2781 19.339 -1.43725 -2.86428 -5.35627
3293 1 -9.2403 11.9282 24.1484 -1.61652 -0.797916 0.647338
3735 1 -7.27566 18.6493 0.253107 -3.04195 -1.21907 2.92032
2056 1 -4.95357 23.4074 24.1038 1.84984 2.8094 -0.250161
3408 1 -17.3291 13.5384 24.245 0.192577 -3.6176 -2.18217
4 1 1.5444 -1.07273 -7.49666 -1.00133 3.42291 -7.85977
12 1 20.6124 -6.80886 -21.1008 -0.850607 -2.332 0.993818
14 1 10.0403 2.76019 -8.00636 -0.726535 4.40615 -2.6114
30 1 22.4247 -1.5328 -22.6221 -5.57978 -2.43978 -3.02379
31 1 2.94933 -15.076 -19.8951 2.78464 0.627298 5.01732
33 1 1.40296 1.57292 -13.34 -1.41707 0.304849 -3.30106
3 1 4.7267 -7.17222 -23.4632 -2.5591 3.42727 1.35043
41 1 5.91186 -6.91313 -10.8521 -6.35127 -2.18298 0.820714
48 1 7.61658 5.61106 -8.65833 -0.799777 -0.0996234 -1.45591
52 1 15.146 2.86956 -15.3043 0.739095 -2.70492 0.348368
58 1 2.12272 -20.9146 -3.79245 0.678298 0.140003 2.96548
1517 1 23.3333 -14.97 -9.32728 1.50693 -0.0982925 -2.2898
77 1 13.1635 -21.9066 -1.50203 1.59402 -4.15096 2.04905
81 1 -0.172598 -10.1246 -14.7953 2.73517 0.141567 2.0121
2483 1 0.0560011 9.84623 -11.6787 1.08269 3.30405 1.48211
94 1 23.0353 2.30181 -11.4605 -0.308084 3.46269 1.18375
95 1 2.24478 -4.38468 -12.9841 5.69848 -5.86338 3.56735
99 1 16.769 -22.2682 -5.97323 1.66253 -2.87623 2.78343
101 1 0.938429 -20.1656 -9.43969 1.84514 -3.98628 2.3738
110 1 9.31394 -13.7731 -8.80207 0.0855567 1.61492 3.93461
111 1 22.5659 -4.90178 -11.3283 0.426112 1.65232 -4.46629
116 1 2.3332 -14.3162 -17.2491 -0.972988 3.0376 0.050915
118 1 5.37946 -18.7257 -10.0086 -0.603519 1.49419 -0.927527
119 1 16.1049 10.5754 -9.08615 0.569945 -0.198315 1.09654
124 1 22.2697 -20.4772 -15.1409 1.45918 4.11219 1.4849
131 1 3.30344 -8.54086 -19.8173 -0.241522 0.0743923 -5.91211
134 1 18.7642 -8.59453 -22.7342 1.27637 -5.36221 -4.65143
153 1 8.77557 -15.492 -2.55426 0.531472 5.88129 -0.173488
155 1 22.4032 -20.9547 -20.0293 -6.04517 2.14986 5.73544
157 1 11.6277 -14.0846 -14.4834 -0.21939 1.94665 -2.2332
161 1 18.3693 0.567881 -14.5184 5.55205 -1.57091 0.56297
184 1 3.76099 -22.1753 -21.871 1.1977 -1.29326 -2.24118
188 1 6.75968 -22.8733 -3.93728 -1.58802 1.16178 3.513
191 1 2.67904 -4.34223 -21.9754 -4.78975 -4.10098 -4.25071
192 1 7.77305 5.67009 -4.32818 -2.33126 -0.929281 0.680342
195 1 7.29532 0.0961586 -9.48304 0.755008 2.26132 -0.266374
200 1 15.6232 7.92765 -16.7271 -3.83979 -3.94473 3.81629
201 1 7.70212 3.43813 -23.3827 2.60634 -2.65825 -2.07881
214 1 16.1905 -5.11389 -20.9532 3.53136 -8.43367 3.02021
218 1 11.865 3.9464 -3.10832 -1.95672 -3.564 -0.109785
225 1 3.51538 -13.8103 -6.24959 0.66623 -2.09682 2.87974
92 1 15.4315 -23.3686 -0.383058 1.35229 0.24189 0.299858
1562 1 -0.0632379 -5.70223 -0.358163 1.41278 2.48497 -0.900324
254 1 5.62381 -11.7388 -9.15574 -0.838048 -1.26134 0.860195
259 1 17.011 -16.4653 -18.0397 0.259048 -2.78732 2.68401
260 1 14.8718 7.92162 -3.83819 2.81527 5.36605 0.580071
265 1 14.1977 -16.9702 -6.60665 -0.839096 -1.42128 -1.29635
266 1 23.7657 4.10208 -15.7436 1.19293 6.22071 1.76808
276 1 22.0428 6.25676 -8.06124 3.28163 -4.94822 2.40106
277 1 11.4438 -13.5372 -19.4 1.65114 -0.178171 1.95911
287 1 4.9509 -9.56547 -7.2702 -4.61633 1.17288 0.506812
297 1 20.4786 -7.65823 -7.37357 -2.96165 -4.53834 -4.66355
298 1 14.1776 -20.4027 -20.6141 0.431198 -0.342038 3.64394
299 1 5.11906 -22.0296 -12.4256 1.09526 3.53742 -2.86548
302 1 0.608615 8.10262 -1.85915 3.0002 4.38884 -3.73673
332 1 10.2588 0.351987 -9.81818 -4.01581 -0.26068 -8.66213
333 1 8.00463 -10.6909 -14.9327 -4.09655 -3.25813 0.606094
334 1 4.36696 -22.0391 -2.38215 -2.18886 -0.788993 1.80366
344 1 9.25581 -16.5278 -10.8594 0.724324 1.1768 -2.71764
353 1 18.0436 -21.5756 -16.1297 -2.53916 -0.276282 -3.74586
369 1 14.5338 8.29772 -14.1421 -0.519477 1.49015 0.818683
370 1 4.82641 -14.2994 -22.0325 -0.793598 -0.822575 3.03632
378 1 17.7993 -14.5627 -3.6943 5.66621 -3.86363 4.09333
386 1 18.4354 -3.19732 -20.5738 6.43001 -3.78271 3.63415
401 1 21.4574 -17.2105 -6.32958 5.78553 -0.317136 1.99131
405 1 5.79405 -24.1241 -6.29673 -1.69705 1.05029 -3.04528
409 1 1.10694 1.79498 -6.71487 2.61237 -2.64583 3.38367
853 1 13.1861 11.0002 -14.7654 3.50656 -1.17378 2.43516
424 1 4.36557 -5.59952 -1.88403 -3.32371 1.9748 -3.57594
431 1 11.3578 -6.88753 -15.5709 1.06612 -0.0535907 1.21425
441 1 17.9886 2.19642 -4.96475 -0.507468 1.09515 2.37545
445 1 20.4046 -8.86337 -11.8641 -2.67632 -1.46999 -4.8459
446 1 22.2937 -14.2033 -6.86456 5.09949 -2.61047 4.78941
449 1 13.9966 -3.90623 -2.33424 0.696351 0.538015 0.75401
3138 1 19.445 -4.36747 -24.0368 -1.22132 -2.50475 -1.34862
459 1 1.57352 6.47165 -13.8197 2.27904 -1.72654 3.41849
460 1 6.17584 7.75819 -23.4251 -1.54366 1.10476 -2.76616
461 1 3.50679 -0.533061 -20.1066 -1.28308 2.03428 -3.15959
471 1 22.6153 -7.22856 -9.43176 1.60444 -4.23565 8.0489
474 1 3.15477 -7.08942 -11.2726 -1.96379 0.934595 -5.28459
776 1 9.83797 -0.351182 -23.7585 -1.30227 2.15233 -1.78752
484 1 23.2079 -14.4056 -13.2266 -1.7712 3.3004 -2.32415
485 1 20.7314 -20.6139 -17.5977 -0.503459 -3.09439 5.22847
486 1 15.3106 3.40909 -4.80283 -1.32369 1.7848 -1.00037
490 1 15.7431 -16.1824 -11.3786 -3.00247 0.648675 0.545037
493 1 14.9294 -0.247834 -15.2893 -1.17332 -5.09587 -1.87279
496 1 5.45199 6.22122 -13.7423 -3.11371 -4.23097 -3.29893
498 1 23.4936 1.09628 -23.718 3.58462 8.55405 0.552738
503 1 9.1545 0.555055 -12.7277 3.05237 -1.82461 -1.17756
516 1 9.54221 -23.3199 -2.61304 -5.04373 -1.15892 1.61336
534 1 19.7145 8.10748 -11.7214 -2.84425 -1.91847 -4.41952
539 1 18.5342 10.6167 -7.47059 2.32033 3.80983 2.23974
1467 1 23.7532 -16.2955 -17.3535 1.37099 -1.32434 -3.62527
543 1 21.131 -17.0496 -16.4185 2.77503 0.431437 -4.62727
547 1 16.0865 -15.8977 -20.9051 1.72366 0.951795 5.17523
550 1 0.392487 -21.2329 -14.1828 1.00273 4.80377 2.44622
551 1 10.5288 5.10423 -17.7235 -0.720362 1.64661 2.22558
552 1 1.54825 -19.0123 -0.698689 -3.25393 5.87603 -0.605794
557 1 11.9325 -23.8335 -10.9976 4.75381 2.5927 -4.37512
560 1 22.6449 -22.0437 -4.38388 1.45756 1.78362 3.31814
562 1 7.21072 6.95959 -20.8804 0.125404 -0.944357 2.61566
574 1 13.7884 -22.2023 -5.53466 2.66455 -1.298 -3.52643
579 1 2.39427 -20.4615 -11.9995 -4.28142 -1.1887 -0.226623
584 1 15.2829 4.53599 -7.65593 3.47355 -3.56793 1.57166
39 1 1.59667 9.33092 -23.7799 -2.45963 2.78274 4.75785
606 1 2.78324 -1.30812 -22.6936 -2.71902 -2.62664 0.152126
608 1 3.95911 8.2064 -10.1194 0.755762 -1.0916 -2.55116
613 1 12.7527 6.98869 -20.55 2.6485 -0.471466 6.31935
620 1 21.117 -11.7157 -8.49753 2.88526 -2.54352 -1.53072
625 1 0.379732 -8.86589 -5.56946 -0.951291 -3.82117 -3.22787
3662 1 0.00218214 -0.0379472 -22.6202 1.59799 0.514747 1.27208
647 1 4.03249 2.93823 -4.24792 1.60452 0.208925 -1.30937
648 1 20.2549 -16.0932 -23.6478 0.0916007 1.95287 2.42514
2865 1 5.16676 10.9792 -0.270295 -1.38745 0.930847 -2.01269
670 1 -0.0020221 -14.8086 -0.71588 -6.82766 4.00495 2.39898
683 1 1.78359 10.6368 -20.1136 3.66355 -0.451774 2.77233
684 1 10.6974 -21.355 -11.5893 -3.57394 2.42014 -8.61815
695 1 7.79092 -10.2478 -7.6016 1.71061 0.205911 0.821784
698 1 22.0697 -11.5572 -5.62252 0.293315 0.854835 -2.32018
700 1 2.69656 6.48728 -23.6596 -1.18267 5.16893 -0.84525
708 1 9.9937 -6.19719 -18.0308 -1.64789 1.49646 4.19582
714 1 19.7686 -5.98712 -11.6319 3.48516 -5.8483 3.15146
720 1 4.30068 -5.68145 -19.8536 0.495316 1.22453 -1.24254
722 1 7.9169 -23.2795 -13.2781 -2.41469 1.67294 1.04763
727 1 6.94981 -4.57499 -13.4916 -1.24755 3.5947 1.04239
730 1 15.1375 -19.7162 -17.9687 -3.55562 4.51316 2.25023
732 1 12.4034 -22.7973 -8.15994 4.599 -1.7702 0.329307
744 1 8.91047 -13.5385 -11.9039 1.5808 -1.27178 -2.7342
750 1 17.0997 -4.59059 -11.9601 -3.78428 6.00552 -1.56988
755 1 11.8892 9.31057 -21.9835 -3.95734 0.0924656 1.94505
775 1 21.8902 -18.8774 -11.507 -1.295 -2.59407 4.15579
777 1 22.9955 -10.4871 -11.3533 1.30994 1.89223 -2.13474
778 1 2.24544 -16.9589 -16.0354 1.72744 3.78998 -0.178635
779 1 6.76919 2.83774 -9.40314 1.73063 -1.79939 2.29639
782 1 18.9235 -7.86523 -14.4728 0.160677 2.07183 2.6247
803 1 19.0046 -9.7048 -9.34988 3.32459 -0.88351 -2.94534
804 1 7.48669 -20.588 -8.8873 1.73315 -4.65826 0.632702
812 1 2.82702 -12.1675 -8.79597 -2.19416 -7.66973 -4.66131
824 1 3.66101 -20.7212 -6.30505 2.75179 -1.07941 0.29676
831 1 2.27217 -14.3896 -23.3268 4.16837 0.787575 1.95979
835 1 2.70319 6.22568 -20.6124 3.42283 1.86706 2.73444
844 1 16.1497 -18.6031 -21.666 -3.66144 1.07634 -1.64824
845 1 18.9833 7.99195 -2.52405 0.274456 -2.0382 -0.526653
846 1 9.01801 7.48257 -11.8194 0.468908 -1.58105 3.09229
849 1 21.8805 -13.104 -11.055 -2.12581 -1.17121 -0.388753
63 1 0.131678 10.5327 -16.2329 -0.369568 2.62208 -6.52358
852 1 11.896 -2.109 -1.53602 -5.99291 -5.2446 2.20259
917 1 23.664 3.93872 -20.7978 -3.93366 -0.767665 -2.35215
860 1 12.6262 -9.2429 -16.3279 -2.23635 -0.972638 1.79411
871 1 5.50078 9.26346 -18.4392 8.30034 -2.22385 4.8121
876 1 12.9945 -14.7885 -8.11138 2.98049 -1.4104 1.69113
879 1 16.0421 4.49181 -18.9041 1.61672 4.00309 1.30555
884 1 17.248 -17.1426 -15.1654 -5.12588 0.372294 -0.83033
892 1 4.03374 -10.9872 -5.03256 5.85939 3.61528 0.864642
898 1 17.8159 0.0284871 -23.8439 2.49817 5.52739 0.715782
915 1 16.0878 -6.94084 -13.6494 1.15632 -3.32588 -1.46477
2443 1 7.01096 10.9477 -21.9594 -2.26253 -2.62915 -2.48729
921 1 9.49301 -9.78662 -20.9807 -1.49231 1.5351 -3.83525
931 1 17.3904 -1.11554 -7.78832 -2.63092 -2.18917 -0.184339
935 1 22.8935 -11.652 -1.74987 2.71663 -2.78176 0.93679
940 1 21.3076 0.953135 -9.16467 -1.23836 -3.15708 2.12311
952 1 11.617 -14.5114 -10.767 2.6469 -2.50483 -4.04396
954 1 15.9128 8.11489 -10.7858 2.65821 -1.85138 3.65831
964 1 13.7403 -16.1513 -22.626 -2.28838 -5.5989 1.49188
967 1 19.6514 -4.65938 -14.362 -2.75957 0.598593 0.325231
981 1 5.60567 -2.51481 -5.62835 -2.47467 -0.875342 4.70883
989 1 7.489 1.47045 -6.8334 0.561196 -5.01512 1.1324
995 1 9.33888 3.00013 -1.36117 -1.29875 1.57218 -1.35606
996 1 20.2055 10.5 -16.8922 -1.01013 -0.0492276 2.21857
1012 1 0.171027 1.47357 -1.28885 3.58893 -5.69148 -1.97675
3587 1 23.4712 -13.6288 -16.1532 -2.7551 5.34987 0.540312
1021 1 20.4882 -18.8467 -4.25131 -1.71002 -1.53838 0.658976
1025 1 7.1415 4.18173 -20.6457 -2.24716 -3.94672 -2.04519
1425 1 -0.318744 5.5716 -11.4734 4.51393 -1.91396 1.03487
1040 1 10.0486 -3.2139 -23.1726 -2.60818 -1.51676 1.97725
1043 1 16.0777 9.33559 -6.0224 0.817383 -3.44751 -3.44189
1053 1 4.9654 6.36996 -18.9238 0.315218 2.99409 5.11012
1058 1 0.839794 -2.98059 -9.62907 0.647907 1.02971 6.21437
1059 1 3.99023 -21.5783 -14.9586 6.25036 -3.82805 3.42807
1061 1 7.56201 8.48302 -13.9922 -1.06129 -1.20076 0.27108
1066 1 13.2023 -3.05253 -23.3125 3.51947 -1.67736 -0.965787
1072 1 14.1989 8.85749 -18.9675 0.00203471 -1.52993 0.511411
136 1 0.000524666 5.23406 -5.65548 6.4439 1.54519 0.390313
1789 1 23.2162 -1.38742 -5.53696 -3.98859 0.542214 -3.71094
1077 1 16.3598 -8.58577 -8.36094 -0.829049 0.365585 -1.80542
1087 1 9.09386 -1.32362 -19.3436 -2.26092 -1.35257 1.63742
3303 1 23.2702 -23.236 -14.6156 -2.38309 -0.309173 2.41924
1118 1 22.5995 -0.560393 -12.317 -0.935558 -0.599664 -4.09359
1121 1 11.8049 -3.98965 -18.6789 -0.596622 2.2511 -6.1927
1123 1 14.6863 -5.92677 -4.35775 -2.82089 -0.179657 -1.47892
1131 1 17.4705 -7.61694 -4.16207 -4.51015 2.52112 2.22229
1140 1 14.419 -8.21311 -18.367 0.732759 -1.47313 6.55229
1143 1 0.282523 -7.38246 -12.7114 3.4248 3.92031 -5.01501
1144 1 16.138 3.22075 -12.6479 -5.02194 1.58847 1.80727
505 1 -0.229099 7.26142 -23.6023 3.25125 -0.841051 1.7438
1157 1 3.84131 3.14111 -9.66774 1.16021 1.86191 0.340252
1168 1 11.0578 -9.67513 -0.404922 3.33723 1.29893 -2.31438
1171 1 21.9052 -1.68253 -7.91115 3.58554 3.19365 1.34522
1177 1 11.2152 0.634199 -19.4632 1.06584 -0.314058 -2.31924
1179 1 8.96186 -8.00391 -9.01418 4.00617 3.51448 4.12847
1183 1 3.13534 -6.91281 -15.8792 -2.62853 -0.275443 -3.38239
1190 1 14.2535 -2.82654 -20.1846 3.0064 -1.14704 1.01145
1195 1 12.5112 -12.4547 -16.8701 1.81301 -0.212531 0.29073
1206 1 20.6971 -20.1465 -22.3588 -1.50281 -2.5931 -0.0231934
1207 1 15.3641 -5.1014 -15.7262 5.93963 0.809654 3.01044
1212 1 20.769 5.42826 -11.5044 -3.89057 2.02633 -2.60399
1214 1 11.2297 0.79857 -2.4687 -1.22944 -1.66741 1.41845
1215 1 4.79849 10.6022 -8.76256 -1.98521 -1.20257 -5.98098
1216 1 15.596 -8.37388 -11.1922 1.80729 -3.3623 1.16147
1218 1 14.3108 -3.89201 -10.7855 0.649814 0.328715 0.128893
1376 1 6.09959 11.0581 -6.29236 -4.31785 -3.76202 -1.87152
1238 1 8.96299 -2.24281 -13.8152 -1.74798 1.64616 0.393728
1242 1 8.81506 -18.206 -13.0855 -2.37345 -3.67556 -3.02242
1256 1 5.36337 -19.1143 -18.4751 5.99792 1.51297 2.25576
1260 1 4.17613 -8.28633 -13.655 -0.0354225 -1.01934 -2.26242
1261 1 12.9912 -9.04474 -12.3567 0.104859 -2.0875 1.83858
1262 1 10.8697 -14.1618 -4.55327 -4.46653 -3.78068 -0.744729
1278 1 14.8229 -7.49759 -22.5952 0.452713 1.35482 -2.3978
1280 1 0.573652 -2.85235 -5.125 5.29456 -1.0468 3.08179
1282 1 10.5368 -19.625 -3.27822 2.28101 -3.34775 -0.894593
1283 1 3.69572 -21.0744 -9.18508 -5.0367 -3.01467 6.95134
1288 1 3.22003 -4.24779 -15.6956 -4.63569 -1.24681 -1.86526
1289 1 23.4529 -10.1021 -8.63759 2.79453 3.88507 -4.63601
1294 1 14.2469 -12.3278 -7.04725 2.1409 -7.13365 -6.22458
1295 1 13.4293 7.72384 -1.11075 9.10108 -1.14227 0.626591
1298 1 1.99488 -7.20645 -1.94068 2.111 -5.47724 -2.26107
1300 1 2.6554 -1.90906 -3.22244 -4.62322 3.79821 -4.7819
1304 1 2.8589 0.34271 -4.8559 -4.45245 1.37522 1.70903
1306 1 6.74031 -21.9006 -0.707283 -2.17723 -1.23104 2.31286
1316 1 18.601 -10.6791 -14.6574 -8.88544 0.475252 4.84163
1320 1 19.0711 -5.13451 -8.99462 -0.855486 4.55783 -1.96407
1321 1 9.23211 -21.165 -6.41487 2.85046 6.46748 -3.38265
1322 1 1.17968 -14.7864 -4.47462 1.82553 -0.63718 -1.39526
1329 1 21.4708 -13.2274 -3.49255 -4.41577 9.32468 0.800142
1334 1 11.7989 -9.77503 -9.63159 3.31886 -0.257727 3.89861
1338 1 1.73361 5.57546 -1.347 -1.94615 3.15327 -3.74856
1342 1 1.49775 -22.9206 -15.6934 -3.08814 0.5093 -6.55633
1346 1 16.9191 -3.2184 -14.549 -4.64578 -3.5526 -3.35195
905 1 22.2045 -7.18002 -23.8191 1.14612 1.59477 -0.135086
1364 1 12.5577 -12.2245 -12.4897 0.14367 2.12803 -1.10067
1365 1 7.62012 -6.75313 -21.5954 3.10216 1.41761 -0.782122
1369 1 23.0022 2.74721 -4.90729 0.478732 -2.49683 2.09587
3934 1 21.585 3.50124 -13.7254 4.0378 -3.27427 -0.0778851
1728 1 23.3055 -5.23254 -20.363 -1.83386 3.72289 -2.13628
1395 1 0.64502 10.4393 -7.44543 0.172506 -5.73429 -4.01179
1410 1 0.11263 -18.3206 -17.3629 -2.50972 -4.26833 -3.80471
1411 1 20.9359 2.70502 -23.1223 1.0783 6.92242 -4.22529
329 1 -0.271966 0.584766 -11.0897 3.31829 -0.194037 -1.44264
672 1 23.5503 5.30384 -11.4172 0.829677 2.17419 0.883801
1427 1 19.4761 -13.7412 -1.54756 4.18399 -4.43091 -0.854808
1446 1 3.07951 -9.09932 -9.40593 1.69757 -2.79357 -1.24133
1447 1 22.0691 -5.36098 -17.7765 0.674347 -1.75002 -2.00017
1454 1 7.72409 -12.066 -0.421148 -0.765635 -3.1902 -1.38001
3661 1 22.6685 10.0656 -18.5041 -0.222567 -9.3565 0.857004
1473 1 15.0603 -18.9022 -14.2783 3.56122 3.32393 3.3945
1477 1 19.748 -0.397645 -0.814863 -1.28118 -1.29279 3.0381
1483 1 9.34846 -22.5597 -20.4963 -2.17391 -1.24386 0.982501
1491 1 12.7351 7.70309 -5.70575 -3.10757 -4.67011 -1.24577
1497 1 12.6739 -9.71569 -20.1531 -0.428536 1.83715 -2.96055
1505 1 17.6079 -23.2934 -21.091 -0.371477 -0.0538651 6.09693
1508 1 19.7993 -10.8516 -4.02935 -4.17018 2.00323 -0.707675
2900 1 15.9927 2.19771 -23.9971 -0.397296 1.81151 -0.805979
1520 1 11.0263 3.75096 -14.8774 1.26314 -0.14184 -2.0506
1527 1 2.04833 0.841288 -9.60761 5.57885 -4.45747 -1.89129
1532 1 19.2944 -5.1416 -17.1092 0.106125 0.320356 5.65716
1539 1 1.35099 6.69954 -16.76 2.42147 -0.571791 -2.83448
1541 1 6.64494 -18.2025 -7.38068 -1.74014 -3.70342 -3.51814
1547 1 14.0751 -0.231279 -0.71798 2.12541 1.17819 -1.44747
1962 1 -0.422168 -12.3897 -4.1515 -2.3436 3.19154 -4.2593
1875 1 23.094 -7.60845 -12.2896 -1.79939 1.97836 2.66294
1551 1 9.2122 -0.767514 -6.38279 -1.96597 -1.38908 4.41334
1552 1 18.7099 9.40487 -19.0207 0.42875 3.38231 -5.07186
1556 1 20.3026 -18.2194 -8.83027 -1.10081 -4.32485 5.34065
1557 1 8.4393 -22.6977 -17.8939 -1.52634 -6.31831 -0.719148
2070 1 23.9173 1.00944 -1.08669 2.03377 0.491474 -4.26931
595 1 8.5715 -17.0751 -24.2149 1.60148 -7.61857 1.02506
1567 1 0.831552 -9.42239 -21.7026 -1.39453 3.87069 -3.95928
1578 1 17.4973 1.04041 -11.6183 2.42886 -3.20357 4.14509
1583 1 9.62931 -1.50475 -3.63931 0.0181393 3.89954 -5.82612
1587 1 18.1605 -2.44387 -10.2232 -0.878039 2.14532 -5.24183
1590 1 21.1885 8.04011 -15.6597 -1.05525 0.343091 -2.06697
1594 1 9.90185 5.83635 -2.13204 0.541027 -4.18863 0.660812
1600 1 17.4719 -14.2989 -16.3964 4.91785 0.752246 -3.45375
1603 1 5.98505 -10.2476 -12.8101 -0.0974398 -0.180886 1.09338
1604 1 20.3761 -14.1565 -15.8247 3.01421 -1.77964 4.15629
1607 1 12.6701 -22.5885 -15.4832 3.11858 -1.1817 -0.541413
2080 1 23.016 -24.1555 -17.4075 5.5687 1.00564 0.988162
1616 1 15.5357 -12.5345 -17.6699 0.308866 4.37002 -1.58877
1620 1 13.8349 -9.47818 -7.83429 -5.48738 2.76891 1.95984
3937 1 14.2652 -14.4418 -19.4677 -1.08781 -1.95949 -2.10017
1635 1 6.54227 -16.1488 -10.1534 0.575055 -2.26643 3.57454
1638 1 14.2195 -5.34899 -18.5001 4.22107 1.8646 0.806444
1650 1 10.6187 -4.15797 -12.6358 -4.56894 2.1393 1.48089
1727 1 23.4209 -2.90028 -18.5001 -0.127571 -0.0372118 0.937227
1652 1 12.7541 4.57611 -19.0489 2.73541 0.0774247 -0.494558
1657 1 17.3129 7.88456 -13.2441 0.573054 1.01957 -3.34014
1660 1 4.35796 -9.81269 -22.3046 -0.943698 -3.47161 -3.42756
1664 1 2.69915 -10.6779 -14.4995 -0.421961 0.0431511 0.969504
1666 1 17.0543 -7.30491 -16.8588 -11.7828 -6.02567 -1.21271
1669 1 15.8601 -23.4905 -11.2619 4.28758 -0.299841 1.62957
1674 1 3.978 -2.86235 -7.96169 -1.1176 4.64763 -1.5014
1687 1 21.8613 -16.9162 -13.6417 1.08503 -3.19595 7.11972
1689 1 2.99853 -23.9233 -0.953186 -0.383742 3.1597 -2.95028
1695 1 18.1614 -24.7836 -10.5879 0.137032 2.20619 -0.376331
1700 1 14.4738 -2.4014 -13.3102 0.243284 -1.28448 -0.904345
1703 1 3.30545 3.84487 -13.0421 -4.507 -1.12867 5.03283
1706 1 7.95875 9.35203 -19.8179 4.52928 -1.76255 2.243
1714 1 6.54936 -1.21972 -12.1046 -4.90439 0.248037 -1.71113
3921 1 17.4717 6.94822 -18.9329 3.83458 3.80631 3.15104
1717 1 11.4279 -16.4978 -1.94339 -1.14097 -0.993562 -2.87849
1718 1 7.71188 -20.6186 -12.0391 -3.07591 1.29714 -2.31902
1976 1 20.4666 -10.6614 -23.5191 -3.90562 -4.17782 -1.05095
1731 1 20.9898 4.36937 -3.78883 -2.74773 -6.07941 1.42921
1738 1 4.40786 9.77661 -23.1284 2.58291 1.01473 -0.565997
1747 1 3.63664 -17.6384 -6.53971 -1.29901 4.4272 0.00762636
1748 1 15.4482 0.532912 -4.3602 -0.326391 3.79848 1.4336
451 1 23.4457 -12.267 -18.9154 0.856605 -1.9842 -1.99136
1757 1 18.4477 -12.4517 -7.8475 -0.0027287 2.16389 -1.98787
1761 1 21.4717 -17.4521 -21.3849 4.77284 -2.64853 -0.0923769
1765 1 3.09626 -18.1075 -3.825 -5.23835 -0.86924 0.950018
1779 1 6.05155 3.94606 -6.49886 1.38682 3.5889 -1.91376
1780 1 5.48893 6.87281 -5.99004 -0.120569 0.292804 -0.142138
1783 1 17.1665 6.38498 -6.26786 1.20353 -3.06104 0.847925
1105 1 20.1008 2.56118 -0.668282 0.57304 3.13011 -2.98096
1790 1 8.21448 3.41484 -13.8159 -0.831989 6.08544 0.310341
1791 1 0.400261 -7.42336 -15.6459 1.26087 -7.41796 -4.59305
1793 1 19.4134 5.46745 -22.8909 -2.74789 -1.98157 1.31667
1794 1 17.2994 1.98645 -19.518 2.20387 -1.23029 -0.95033
1795 1 15.4571 -0.893707 -10.9253 -4.6805 2.60489 2.3032
1798 1 18.1457 -6.4302 -19.313 3.44711 2.00719 2.09913
1805 1 9.91358 5.48547 -6.49951 -3.14359 2.38803 -0.879783
1810 1 10.4729 -23.6148 -6.15169 -6.81212 -1.94422 3.28243
1814 1 11.5446 4.35377 -11.879 0.72801 1.24613 1.97788
1822 1 16.0564 -2.10601 -2.60736 -3.15428 -0.818088 -5.73143
1825 1 7.7879 -10.3525 -4.81163 2.3056 3.77357 -0.81685
1827 1 15.5491 -21.8888 -3.14658 0.505849 4.426 0.792765
1831 1 13.2409 -15.5144 -4.00811 -1.83156 0.325802 -0.837218
1834 1 6.73323 -9.22624 -20.7624 -0.287086 -1.27809 -6.27715
1841 1 9.12233 -23.9195 -10.8841 -3.92079 -3.81982 2.43694
1843 1 7.94389 -3.80916 -20.8977 2.33937 -1.00862 -2.17291
1848 1 6.72422 7.18 -16.3514 -1.79058 2.81902 -2.89648
1849 1 13.7668 -24.149 -13.046 -0.146797 -1.06593 -1.97721
1850 1 16.857 -20.3512 -7.81105 -4.59208 3.47946 -1.88118
1852 1 0.68895 0.821425 -19.9178 -1.82164 4.03844 -0.378813
1856 1 7.75261 -4.52223 -18.1754 -2.35409 -0.44785 -6.62147
1858 1 1.95813 -15.5586 -11.3227 0.948454 1.4401 0.0324472
1859 1 6.25207 -14.763 -15.4678 -2.04734 -0.135533 2.83377
1867 1 5.7058 -8.08394 -1.84749 -1.0732 0.65977 -2.60254
3918 1 12.3286 10.9995 -17.7415 -2.21674 -0.724851 5.01339
3904 1 10.6758 -6.34154 -7.58188 -0.782337 2.55091 1.14736
1902 1 20.8981 0.485993 -21.1434 -0.133522 -3.09626 -2.36192
1903 1 0.661784 -15.7152 -13.9257 -3.66565 -5.00178 -5.26075
1911 1 19.5747 -1.79714 -5.9122 -2.57742 -3.78275 0.542879
1915 1 19.4139 -19.1638 -15.1775 -2.26141 -1.82986 3.43186
1923 1 12.7506 0.257555 -10.9147 -0.722328 0.0189182 5.12881
3917 1 1.50746 -5.72598 -9.07015 -0.717203 -2.76215 2.26752
1926 1 12.9737 -2.47957 -6.49573 -3.10593 -0.483973 0.0108662
1934 1 0.652486 -11.083 -1.70796 1.19011 2.29936 -2.05491
1946 1 8.70965 9.45739 -6.73654 -3.36633 1.16329 -1.53695
1948 1 12.4706 1.2913 -15.2088 1.57682 -0.0499425 -2.37963
1952 1 5.40287 -15.5748 -12.7563 -3.68492 6.27863 4.11584
1953 1 16.3988 -19.3463 -2.50909 1.0276 -5.49706 5.53488
1959 1 23.1296 -3.91222 -1.89467 -0.467991 -1.85441 -2.17802
1961 1 16.9351 -12.2066 -5.39908 -3.74895 2.33227 3.75294
3895 1 13.8017 -6.09702 -0.60976 3.57126 0.527409 -2.69156
1970 1 21.4882 -6.46996 -1.91561 1.26271 0.895424 -4.05356
1975 1 11.1521 -17.7975 -17.1268 2.21083 -1.49832 0.010827
2874 1 0.0121269 -10.0905 -11.9428 -0.751514 -3.02016 0.795972
1983 1 17.0646 -4.90092 -5.31847 1.82645 -0.469942 1.66675
1985 1 1.80607 -24.1185 -9.03274 0.784796 2.50399 0.650821
1990 1 19.6853 -14.5203 -5.74224 2.18035 -2.78122 -0.39207
2000 1 3.97529 2.29472 -20.2273 -3.67429 -1.7014 -1.45212
2003 1 11.5967 -4.45434 -9.77288 -0.113656 -7.02682 -2.84529
2948 1 1.14828 -21.9094 -0.275021 -1.03299 2.16362 -3.3809
2006 1 10.4224 -11.4126 -7.80422 0.854438 1.9054 -1.21136
2020 1 8.89906 -13.4202 -14.9249 -2.19239 1.20292 -3.07833
2028 1 0.966144 -2.16353 -19.5309 -1.06224 4.76471 -1.65783
2029 1 15.1177 -8.17982 -2.5476 -0.512862 0.858506 -0.198907
2030 1 9.54735 -17.519 -21.6001 1.26542 -1.32268 3.66766
2039 1 8.61343 -20.3022 -22.1198 3.86843 3.934 -4.53109
2045 1 6.42984 -17.4793 -14.5134 1.06342 5.00101 -1.21184
2054 1 14.2183 4.96453 -1.5107 -0.0427061 1.15641 -1.02549
2058 1 21.7553 9.55338 -13.0832 -4.41712 1.6808 -2.51533
3951 1 5.53794 1.98621 -13.7706 0.531626 0.824589 -1.65013
2069 1 22.0676 -21.775 -10.8662 -5.45017 -5.0872 0.119439
2074 1 2.18361 11.0464 -13.1017 2.58308 6.11129 0.212916
2079 1 5.51579 -14.722 -18.543 0.449501 -0.138124 -0.940085
2083 1 19.9631 8.41744 -8.7486 -0.354584 -4.12633 -0.955319
2102 1 6.54085 8.24825 -8.33328 -5.70258 -1.57127 -2.52131
2103 1 10.0622 -16.4879 -14.9717 -3.89238 1.483 -2.14217
2105 1 13.0602 9.92292 -11.908 -7.30351 -3.04962 3.51032
2115 1 16.6501 -14.3051 -9.2194 -0.246734 -0.286644 0.857405
2122 1 12.3547 7.92182 -9.68073 2.96319 -6.79907 -0.720249
2123 1 21.3905 -8.22502 -17.6464 -2.84882 2.21138 5.04618
2124 1 21.3425 -1.22974 -18.685 2.38716 1.64248 -4.82103
2126 1 11.7073 -6.48635 -3.65365 0.484867 -0.0113856 4.21653
2616 1 23.7958 -2.29756 -9.99513 3.62335 2.12226 2.50139
2131 1 18.692 -6.725 -1.63968 -0.595724 1.85147 0.795995
2132 1 11.1004 -20.9902 -23.9015 -1.50088 2.56229 -0.275291
2143 1 19.6951 4.34453 -15.6632 3.1369 -5.06151 3.93962
2149 1 19.5886 -3.94763 -4.15788 1.15974 3.50056 -6.48639
2151 1 7.37687 5.1916 -11.7174 5.88919 3.51727 2.35035
3990 1 10.2244 3.96704 -22.1457 4.34712 -3.57804 2.32507
2162 1 21.059 10.3817 -5.14175 -1.12704 -2.63256 4.76032
2164 1 16.6389 2.69354 -9.15414 3.17793 -2.90519 3.19451
2169 1 10.2825 -6.98614 -20.6419 4.81341 2.86171 -1.26465
2173 1 21.556 0.826848 -14.6326 1.98046 -0.803913 2.22478
2174 1 5.12256 8.65597 -3.49179 2.11028 -2.46989 0.0622775
2178 1 18.5266 -15.9477 -8.02102 3.15703 -5.82721 -5.33872
2180 1 10.9854 -7.24469 -10.885 1.24544 0.601273 -2.85601
2186 1 3.33771 -9.43409 -17.1436 -2.2166 5.23621 2.34552
2193 1 16.4339 -14.5722 -13.6059 4.61326 -2.24003 6.1043
2201 1 13.5503 -12.2041 -21.3069 2.15173 -0.589308 -6.65707
2202 1 17.6502 -19.2487 -19.2117 -0.945233 1.00658 -0.589851
2203 1 7.27627 0.45543 -2.83363 3.16525 -5.54698 -2.55968
2204 1 4.95024 -0.683036 -1.73577 -2.35486 2.41876 -1.99357
2210 1 21.192 -18.9553 -1.40315 -0.0994494 1.8491 1.13183
2213 1 18.6713 8.6572 -5.18511 -1.73969 2.56904 -3.21552
2216 1 2.6333 -1.22877 -13.4466 -0.473713 4.44383 -0.971689
2225 1 1.10353 -17.0814 -22.3528 -3.3764 -1.11424 2.39565
2227 1 8.52625 2.80622 -4.41482 -1.02872 -6.71058 1.62883
2236 1 21.4671 4.60844 -17.7871 0.518971 -1.57411 -1.865
1229 1 18.8159 -16.7816 -1.05796 2.28604 -5.60095 0.609843
2253 1 6.19017 -18.1215 -3.38358 1.7536 1.31611 0.65898
2255 1 1.88663 -1.52677 -16.5817 0.658523 2.16134 3.0475
2261 1 14.1401 -4.5132 -7.95871 0.0273753 -3.15481 -4.04391
2262 1 18.0055 -22.8274 -1.66335 -2.94329 -5.91154 -0.339321
2263 1 1.96735 -16.2034 -1.94683 3.28354 -0.799323 -3.14608
2268 1 13.2225 0.333449 -6.27208 -2.22295 1.68884 -6.48934
2269 1 18.116 9.57161 -22.0153 -1.80008 -0.188326 -1.11163
2271 1 23.2293 -17.6537 -8.81946 -0.227789 -0.877645 -3.90849
2280 1 11.4345 -11.2029 -2.77193 1.09841 -3.8065 -4.2286
2288 1 22.841 -8.73348 -6.02258 -0.905984 -6.04233 -2.412
2297 1 9.89448 6.32653 -20.3585 -1.5547 -3.04671 -4.73189
2299 1 9.00812 -12.3768 -3.14173 0.685575 1.78497 -0.293651
2302 1 15.8068 10.82 -16.2548 1.14961 1.14473 1.28775
2308 1 5.6266 3.48677 -18.2608 1.5394 -3.57769 0.0354312
2318 1 20.4141 -6.64685 -4.82909 -2.23127 -0.536418 -2.55427
2320 1 22.1658 2.23594 -19.1579 -1.67515 -0.437173 -0.357594
2323 1 3.68017 -4.27319 -4.20602 -1.14227 1.47245 -0.126152
2324 1 7.46091 -18.0819 -17.1756 2.02369 -1.87402 0.0548371
2325 1 15.3109 -21.4339 -15.7543 6.16267 -0.422227 -1.06877
2326 1 21.5442 -10.3646 -14.2007 3.22277 1.92261 2.96243
2327 1 12.9185 -0.535405 -17.4242 -0.859083 2.72818 -5.53987
2333 1 10.8936 -20.2971 -14.3298 1.70209 0.266875 -1.97412
2336 1 16.054 -11.472 -20.3146 -4.50317 -4.25004 -2.35857
2338 1 -0.312044 -3.58647 -21.8591 1.57682 -3.72965 5.2334
2339 1 7.80963 9.7757 -3.73099 -2.35221 0.465517 2.38203
2341 1 6.59128 -18.3862 -21.1757 4.2734 3.27882 -2.30043
2350 1 11.7398 7.08599 -12.5612 -2.94244 -5.14032 2.2998
2351 1 17.3989 10.8724 -13.8904 -4.09684 -0.997243 0.372667
2354 1 18.6295 -18.5952 -23.4475 7.51168 -2.16259 -1.04641
2356 1 15.4703 -22.6735 -8.57307 1.98272 -4.69088 -3.99373
2358 1 2.62464 -11.0632 -11.4679 -5.2481 2.65506 1.46597
2363 1 17.2037 -11.9549 -1.33649 0.299249 -4.47023 -1.84153
2365 1 22.3751 -9.14627 -3.09031 1.58562 2.70485 6.13604
1015 1 0.722213 4.55419 -23.6209 2.91192 2.40378 -5.37888
2381 1 13.0661 -9.08448 -4.31987 -1.53152 0.442026 0.606749
2392 1 9.63038 -22.9434 -15.2743 -4.85117 -1.3901 4.0822
3900 1 12.4851 -17.8811 -13.8231 -2.91564 0.968037 2.1297
2410 1 5.90549 -20.6742 -23.0755 -3.03072 0.406662 1.90672
2414 1 13.3249 -7.04265 -6.65274 -1.18549 -3.3597 0.393498
2418 1 12.9449 2.97478 -7.95423 6.26185 1.31492 -3.30413
2419 1 22.6822 7.24145 -18.1229 -2.4256 -2.06816 -3.6714
2440 1 5.94181 -3.56523 -15.8167 -2.1903 0.0930229 1.86066
3101 1 22.7279 -15.1018 -20.0677 3.22832 -6.35841 1.03421
2448 1 0.736647 -13.9475 -9.38201 0.165574 3.19891 -0.534756
2460 1 9.25188 10.4289 -15.2491 -2.1384 1.18535 -2.35046
2466 1 1.52343 4.0464 -3.55622 -1.51177 -3.01145 -1.89622
3967 1 1.52016 -6.31486 -4.73099 -1.67571 -2.37096 -1.43233
2470 1 11.7046 -19.9387 -9.39578 -5.33987 -2.36623 0.33556
2473 1 13.4307 9.60498 -7.752 1.16977 1.44265 -2.82331
2477 1 11.014 9.1988 -1.85209 3.38945 -0.599501 3.68698
2482 1 7.00303 -4.43345 -1.32368 0.249078 -3.38028 -2.19363
2484 1 1.76616 -15.4948 -7.49636 -1.27712 4.31051 -3.93613
2491 1 11.6325 -22.2419 -3.95308 -4.53567 -2.31175 -2.70147
2495 1 14.3501 -13.0058 -10.1787 3.16258 2.21949 -0.335779
2496 1 4.73463 2.39243 -23.032 -1.44829 4.98258 2.81264
2507 1 8.22266 -1.93199 -16.6639 6.54782 0.997905 1.34569
2516 1 4.5554 11.0446 -20.3415 -7.32373 5.62957 2.28164
2530 1 3.92779 -13.107 -15.6016 0.90733 -0.52512 -5.78449
3997 1 19.2601 -22.0373 -10.8953 7.4346 -2.36542 2.85202
2548 1 16.6902 -5.75596 -7.86435 -0.454912 4.16154 -4.25186
2557 1 16.9054 -21.6646 -13.1451 -6.46649 -0.441905 2.8226
2563 1 21.0322 -3.94513 -21.745 2.1372 9.72394 0.83682
2568 1 19.5288 -9.17425 -19.778 0.191933 -2.32225 -5.50531
1558 1 8.37738 -17.3456 -0.301016 -0.385463 0.206143 0.381463
2573 1 18.9601 -23.5248 -4.32771 -0.136453 4.21888 2.99361
2588 1 17.2205 -0.766986 -16.735 -0.351784 1.63558 -0.218026
2590 1 13.926 3.05146 -10.6495 -4.01984 -1.22351 -1.62776
2598 1 19.5805 0.040563 -3.5704 5.23741 3.28902 1.51084
2604 1 13.347 -12.3372 -0.976017 -1.44795 1.95973 -2.25254
2607 1 11.142 2.04224 -24.1397 -4.19466 -1.80786 -0.0941594
2608 1 12.5219 -18.72 -22.0316 2.65663 -7.38926 -0.563164
2610 1 0.652601 4.08389 -17.5652 -4.82818 2.33031 -3.48295
3960 1 18.7476 -12.6287 -10.8715 1.09593 1.44037 -3.77936
2628 1 11.9739 -7.97504 -22.8113 -0.0985053 2.26438 5.01935
2632 1 19.1678 -2.52879 -17.9395 0.26471 0.909259 -4.4537
2637 1 9.8073 -14.9738 -17.5319 -0.507078 6.07832 5.85974
2638 1 12.8375 4.79061 -5.7417 2.29864 -0.326618 3.14869
2641 1 23.2249 6.66866 -14.335 3.56321 -1.80701 -5.41175
2644 1 19.1337 -19.5194 -12.294 -2.40795 -0.741779 -2.52369
2654 1 19.077 -9.73094 -1.35 -0.939953 0.941516 -0.839708
2659 1 15.376 -4.92989 -24.0959 -2.80156 0.537658 2.32461
2675 1 18.1981 4.61578 -10.6121 1.98899 0.389425 -4.24143
2678 1 3.87063 -18.7546 -14.8605 -2.59538 -7.39007 0.331147
2680 1 9.1524 -3.85172 -6.76597 -3.08279 0.56547 -1.35428
2686 1 5.5692 -22.5269 -17.2583 -1.32365 -3.08058 1.72379
2687 1 19.2511 -15.8775 -13.0977 -0.470239 -4.22254 -2.57425
2692 1 4.0617 0.537857 -11.6686 1.92346 -2.48158 0.0778303
2697 1 5.59329 0.306313 -5.12425 -2.6264 4.6887 1.57702
2703 1 13.5102 -6.25029 -12.3743 -2.50538 1.77143 1.92817
2713 1 23.3018 2.4393 -7.69604 -2.99669 0.543389 7.35427
2718 1 10.9705 -15.6973 -23.5351 0.72656 2.12041 -0.380228
2743 1 1.18525 -19.158 -6.81756 3.9969 -0.661026 -3.76586
2746 1 6.15603 -12.4339 -3.66415 -3.05347 1.63282 -0.019207
2765 1 8.01989 -16.2573 -19.2421 -1.00612 -2.61186 1.59905
2774 1 22.877 0.65713 -17.0872 -2.45966 -2.59127 5.39041
2776 1 9.88126 7.42845 -8.6098 -0.12522 -0.748474 -4.97091
2783 1 10.6057 -9.58306 -14.0188 0.664753 2.97444 6.79505
2785 1 22.2932 -3.24135 -13.7108 -2.2208 -2.25244 -2.31255
2789 1 9.1929 -6.23692 -5.04369 2.18715 1.53222 -5.7769
2797 1 17.5991 -11.4435 -22.9784 -2.28332 0.369956 4.82515
2803 1 23.1905 -5.31066 -15.1606 -3.55342 -2.98226 -4.46739
2808 1 4.40662 -23.714 -10.155 3.8825 -0.534809 0.456615
2813 1 0.539857 -9.6389 -17.6915 3.05873 -1.41649 -1.46714
2814 1 22.0681 -4.62801 -6.06364 -2.01173 -0.309316 3.31066
2817 1 5.95977 -16.5416 -23.2616 2.94051 0.399239 -3.00103
2821 1 17.6242 -10.2307 -11.937 2.90601 1.46789 2.78716
2826 1 7.95673 -19.7109 -1.94645 2.36894 -4.02778 -0.424691
2828 1 2.09355 -4.59322 -18.3063 3.24791 2.1646 4.43899
2831 1 18.3068 5.16852 -13.3205 -1.72923 2.32606 -6.06717
2840 1 3.63182 -18.6125 -23.4989 -0.102548 -5.37037 -2.09037
2841 1 18.0126 -17.4727 -3.74901 1.87403 3.53456 -0.344437
2843 1 15.7255 3.49867 -21.5438 -1.62623 1.44207 -7.45227
2845 1 19.6072 3.0507 -20.4125 0.653234 -1.85104 1.35016
2850 1 1.75477 5.11973 -9.58878 -1.51638 -0.849664 -1.63649
3031 1 23.6756 -8.99435 -19.2869 1.9072 -2.43914 -1.23962
2854 1 5.69144 -6.88995 -6.68202 -1.17312 -2.85356 -2.39385
2856 1 16.1895 -15.801 -0.555 0.23351 -1.23971 -3.1763
2858 1 11.5542 -2.17622 -20.8635 -4.28601 2.18801 -3.30655
2862 1 11.176 -2.54335 -16.239 -1.90219 4.01538 -3.87152
2863 1 20.254 -18.2934 -18.9655 -1.32371 -2.78617 -0.597805
2127 1 22.9111 -9.38433 -22.0558 -2.73753 3.52926 1.66197
2875 1 21.6897 -4.41292 -8.8141 2.54917 -0.29145 -0.267689
2876 1 19.7823 -22.8906 -22.8841 -3.83189 1.93539 -4.52386
1389 1 20.8264 -3.1254 -0.482053 -4.95548 2.74987 1.30714
2911 1 1.40826 3.67484 -20.3297 3.95912 -0.28443 -0.245637
2912 1 10.3539 -15.7039 -6.89732 1.41352 -1.49501 0.0767805
2913 1 16.6381 5.98818 -3.47515 -1.39864 -1.79445 -1.29132
2918 1 20.9001 6.62546 -5.5749 -3.36032 -1.95543 3.14056
2919 1 22.9875 -15.6607 -4.28987 0.60066 0.956405 0.382222
1924 1 23.6354 -17.8631 -0.773711 -1.99308 -0.509195 -0.254068
2934 1 8.83344 1.98285 -20.3687 4.14359 -0.0534595 -0.140539
2936 1 23.2299 8.37828 -6.23666 1.26258 5.26612 5.08014
2947 1 18.2431 -14.4251 -22.4428 3.90908 3.12549 -3.37614
2951 1 11.9523 -17.3208 -11.1279 1.10646 -3.05075 1.84359
2958 1 8.09226 -8.85606 -11.6498 -2.99052 -2.42817 -2.05736
2536 1 23.0427 -20.0721 -23.9215 2.07022 -0.732202 -1.39271
2965 1 19.41 -1.90658 -13.5386 2.32048 3.96406 -0.919338
2970 1 19.9586 -12.9161 -13.3049 4.81871 -3.24593 0.2834
2975 1 18.1807 10.195 -0.980291 0.109323 0.191806 -1.06006
2977 1 3.64544 -9.96859 -2.30943 2.68039 -2.08863 -0.0661986
2988 1 0.75846 -23.6753 -4.86048 -4.03623 1.12582 2.32072
2999 1 12.5739 -19.0927 -1.41161 -0.0743713 3.36748 -3.02759
3005 1 3.17695 4.22767 -6.97793 8.47823 -3.26297 0.711064
3006 1 21.3107 8.30699 -20.6473 -1.78515 -0.959852 7.77021
3012 1 0.883105 -22.3311 -18.2059 0.661758 0.57543 -0.148478
3016 1 18.7277 -12.9528 -19.7191 -2.38577 -5.56392 3.6579
3032 1 18.15 -9.67235 -6.3279 -1.55442 2.22333 -2.79463
3043 1 5.33284 -11.8395 -17.6614 -2.77332 -6.20906 1.3997
3046 1 16.3364 -10.0659 -16.6048 4.00601 -0.698067 -0.647707
3053 1 20.8856 -22.0307 -0.871241 -6.47887 -3.67015 4.88505
3065 1 6.03537 -12.7197 -11.6928 -1.71298 -2.09443 0.607101
3069 1 7.04033 -7.74924 -4.25292 -6.71063 4.50452 -0.354589
3075 1 20.1512 8.28101 -23.399 -1.66543 -1.67622 1.61371
3079 1 11.6448 -3.42226 -4.24311 -2.02878 3.48985 3.07989
3083 1 6.5881 -14.1897 -8.23363 -4.55318 -0.845918 -2.32851
3090 1 15.8038 -2.42657 -5.46147 -2.56641 1.04512 3.43379
3096 1 4.95375 5.11084 -22.3243 -5.31868 -0.265216 -3.93646
3100 1 16.4699 -8.75181 -20.367 1.21497 -2.72416 0.308881
3106 1 1.47824 -11.5152 -6.28319 -0.416988 2.26576 0.930917
3108 1 8.35133 -17.195 -5.14368 0.461543 -0.227333 -5.11157
3111 1 9.30723 -20.3267 -17.0285 -4.51918 3.84838 0.791079
3935 1 12.0617 -16.3828 -20.1422 -5.20445 -0.930688 7.20115
3113 1 8.34966 -12.2085 -17.7186 3.48079 -0.917453 2.93469
3114 1 4.05076 5.49982 -16.2087 1.74516 5.48581 0.432398
3117 1 15.1445 -10.9692 -3.29834 8.06776 -1.20941 1.12458
3126 1 1.75403 7.83248 -8.49205 -2.32135 1.23656 -3.97486
3128 1 2.65573 9.36461 -15.5445 -2.33248 0.879273 2.03919
3134 1 21.4433 6.80341 -2.0408 4.7044 0.909535 -2.79277
3137 1 5.48582 -6.41003 -17.4175 0.487908 5.23285 -1.20672
3975 1 4.3352 -0.264305 -17.1304 -2.11334 3.77084 1.20987
3139 1 5.74687 10.1221 -12.8451 3.50583 4.54767 -0.111797
3141 1 10.7848 -2.02226 -8.5487 1.86334 2.11719 5.90718
3149 1 11.0133 8.84112 -16.4565 -3.14319 0.12297 2.7324
3153 1 17.1014 6.84967 -21.6783 1.03266 -0.772431 -4.14763
3158 1 19.4304 -20.8276 -8.35225 2.91116 4.87604 -1.02254
3159 1 19.3824 4.26681 -6.55204 -1.60814 -1.88968 1.68949
3167 1 19.9871 -15.2497 -18.664 -0.171496 -0.239701 -3.09482
3169 1 12.0277 -22.0659 -19.812 -4.18073 -1.00393 4.82084
3175 1 18.497 3.80983 -2.65813 4.37019 -6.22752 -2.19728
3177 1 0.828401 -11.5791 -24.0214 0.825809 -3.08883 3.11318
3191 1 7.1952 -5.65466 -8.56009 2.51991 1.22779 -1.59034
3196 1 0.0193633 -2.39068 -1.85822 -2.28971 -1.98216 0.502535
3198 1 9.32732 2.30001 -17.4636 1.76393 5.17945 0.931622
3207 1 0.589479 -6.86261 -19.2287 -1.37336 -3.61034 3.70176
3234 1 9.33532 -6.53184 -13.4616 0.231166 0.924301 -6.75851
3242 1 21.7449 -11.1384 -16.9814 -1.7314 -0.191121 1.30221
3250 1 14.4427 5.35658 -16.6697 1.07845 -4.67298 -1.31459
3254 1 20.7889 3.89936 -9.05887 -1.80264 -1.67479 -1.17411
3954 1 3.8742 2.44399 -15.9315 1.22725 6.26407 -3.54967
3265 1 6.50578 -7.25669 -14.7471 -0.496265 -3.97325 5.39858
3278 1 0.456641 -6.4926 -22.2177 0.763477 2.35744 -1.47967
3282 1 5.4026 -1.06742 -14.6009 -4.71687 -0.304016 1.59311
3288 1 1.21289 8.1565 -19.283 0.820215 -3.11985 -1.89295
3298 1 6.32243 -9.08329 -18.0212 2.66264 1.25146 1.43329
3301 1 22.9941 8.8919 -9.10145 -0.436232 -1.56879 -0.198227
3949 1 3.43199 -13.3734 -12.618 -2.8884 -0.403977 3.92327
3305 1 2.64032 6.85901 -5.89087 -0.0191053 -2.22443 -1.75172
3311 1 9.15914 3.06141 -10.9322 1.66337 -2.77439 -0.702664
3315 1 21.0456 -11.686 -20.8937 -1.15495 -4.31475 0.0152996
3316 1 3.24202 -5.4383 -6.9832 -2.49415 -2.08368 1.7314
3319 1 1.14287 1.45129 -16.4409 -1.38101 -3.57134 -1.02429
3320 1 4.43586 5.70577 -11.029 -0.179787 2.609 -0.582292
3887 1 1.17336 -11.4705 -19.7183 -1.35664 3.46917 3.28421
3324 1 14.3379 -17.3927 -9.25338 -3.45624 -5.20744 0.0312527
3327 1 6.95306 -23.2998 -8.61767 2.1414 -4.16321 -0.926264
3328 1 2.51484 -17.7339 -9.44001 2.55788 6.20026 0.912323
3329 1 12.1208 6.37641 -15.3768 -2.58462 -5.23701 -5.27721
3335 1 22.6676 0.482565 -3.48361 -2.05291 0.364686 -1.87381
3340 1 18.0328 -0.461813 -20.9771 -2.22766 2.46542 2.08382
3363 1 12.8058 -4.68128 -14.7489 -1.71471 -0.0368386 -0.839644
3367 1 1.60725 -19.3454 -19.2464 -2.3102 1.31827 1.44314
3372 1 6.97679 -2.65085 -8.32582 -3.24156 1.54468 -0.107299
3374 1 21.8324 -13.9066 -22.6442 -2.03078 -0.862615 -4.92489
3384 1 16.3253 -19.2539 -11.5879 -2.48842 -5.90536 -0.125983
3386 1 10.656 -10.4348 -23.7039 -1.7895 -0.966931 0.828082
3400 1 15.2558 -22.5217 -22.5237 -3.08947 -0.568902 -0.911332
3402 1 13.9825 -16.7944 -17.7207 -1.71109 2.84825 2.16763
3407 1 11.5356 -0.95447 -13.5414 -3.62082 -7.69991 2.45484
3412 1 6.11511 -3.91738 -10.8402 -1.15635 -0.530854 0.124707
3416 1 20.0826 -21.511 -5.59918 -1.09132 -4.88305 -4.66933
3422 1 5.91685 -15.3094 -3.19421 1.68856 -3.33614 1.78222
3441 1 5.73269 -15.6027 -5.99762 0.668575 -4.55924 1.39412
3451 1 3.85931 -12.0608 -20.0915 1.26865 1.95486 -2.2603
3453 1 15.3076 10.4342 -21.0748 -0.323217 -0.0619484 -3.0951
3458 1 14.5872 5.7275 -22.8503 2.00794 -0.291878 -1.17102
3463 1 23.0461 7.80915 -23.1543 -2.71882 -4.20328 1.99903
3481 1 1.76267 -20.7065 -23.1477 3.83983 3.23139 -0.123606
3485 1 2.12823 9.02928 -3.95031 -0.338901 3.50558 -6.41973
3487 1 10.0946 -10.8731 -11.7029 0.539757 2.50707 -4.6754
3489 1 18.8902 1.54914 -7.70679 -2.4617 4.88245 -3.11875
2161 1 -0.348047 10.0841 -4.7694 -1.814 1.80556 -0.558742
3507 1 8.88647 9.87168 -10.0581 -0.445346 -1.31692 2.85299
3511 1 13.788 10.3186 -2.28221 1.97174 5.16342 1.38867
3535 1 12.3187 -20.2898 -17.6412 -1.27405 -2.89811 2.07628
3541 1 12.777 0.323101 -22.4025 -7.71493 4.90313 0.512311
3547 1 9.34435 -18.2281 -8.53498 -0.984922 1.29228 -0.699108
3548 1 9.08242 -12.7431 -20.6193 1.56243 1.52759 -3.19284
3551 1 13.8342 1.867 -20.0321 0.585319 -1.48643 0.0882731
3557 1 9.03529 7.64359 -17.7804 -1.26055 -2.90536 -1.54839
3563 1 3.14296 -23.3961 -6.66642 -0.655116 1.05547 -1.89593
3992 1 22.8416 9.02852 -3.30759 -2.18058 0.0217436 -0.64733
3565 1 16.8599 -17.7305 -6.32923 0.291208 0.160362 -0.580991
3573 1 18.0433 -4.03029 -1.72949 0.454086 1.35854 -0.805744
3586 1 15.0815 0.517321 -8.40702 2.76049 1.26438 6.00872
3914 1 12.1021 -11.5069 -5.46722 1.83437 0.277645 7.69123
3590 1 10.9292 1.54515 -5.33436 -2.40437 -3.61553 3.02329
3593 1 14.7818 -9.55996 -14.4923 -3.52619 2.42469 0.342101
3606 1 3.46758 8.40001 -12.995 -1.49529 1.78804 2.87949
3610 1 14.3267 10.0007 -23.6139 2.25304 3.32622 1.85019
3617 1 15.5593 -0.394105 -19.2192 -5.04571 2.62042 -3.05776
3618 1 0.545154 -8.32108 -8.35089 -0.0928147 2.72286 -2.0713
3630 1 5.07311 -12.2487 -0.988468 -0.359552 2.86169 0.527088
3633 1 10.039 7.83007 -4.41544 2.0443 -2.5405 5.72881
3635 1 0.253674 -15.5005 -19.9161 -6.84246 -1.62694 -2.51949
3636 1 3.48992 -17.8343 -12.3516 -1.62803 0.189645 3.0036
3640 1 18.3886 -17.2637 -10.7139 -4.04105 0.143283 -6.27906
3646 1 17.7008 2.51048 -16.7809 -2.24843 -4.40507 -3.21798
3648 1 23.4089 -20.7548 -1.90061 0.410932 0.615603 -5.23632
3650 1 8.6698 -8.37932 -16.6005 -1.63102 -1.20365 -4.63266
3659 1 19.8632 5.7339 -19.7802 0.227821 -2.72499 -0.0451171
2964 1 -0.0847042 -19.4882 -21.4488 -0.418462 0.294293 -0.113434
3884 1 13.1477 -19.7148 -6.60086 -0.607182 -8.46635 0.359719
3665 1 10.5182 -10.3402 -18.1882 1.7545 -3.40578 2.49552
3957 1 18.4548 -22.0647 -18.861 5.49935 -4.25585 1.17663
3670 1 14.192 6.01821 -9.76423 0.838612 2.02049 2.34488
3679 1 10.6519 -18.6906 -5.98314 2.71697 6.73625 1.37756
3982 1 7.83369 -3.76652 -4.01845 0.415031 1.36635 1.40105
3692 1 6.78261 0.815795 -18.4432 2.22866 0.712509 -0.500587
3696 1 7.70286 0.673985 -15.496 2.25972 0.948077 -4.15819
3707 1 18.4454 6.99646 -15.6846 4.57672 -5.29372 -6.17089
3716 1 6.92024 4.08803 -0.483785 0.0763311 -0.388013 2.26496
3723 1 7.87521 4.52286 -16.4578 3.35311 2.69446 -0.0442175
3727 1 6.52469 -11.9072 -22.0027 -1.52723 2.34888 -0.571238
3731 1 3.44904 -17.6935 -20.5706 2.88403 2.34984 -0.0982309
3733 1 4.24449 -15.0223 -0.787355 -2.14397 -1.17502 -1.77737
3740 1 6.28598 -1.29876 -20.4712 1.67734 -2.91299 2.80846
3746 1 6.47186 -20.4283 -5.44648 2.15632 1.29683 -4.02792
3753 1 5.6574 -4.55324 -22.6678 -0.0891545 -2.62776 -2.17562
3755 1 17.5894 6.94663 -8.97851 3.16641 -1.1787 4.9949
3758 1 21.9205 -7.6728 -15.0501 -0.983973 -3.90499 4.27888
3761 1 18.935 -10.9393 -17.5474 5.66921 1.01724 1.56763
3772 1 15.3523 -13.9544 -2.53087 -1.42354 -10.3676 -0.600608
3775 1 3.35127 -2.51704 -10.8767 -2.59279 4.63397 1.90199
3777 1 11.1596 -6.97813 -0.976799 0.476696 -2.64756 1.13973
3782 1 -0.349457 -13.4293 -17.9385 -0.573743 -2.20602 0.338825
3790 1 4.27132 -19.2512 -1.39101 -0.284266 2.40402 -1.78609
3798 1 4.87615 2.32323 -1.61956 -1.44727 2.21305 -2.07461
3800 1 14.1155 2.13589 -2.2158 -0.298098 -4.73057 -1.82854
3802 1 7.33573 0.622426 -22.5706 1.05626 -2.50912 3.35399
3806 1 0.141348 1.67762 -3.94241 -0.736965 1.06976 -3.74692
3808 1 9.91337 -13.1338 -23.129 -5.29551 -2.61882 0.826668
3809 1 3.6796 -21.3163 -19.1438 5.5053 4.39515 4.13753
3112 1 -0.152688 -13.235 -21.632 -2.99258 4.24313 0.330892
3817 1 8.25612 8.38616 -1.34252 0.101894 1.72297 -1.90107
3830 1 15.4008 -11.7928 -12.8635 1.98663 3.01846 0.394024
3833 1 19.9753 -0.516591 -11.0263 -0.814643 1.12883 -1.84971
3835 1 21.4666 -23.9964 -2.63135 3.95945 -3.03215 -1.2102
3856 1 14.1969 -18.2813 -4.05885 -4.2038 0.486409 0.782766
3860 1 13.8181 -15.6117 -14.9569 -5.47468 1.00482 1.34621
3868 1 6.05862 6.49327 -1.99328 -0.43389 -0.476461 -3.98632
3870 1 14.511 -20.1181 -9.77781 -0.509491 -2.11605 -0.259117
3872 1 21.7128 -22.5115 -7.93542 2.33536 0.719072 -0.206039
3295 1 5.90345 -24.5151 -0.335272 8.72261 -1.98307 -3.39959
2434 1 -0.298952 -21.9829 -2.65287 0.0489755 7.49479 -4.52591
1651 1 14.9281 -18.2903 0.030643 0.964249 -2.549 0.935042
3322 1 13.3126 -11.3259 -24.3166 -1.60583 3.18815 -1.87757
1076 1 22.2395 5.16993 -23.324 0.727561 -4.14648 -1.42698
2415 1 22.369 -23.5464 -23.4368 6.2877 3.11761 -3.15029
834 1 0.72126 10.1765 -0.141349 4.48647 -2.27621 3.05267
3248 1 8.03708 0.722933 -0.0818079 -4.3457 4.41186 1.59113
3813 1 16.8903 5.23187 -0.303166 2.07364 0.816155 0.865462
1438 1 -0.283107 -0.784887 -14.7665 5.72069 0.271943 -4.45955
633 1 8.35065 9.55151 -24.1363 0.973716 1.93439 -1.25906
403 1 14.9241 -0.591924 -23.9702 -3.33972 -4.39289 4.30011
2364 1 2.36226 -2.60879 -0.169365 1.35672 1.45063 0.653272
3504 1 16.9396 -1.11055 0.00295495 -2.09649 0.36227 5.01614
1418 1 16.4411 -6.9837 0.0407443 5.44933 -4.66029 3.77114
2884 1 8.47313 -6.75304 -24.2474 -1.87037 -3.17532 -0.590523
1 1 22.4408 -21.5329 11.9697 -0.499613 -1.48797 -3.60698
3682 1 22.9442 -21.4964 17.353 6.01443 2.73238 -5.4925
10 1 -0.0454151 -7.80261 14.9866 2.10614 4.42413 1.76774
11 1 4.82876 -11.2036 17.072 -1.38952 -0.822132 -0.788709
17 1 16.2188 -9.17778 16.8077 -0.474491 4.27996 -3.15229
20 1 20.6331 3.14502 20.6995 0.997727 -2.72551 -1.93616
35 1 19.9356 5.46857 12.6867 0.733649 -7.37715 2.52989
1267 1 22.938 -15.5114 3.73325 -2.54798 5.12009 -1.29948
50 1 15.1514 -20.1712 12.203 -3.76761 -0.961168 -0.152029
65 1 18.8586 -2.35822 8.526 -2.22986 -0.748339 3.81663
82 1 5.41056 -24.3941 4.28669 4.52063 1.38456 0.932673
86 1 12.9724 6.77715 14.2485 1.98399 -0.952333 1.49309
90 1 8.50185 -4.81238 5.90409 -5.02019 2.79594 1.43725
102 1 4.80403 3.15158 4.8558 4.12009 1.8195 1.67725
106 1 15.8579 2.85324 8.26135 2.42694 -0.272338 3.73179
107 1 20.5547 -1.89357 18.7842 -5.30026 0.807497 -4.07407
115 1 8.11032 10.9145 5.13072 1.94067 0.403552 4.24151
120 1 2.78067 -1.28626 19.0904 1.39645 -1.57655 2.0745
38 1 20.7581 11.0094 8.53304 3.17496 -3.0471 0.680556
127 1 9.87437 -0.218364 14.1361 -1.61117 -4.08668 -5.67994
129 1 16.1754 -10.8176 3.69646 -3.00499 -1.30903 3.24013
140 1 2.62508 -5.6487 19.7496 -3.49644 0.0939243 -1.44629
141 1 11.6425 -17.6498 3.48049 -2.06461 -2.87641 -1.76156
142 1 13.5409 2.50001 23.0372 -1.25821 3.1934 2.21106
145 1 17.3347 6.59938 20.2842 0.770773 -1.33251 3.4584
150 1 20.6303 9.48648 19.6877 0.389149 0.0177623 1.28247
151 1 19.6609 1.5868 23.0492 1.64742 1.02595 -6.06611
156 1 15.6317 10.1651 19.2135 0.862554 -2.20278 -2.9488
158 1 9.75196 6.92984 3.28343 1.26651 2.5923 -1.96249
163 1 2.08832 0.648714 17.1904 2.43709 1.14765 0.903413
164 1 19.5957 8.31853 13.0284 -2.85474 -0.914595 2.42673
193 1 8.63211 1.14663 4.10746 -3.58846 -1.07906 1.74311
205 1 19.8179 -5.87375 11.0032 1.2601 -0.480803 2.4986
208 1 2.59269 -5.86065 16.6716 -0.538636 -0.391904 -0.533737
211 1 17.0592 -0.709499 6.80234 1.12467 0.322912 4.57492
236 1 16.5706 -9.00785 8.00375 -5.8863 1.387 -0.653383
238 1 17.1646 -2.7013 23.9435 3.38375 -5.32347 -2.58814
240 1 11.4196 1.38707 16.3488 -0.836435 0.205152 1.3922
246 1 10.0529 3.14075 22.4446 1.68297 -2.29386 0.479256
2384 1 7.75039 -12.2598 24.0276 2.91234 2.84767 3.16625
264 1 23.4188 3.51674 17.5523 -2.51491 1.60114 4.66691
272 1 11.7909 -17.6783 12.2133 0.0649116 1.73931 1.29651
274 1 11.8192 -12.7696 8.2244 0.934096 -0.134782 0.13807
278 1 19.1738 9.40287 16.9562 0.3604 1.61062 2.00261
282 1 12.4061 10.1594 11.8693 0.331547 2.78017 4.66396
292 1 15.4083 8.08891 2.79736 -3.04764 0.85041 -0.297531
293 1 14.0789 4.13345 13.3716 3.43036 2.53135 -2.90231
1823 1 6.4214 -25.0378 9.51801 -0.370263 -4.71413 -1.0611
300 1 14.1171 -3.75542 17.2181 -3.01794 0.847787 4.41828
305 1 4.03308 -19.9262 21.6018 -1.89302 2.08073 -7.16668
309 1 5.53202 -19.351 18.5142 -1.66973 -1.20676 -0.0785161
311 1 13.1384 -10.5205 1.2576 0.0334547 4.72833 -0.274659
316 1 22.9965 -5.84543 3.375 5.94843 0.778298 1.67687
318 1 20.2703 -17.9077 20.5049 -1.66537 -1.84393 -2.35679
324 1 23.148 3.29501 6.38244 -1.48695 5.06926 -4.99536
331 1 12.5903 7.18641 3.47407 -2.55478 -0.466798 0.298141
335 1 22.215 -22.8792 4.98576 -0.633019 -3.31893 1.42916
338 1 5.52642 -8.48904 18.0578 2.99163 -2.60402 2.11858
346 1 15.9814 1.65148 5.7141 -4.11353 -2.19817 -0.557778
347 1 20.2533 -6.21098 8.02614 -0.0488597 -6.1307 -0.362048
352 1 15.4062 0.796069 1.7417 -5.32222 1.07424 4.98479
358 1 19.096 -12.5268 13.745 -0.957707 5.02448 0.0814103
368 1 3.57398 -6.41688 11.1431 1.49713 -0.525652 2.13624
377 1 15.0777 -0.413721 12.6313 0.0564153 2.25948 1.82775
383 1 10.8791 -24.5095 8.18484 0.284144 4.73492 -1.95891
387 1 4.96876 -20.5235 1.20965 -2.73977 -1.57167 3.67538
390 1 12.5907 7.66223 8.05234 -4.16288 -0.595714 4.33856
391 1 16.7719 2.26827 20.3376 1.23909 -0.813021 3.78525
392 1 18.5919 -10.3676 18.1533 -0.227434 0.429329 1.79316
396 1 10.62 -19.6715 0.373171 -8.4679 -1.28972 -0.941205
397 1 2.89263 -20.6526 18.8632 -0.517072 -3.82492 -0.914126
1075 1 -0.0276348 10.7006 14.7289 3.16019 -0.550305 3.0085
407 1 1.76661 -10.7 16.356 1.49422 -2.24017 -2.64528
416 1 21.573 0.822848 12.0518 -2.13842 1.04065 -1.59412
432 1 8.18797 -5.14245 12.6213 -4.13526 -2.15524 5.52241
442 1 5.79937 3.05713 15.6772 4.09103 -1.78794 -2.74536
450 1 15.5858 -20.5143 6.06045 -3.90733 2.97184 2.53236
455 1 13.4206 -11.8376 14.4979 0.970037 -4.24275 -2.29497
1225 1 -0.306639 -20.0208 21.8737 -3.62653 3.04284 0.628167
1511 1 23.6613 -6.25909 16.0991 5.22674 -1.50989 -1.67533
479 1 15.4036 -16.7304 13.5604 -3.52439 4.26851 0.555106
480 1 1.06891 -9.61652 8.88018 -3.49571 -2.71415 0.976375
488 1 0.722704 -14.9893 21.4296 -1.86432 -4.09402 0.177733
494 1 7.36014 3.06973 5.72317 -0.55359 -2.54719 -2.62116
502 1 11.6148 -13.1542 17.9608 -4.4673 5.59841 0.0338866
510 1 7.36531 -17.667 16.9399 -3.39492 -10.1788 -1.01373
511 1 8.36967 -14.9049 4.3626 5.12447 -4.75296 -0.0234515
512 1 0.676675 -3.41715 19.2932 2.58573 -1.20479 -1.19297
2908 1 1.09391 10.9251 17.3928 0.388418 -2.50988 0.522406
522 1 2.73431 -16.5299 6.09234 -1.49357 1.90572 1.41032
531 1 21.795 -8.65526 12.637 1.76764 -4.75098 -0.785468
535 1 5.06107 10.9254 9.7754 3.97093 -2.8118 0.625707
536 1 0.276108 -8.09043 4.47682 2.91092 0.431438 2.90845
537 1 8.6389 -4.99867 3.0915 -1.46561 0.521606 0.124305
545 1 22.5219 -16.6998 14.081 -1.38858 5.23872 1.45898
548 1 9.86252 1.62815 19.8103 -3.31599 2.04962 5.39255
561 1 6.45738 -23.7718 19.2481 -8.61615 -1.81915 0.11686
563 1 5.52206 -19.7356 6.36419 6.6094 -1.26285 -3.34229
565 1 14.6677 -21.1188 21.7733 3.69303 -2.2922 -2.27905
568 1 4.9563 -6.37297 6.64059 -1.61246 3.26746 1.84206
3484 1 3.34278 10.9671 7.58466 2.20218 2.14889 -3.43098
572 1 10.2675 -23.5485 3.26206 -1.22015 -2.29776 -5.98223
573 1 17.7661 -5.48034 4.97827 -4.5155 -3.19413 4.03505
576 1 20.4723 0.983384 19.0011 -3.12928 2.40671 1.13909
591 1 18.9399 -18.9515 12.2967 -1.28653 4.49475 -2.86291
598 1 15.2477 -14.3007 4.8158 -4.13226 0.358104 4.29977
599 1 10.1789 -14.6864 13.482 -5.16439 -6.93374 1.66045
601 1 0.872948 -2.67592 22.1317 -1.67822 0.635039 -2.17675
609 1 9.65274 -19.8862 20.5427 -4.18744 -1.44531 1.92258
610 1 16.4662 -3.97519 15.357 -0.515621 1.00713 4.20004
615 1 12.0121 -2.65577 19.2405 0.0463772 -6.55535 -1.13784
616 1 17.3653 -2.35274 21.1072 3.99925 -1.36154 -7.03919
618 1 14.0632 6.44303 10.0149 3.45924 -2.07528 4.55412
619 1 16.067 1.76453 11.0568 -1.87916 2.90102 -1.20182
623 1 21.8483 -13.5137 5.42038 3.80635 2.41909 4.54569
640 1 1.8216 -1.04012 4.29705 0.601364 -1.26591 -0.20106
643 1 9.62819 -18.8965 7.98932 3.83805 1.71148 -3.75954
649 1 11.1218 -16.0722 17.7555 -1.00479 -4.78239 3.97479
659 1 7.7182 -0.142431 20.7369 -7.65028 2.38058 0.426035
660 1 8.59182 4.15218 8.05571 -4.41529 0.78177 -0.421127
662 1 2.84428 -5.74423 8.62278 0.673863 2.73709 -3.37468
669 1 7.62505 -14.9737 15.0072 -1.21211 5.99458 1.77074
676 1 7.17279 1.84961 17.7509 1.43704 -2.35356 -4.83848
685 1 20.8387 0.13406 7.98364 -5.57851 1.99696 -3.67736
691 1 0.00285787 7.09257 14.5053 0.412975 -1.25759 -1.49151
694 1 8.92089 -18.4808 2.40451 4.04654 -2.47777 -1.18381
701 1 18.0377 0.300767 9.58226 4.30844 5.41456 1.84136
706 1 5.89923 3.28457 20.3097 -0.329636 -3.04975 -0.267745
712 1 4.7793 -9.51821 14.4048 2.40617 1.09132 1.40885
713 1 2.94399 4.71089 1.9079 -5.58099 -5.10405 -1.37723
719 1 13.9383 -8.05072 10.8323 4.59384 -2.88497 -1.74982
735 1 16.7448 8.72585 7.15226 -0.00498864 2.27899 -2.42923
737 1 20.6151 -16.247 5.53116 2.97404 2.11348 -1.10537
747 1 10.6407 -11.0723 2.80002 -1.34763 1.51538 0.689253
752 1 21.1813 -20.3674 5.85173 1.85192 2.53913 -5.9037
760 1 1.72755 5.08112 13.3462 -0.635756 -0.512451 -3.94994
763 1 16.7203 5.75347 8.92244 -1.09629 -4.87345 1.28462
764 1 20.3972 4.34379 7.15999 -3.63986 -0.904599 -2.94412
2276 1 0.279848 10.7159 4.32798 -3.03086 1.77675 1.28323
771 1 9.05424 -16.5805 11.4677 1.00757 -1.9355 -0.591854
772 1 5.61659 7.68373 5.88002 -3.77147 -0.72339 -3.11757
773 1 10.8857 -21.1067 11.7659 1.3131 4.16759 3.28882
1854 1 3.70377 -24.9228 11.0021 -4.01739 5.60716 2.28968
783 1 5.66661 -15.7809 22.4646 -0.518721 -1.25741 0.618305
790 1 4.0322 0.81446 14.9683 1.49063 -3.57635 -1.67894
793 1 22.9626 -9.82176 0.618884 3.79312 4.35556 -4.72726
795 1 19.6358 -7.13375 21.636 1.07089 -1.64299 -1.11469
816 1 18.9267 -20.5643 20.1295 2.50366 0.0732793 -0.392658
817 1 7.56392 -11.2352 16.5522 -0.428761 1.38616 2.13766
822 1 21.2681 -15.3594 16.6968 2.57028 -1.43898 0.481795
823 1 6.49913 -11.1813 3.0573 -0.0636715 2.98747 3.43851
1627 1 17.7123 -6.55932 24.2122 -2.16902 -2.74554 2.73354
836 1 5.56904 -12.8603 22.396 3.21103 -0.66032 4.93073
838 1 22.2979 -19.5082 3.12892 -2.98591 0.963402 -0.622916
840 1 3.07564 -17.117 13.0526 2.04628 -2.40287 0.160495
841 1 20.0939 2.55938 9.22222 -2.00408 -0.000716528 -4.51831
843 1 18.5712 -5.38111 18.26 -2.64452 -2.81752 -2.27527
858 1 16.8113 -12.8415 15.5017 0.92761 -1.02131 -2.07
863 1 17.7822 -15.8925 5.78561 -1.50737 -4.37408 -0.192729
1716 1 15.8555 -23.9876 23.618 4.94454 0.321324 4.54332
866 1 14.4461 -2.5645 21.2393 0.346273 3.72227 -4.57593
874 1 11.5097 1.00865 0.577323 6.44805 -2.42632 1.50039
877 1 0.731577 -18.6415 18.2923 -3.76604 -1.05479 -3.49366
887 1 9.11805 -23.482 18.1915 -1.94572 0.409003 5.79095
890 1 12.6384 -20.2523 13.7073 1.60719 2.10424 -2.72204
893 1 20.8032 -4.96152 1.55168 2.06245 -5.97593 0.201964
895 1 1.48209 -23.3778 5.82537 1.94358 -2.40284 0.265181
896 1 10.0099 -3.40267 21.2643 1.87243 2.71307 0.0434794
899 1 14.5564 -17.896 17.8382 -1.2849 0.386247 1.60318
901 1 2.85457 -19.3576 9.44455 -5.17345 3.83446 4.45739
2065 1 13.2536 -19.1187 23.6892 -0.428444 3.92139 3.42657
909 1 15.695 -22.4249 10.3499 -1.65746 3.10385 2.17864
923 1 2.60434 -10.87 0.663851 1.52552 -2.14051 0.0547682
926 1 1.48285 -15.4484 8.45725 -5.18382 -2.42443 0.515284
928 1 7.60916 -18.6155 10.2072 1.66567 -1.55878 -1.31261
938 1 18.7899 9.1675 4.87952 -2.08054 -4.2482 0.569287
943 1 17.9316 -4.88879 1.20522 1.06646 -4.2465 -3.50396
945 1 4.20071 -23.1065 17.4691 -3.51712 1.53795 -0.779955
953 1 16.8302 -2.60511 2.56107 3.22397 -1.93472 -1.25528
969 1 15.4224 -23.0425 2.70089 2.33835 -8.6735 -0.282477
971 1 14.6776 -5.32898 21.5925 -5.30382 6.43936 -2.42294
977 1 3.09397 -22.6893 12.7634 1.65164 3.01669 -2.74969
990 1 12.8352 -7.4742 13.324 4.99188 -1.95126 1.31807
994 1 23.4129 -15.8305 18.5947 -0.0607121 1.8536 5.75672
1003 1 11.6673 -14.2883 10.8246 -3.73621 -4.82973 -4.86659
1007 1 12.4812 0.318974 19.2552 -0.617109 0.407624 3.77881
1008 1 5.51369 -2.0425 15.2598 -0.986074 3.70333 -0.625644
1009 1 9.36238 -17.4762 5.36086 0.807742 -0.307515 4.17739
1013 1 4.40941 -17.81 2.84117 1.07582 4.09872 -0.664275
1023 1 10.0871 -1.34573 5.53298 2.47187 0.483362 2.88497
1032 1 12.0035 6.93966 18.7661 -0.0892231 1.46944 3.08063
1036 1 2.84481 -12.76 19.9327 -4.30588 -4.14426 -1.53775
1042 1 11.2441 -6.53118 23.5447 -3.48511 -1.45691 -5.14767
1186 1 7.24524 -7.7243 0.52703 -4.37047 1.20651 -0.85045
1051 1 2.0462 -1.21143 9.18572 2.09107 -4.36146 0.91386
1064 1 14.7065 -17.0725 5.61151 -1.58508 1.85087 -3.81319
1078 1 9.80333 -7.40817 13.4896 -0.000589474 5.39202 -2.66277
1081 1 7.83925 -8.40422 16.3992 4.87178 -0.946587 -4.98412
1093 1 23.0902 7.27992 4.93385 2.33643 1.36887 1.9994
1099 1 15.8704 10.2411 16.173 2.49329 -6.19059 -3.19336
1100 1 9.20062 -8.47417 18.8626 5.07196 2.89485 -0.16814
1101 1 6.74082 -14.7595 12.4774 3.85805 2.61508 0.993236
1102 1 13.9963 -14.1017 16.4623 2.1026 2.15152 0.940853
1103 1 22.9496 7.91053 16.2464 -2.2552 1.1008 -0.823827
1107 1 2.48755 -13.7568 1.219 -0.183613 -1.28051 -3.74205
1111 1 12.4782 -8.92226 7.0268 -5.74031 4.11638 4.95354
1119 1 7.20182 -10.2122 5.82802 1.37649 3.77416 4.25904
1132 1 21.3173 -5.61906 19.5227 0.447241 -2.79128 -0.943528
1134 1 13.4327 -19.7044 19.5367 -1.08076 3.24865 -5.03702
765 1 23.8665 10.9345 7.9249 4.79244 -3.56706 1.89037
1137 1 5.76659 4.07153 2.04201 -1.47631 -4.56977 -3.19894
1149 1 1.43837 -15.2949 11.2847 3.73333 -1.81508 3.10698
1151 1 22.7655 -23.1486 20.2741 -1.58751 5.16385 -2.50043
1155 1 4.75445 -19.0089 15.8033 -4.27266 4.08887 2.41608
1159 1 18.7758 -4.78868 13.9163 9.6481 -3.94954 -2.32256
1162 1 9.23473 9.61687 3.03135 1.68319 1.61746 -2.39424
1169 1 13.7026 -7.99199 17.8453 -1.00547 0.508194 -1.06147
1173 1 7.02925 -20.9766 20.0192 1.67525 0.00937216 0.719195
1182 1 17.8242 7.9156 0.91645 -3.12841 3.78677 1.80402
1185 1 15.548 7.54133 23.5714 2.65248 1.773 3.13936
2192 1 0.821931 1.99606 24.0903 -1.54851 1.06588 1.63399
1811 1 0.0867945 4.21192 20.5822 0.283592 -3.37878 0.399061
1193 1 9.31733 -2.60541 15.5851 1.53636 5.57318 3.69087
1198 1 19.6348 -21.4507 11.2047 -2.82518 2.92584 -4.11754
1200 1 12.0711 -10.504 9.84588 -9.23772 3.81176 -1.73099
1201 1 22.4638 -18.7391 18.7055 3.60026 2.59579 0.112283
1208 1 22.7548 -7.53504 7.81509 -0.749768 -3.16339 5.87599
3375 1 20.6884 -11.5162 0.232209 -1.72636 0.130451 -2.92998
3996 1 4.32434 -15.0249 3.08166 0.68014 1.33383 2.3551
1217 1 15.8308 -14.9143 2.11924 -2.39096 3.63787 -5.53359
1219 1 14.306 10.939 9.84939 -3.38871 -4.01189 -5.3634
1224 1 15.91 -7.5584 13.2476 -1.88268 6.59324 -3.11444
2868 1 2.40413 -23.2602 20.3196 -2.72752 -1.53276 1.5316
850 1 15.8316 -19.9589 24.4313 3.05988 -6.80244 4.81376
1248 1 8.01066 5.23429 20.6319 2.82943 -3.9677 0.191514
1250 1 7.20578 2.32479 22.7333 0.766534 5.9887 3.16878
1251 1 22.0499 -0.135636 22.688 -5.42603 7.00477 -2.35401
1252 1 19.293 -19.0429 0.854983 1.87898 -3.18515 -0.933714
1259 1 18.5625 -10.9681 7.50564 -3.54962 4.53705 1.28446
1266 1 14.1603 -8.77632 3.34612 0.188552 -4.09128 -0.841554
2943 1 23.5638 6.74937 9.6593 -1.40535 1.47139 3.2614
1269 1 9.49463 -5.50615 19.6293 3.43998 0.510497 0.487894
1271 1 -0.024968 4.61419 17.3757 -1.87452 -1.35924 -0.106921
1273 1 21.0535 5.23484 22.5715 -4.09127 3.36724 0.795165
1275 1 2.74914 4.07575 8.76629 0.673925 -7.20465 -3.10975
1281 1 13.8378 -9.02604 20.5484 -5.12388 -0.382253 -1.86738
1284 1 6.76662 -13.951 1.90251 0.557623 1.73295 -5.2185
1287 1 9.12954 -17.4956 18.9735 0.721927 1.54303 -1.90185
1290 1 1.12549 6.73128 6.72447 1.44113 5.35996 0.733999
1323 1 13.4905 -12.3116 11.7364 -0.260996 1.16653 -0.296223
1332 1 11.3069 -21.7897 21.9505 -2.22314 4.97603 -0.902847
1333 1 0.895878 9.50009 7.11892 -0.603944 -5.57486 -2.86785
1337 1 8.01947 -21.14 7.10044 1.48892 -0.994702 0.0426999
1339 1 1.64435 -17.8838 21.2088 -2.95316 3.18235 -0.243077
1341 1 4.11995 9.33992 13.3974 -3.58365 1.8906 -2.01903
1344 1 18.5236 -9.01882 3.18801 -1.58022 0.123392 1.57804
1349 1 1.57873 -12.5724 8.66986 -2.70183 -2.53176 3.87885
1351 1 16.0974 -15.4658 17.9784 0.265067 -0.852942 -0.645217
1360 1 18.0358 -13.932 7.8345 0.464906 -4.3496 -6.16491
1366 1 20.5216 -14.238 1.04098 -0.368195 2.02205 -2.6854
1370 1 2.73827 -12.994 22.7251 2.4991 -4.4731 7.27823
1375 1 16.444 -6.96786 3.03207 -0.942674 -0.548083 -1.20267
1378 1 8.71488 -9.86656 1.22237 2.41615 0.174001 2.34916
1382 1 15.9432 -12.8423 9.1235 0.353612 -2.97057 1.38884
1388 1 15.8312 -1.96548 18.7125 4.29619 -0.368305 0.518036
1390 1 7.10297 -1.87316 11.2844 -1.96698 -6.13741 0.375289
1392 1 22.5407 3.17641 3.46208 -1.84947 2.55755 -0.0572619
1661 1 23.2871 0.706155 16.9194 -1.32301 0.27081 -5.65212
1401 1 22.1247 -21.9995 22.8343 1.93887 -4.43247 -0.217734
1403 1 14.6503 -22.2844 16.8532 2.71361 4.25266 0.194521
1404 1 19.6948 -10.651 10.2376 1.44985 3.8591 -5.62035
1417 1 11.0045 5.0199 12.4597 -1.71451 5.67504 -1.01562
2861 1 13.5221 11.2936 22.6787 1.86357 5.5382 -0.763832
1426 1 7.64003 -21.0536 2.4218 1.90986 -0.420318 -6.45384
1443 1 17.5854 -13.0995 18.4155 -2.2839 -0.0182986 2.07982
1445 1 12.1041 -19.4393 9.60409 0.197506 2.54093 -1.84458
1449 1 10.6259 -3.11654 0.614047 -3.45949 6.59445 1.59621
1463 1 6.87892 -0.0835758 13.4696 3.16654 5.13572 -0.788944
1464 1 2.86248 -19.3731 4.69848 4.20598 -2.4561 5.04248
1472 1 22.3277 5.1904 15.4807 2.62314 2.85795 4.26373
1478 1 0.670981 3.33427 3.05995 1.98757 0.0636371 -3.10055
1479 1 9.56195 -8.87393 6.91172 2.48694 -1.27378 -0.618688
1485 1 8.63466 -9.42625 23.0342 -1.72945 -2.47656 2.70142
1499 1 17.6126 3.56258 22.8851 -0.902351 0.325824 -2.83927
3964 1 9.08459 10.9504 16.7628 -2.9344 1.81786 -1.55858
1524 1 0.266543 -18.2666 5.96965 -6.82681 -1.255 1.22336
1531 1 5.94923 -9.14426 10.2446 1.75672 5.83959 -4.03597
1535 1 2.64318 -7.41874 13.9405 1.06036 -3.58548 1.89178
1543 1 3.06106 -1.50568 13.5439 3.87135 0.888054 -2.31056
1566 1 3.00808 -8.27959 7.2385 4.48592 0.636282 2.56055
1574 1 19.7257 -18.1866 3.41419 2.01866 -0.528251 0.984885
1577 1 15.189 -23.9235 5.55639 1.42327 -6.17594 -0.579845
1592 1 17.4132 7.98234 15.0362 -0.73095 -1.37135 -1.23905
1597 1 17.6933 -22.6341 6.27787 4.56691 -1.36595 -3.91087
1608 1 23.9271 4.02385 8.99159 0.33322 -4.07498 -0.230104
3264 1 10.7228 8.1584 24.3388 3.27181 -1.24423 0.591322
1626 1 15.2406 0.727062 18.0659 -0.240306 0.737372 4.47226
1628 1 18.3322 3.36441 1.50758 -2.8284 -6.6394 3.55114
1630 1 11.2045 -7.64195 20.8275 -4.12162 -3.86888 -2.73554
1636 1 17.9107 -10.1683 12.5766 -2.01664 -2.32205 3.0255
1641 1 19.5977 -12.8018 20.7901 2.54181 4.05205 -5.05657
1653 1 12.6332 -22.7059 4.32636 0.374115 -6.38672 -2.05289
1654 1 5.32853 -16.7168 10.7477 2.05003 -0.312606 -1.30263
1672 1 4.14461 10.9714 22.8195 -1.21407 -2.35176 -0.602563
1673 1 1.63386 -18.238 2.1554 -4.56558 -3.52907 1.55738
1675 1 2.02803 8.89436 15.3642 0.907723 -0.736433 -2.94939
1677 1 22.8029 -18.613 11.9145 4.64227 3.57515 2.7352
1682 1 7.20528 9.5721 1.221 3.34046 -1.56434 0.622087
1686 1 11.5156 -10.2955 22.1265 3.60931 -4.5 -4.78833
1693 1 22.5337 7.78555 22.6287 -4.05939 -2.30162 1.4461
1696 1 11.786 -2.17661 3.34583 0.00726489 5.53477 -2.16321
1699 1 13.6235 1.27202 14.709 -2.33814 0.933869 4.55943
1702 1 0.984268 -20.8561 12.7586 -1.74505 0.717751 -4.72898
1719 1 21.4504 7.53434 1.01124 -2.58548 0.27477 1.20062
1721 1 5.14243 1.22815 10.757 3.13562 -4.88596 -4.97243
1722 1 19.1283 -22.763 16.3726 -2.4972 -0.809782 0.182108
1732 1 14.1099 -12.6046 6.869 1.09133 2.36138 -3.0608
1736 1 18.0818 3.97836 10.7502 -1.73123 -2.61208 3.84896
1742 1 0.00255882 -6.28797 20.8689 -5.14507 -3.82363 -0.251939
1743 1 20.0159 -14.7348 9.46433 3.99958 -2.42926 3.49646
1749 1 21.2907 9.85899 15.047 -3.31055 -4.79619 -2.32346
1751 1 1.9223 -10.3768 13.4177 -1.89654 -2.76343 -2.65017
1758 1 20.4295 -23.5573 7.23208 1.00363 -7.87606 3.09367
1759 1 23.0883 10.6942 10.7379 3.33434 0.708998 0.585974
1768 1 12.5168 -3.60437 8.04003 2.58933 -1.99816 -0.0570265
1772 1 12.3519 -21.6935 1.55805 1.92401 -3.74991 -1.33118
1774 1 17.3717 -17.6479 22.9409 -1.60363 2.31176 -3.11553
1928 1 22.7864 -2.84748 4.29002 4.14219 -3.50629 3.21403
1806 1 11.683 -4.16359 15.533 -0.357738 -2.60477 1.83873
1808 1 21.0816 -11.6456 18.488 -0.847297 -4.39252 -3.68162
986 1 -0.370249 4.55382 11.3524 -3.03192 -4.39926 -6.38017
1815 1 12.4082 -4.06306 22.7562 0.919817 0.0652078 -1.59789
3192 1 23.0859 10.1446 0.266212 0.789373 -6.29291 2.96844
1826 1 19.9834 9.47694 2.31469 -0.704219 2.24051 -1.08783
1837 1 14.184 -21.0937 8.47695 -0.659049 -6.50672 -1.40336
1842 1 14.7267 -20.2795 2.16374 1.30913 2.73151 1.34027
1846 1 11.0803 -20.9834 6.26344 3.42803 1.87452 -0.477656
1847 1 19.4767 -15.4013 18.8865 -2.03859 2.14453 4.11726
1853 1 3.33801 -12.2573 6.65819 0.106729 1.70694 7.30669
419 1 23.4078 3.66969 23.2526 -1.91026 7.04977 -5.93989
2696 1 21.946 -17.7609 23.0842 -0.591817 0.924239 3.74632
1860 1 7.23102 -0.927282 8.62191 2.9482 1.04191 -0.476369
1871 1 17.7301 -12.6329 5.23266 -0.39777 -0.19871 1.84574
1881 1 10.3277 4.4247 19.2634 1.45308 -0.213278 -2.1905
1887 1 17.7739 -6.72332 15.8304 -3.59972 0.0896785 -4.80698
1893 1 4.62653 0.498455 21.0504 -4.52578 1.29485 0.34377
1909 1 10.1749 -9.93946 11.994 0.0967024 -1.86367 4.72276
1914 1 20.2627 6.56546 5.3479 1.29048 -2.17205 -3.7327
1920 1 22.9045 -15.6561 0.849409 -4.00036 -1.46015 0.132239
1925 1 20.0574 -24.0204 18.6711 -2.46646 -4.46593 2.02798
2385 1 -0.342786 7.23224 2.7353 -4.39912 0.40215 2.28837
1935 1 18.4655 -15.5824 2.89818 -0.553807 1.49383 -1.14799
1936 1 18.0176 -22.1524 23.7006 -1.91087 1.13789 -0.558959
1937 1 2.09341 3.02294 18.5009 -0.778961 -3.05832 -0.253226
1938 1 2.20457 6.62345 17.3237 3.36944 0.856711 5.13309
3443 1 22.6639 3.39418 0.219257 -3.45981 5.19402 2.14782
1954 1 5.89963 6.88164 10.1639 -2.28805 -1.70674 3.78791
1958 1 13.8258 5.84273 16.7171 0.800356 0.0781399 -0.223266
1965 1 17.5194 -5.27556 21.0095 -1.49108 -5.85733 -2.285
1971 1 22.6841 -1.79274 7.06463 1.95701 2.9753 3.16559
1973 1 13.0448 -16.1401 19.7596 -1.37416 -0.969567 0.52792
1974 1 15.7211 -10.3242 10.6819 3.91034 2.4987 -1.47282
1977 1 15.792 -14.2387 11.6926 -0.777843 3.4663 3.60033
1978 1 5.76826 -3.51465 23.2099 1.16032 -5.6193 -0.949372
1986 1 13.8782 -5.84405 2.27186 -1.53346 -2.11251 0.468863
3962 1 2.0941 -14.0192 4.76317 3.13106 0.613964 2.65363
1995 1 1.92925 2.30424 13.3707 -3.00527 -1.61036 -3.86108
2005 1 4.0959 -3.46348 17.5872 -3.87037 -2.94139 1.82896
2012 1 16.8203 -19.5124 14.3919 5.67547 -3.2534 -1.89104
2017 1 12.2086 8.92422 22.0843 -2.08324 -1.05422 2.05455
2024 1 9.7269 9.24223 12.4465 1.85069 2.50514 3.1882
2450 1 6.93617 10.7124 22.2383 2.34283 -2.66186 2.00924
2035 1 14.68 -16.3899 23.4538 -4.7223 -2.23094 3.87089
2038 1 18.746 -0.0566598 12.4888 0.708149 4.90712 3.21542
2042 1 5.99957 -21.3765 22.7544 -2.75066 4.27905 0.111177
2043 1 18.6392 11.018 12.7043 -1.57567 1.72568 -5.17917
2044 1 2.62021 -7.07544 2.88051 -0.608085 -0.0369883 2.10714
2057 1 16.7997 -4.24529 7.48691 7.04846 -3.72719 5.20181
2059 1 3.44306 -8.35637 19.8298 0.758624 0.314497 -2.8141
2066 1 19.6885 6.10949 9.40542 1.32358 -0.0368404 -1.29383
2090 1 15.9187 7.54941 17.8211 2.4776 -4.49706 -4.72053
1188 1 2.82775 2.43413 0.0958111 0.230213 -2.65899 -1.01525
2099 1 14.8108 -10.1183 6.09895 -4.01703 -2.181 4.28826
2110 1 3.17594 9.24027 0.816289 1.42772 1.76645 -3.96048
2111 1 21.955 -10.4753 21.1588 -5.66697 2.55864 -1.8246
2504 1 9.41065 11.2494 10.0419 -3.19019 -1.4598 -0.77139
2116 1 19.9343 -3.77506 4.08062 1.30342 0.672736 4.41191
2120 1 16.2299 -17.8165 10.9837 -2.11752 -1.20881 -2.15821
2121 1 8.43495 -19.8853 23.4848 5.14818 0.864281 -0.275572
2135 1 17.3852 9.86362 23.9109 1.60947 6.03063 2.84577
2140 1 8.97679 -13.6456 17.1703 1.08261 1.92328 1.80995
2144 1 4.34256 -1.92708 5.17062 -0.451744 2.48541 -5.99431
2145 1 20.1319 9.7865 22.5697 2.79647 -3.78464 0.75795
2146 1 3.3095 9.27262 18.4828 -4.89456 3.09479 4.30803
2147 1 3.78301 5.02728 15.3519 4.45642 -0.602035 -0.54379
2148 1 11.4512 -21.851 19.0568 3.6636 -2.20684 -3.93494
2150 1 17.0817 -9.90697 0.677485 2.17275 3.29009 1.71932
2155 1 14.4033 3.88593 20.6955 1.65196 0.319326 2.64665
2159 1 4.34326 -20.8722 11.2053 2.52104 0.290529 -3.18881
2163 1 6.06981 -7.4537 12.6355 0.955306 3.84752 0.40927
2175 1 10.7603 -23.8369 11.0482 3.04225 0.461254 -7.31035
2176 1 9.34116 -19.0586 15.3876 -5.48515 -2.1298 -1.67757
2179 1 11.199 -4.05141 5.65645 1.21705 -1.49685 2.07387
2183 1 6.00435 -4.62527 10.7557 -5.11627 4.54187 -7.86651
2185 1 7.57544 7.50735 18.8179 0.119853 0.99284 1.13751
2187 1 14.9526 -5.26352 9.53279 -9.23064 -0.882028 4.43963
2191 1 13.2798 9.96603 3.76893 -2.14718 3.83563 -0.610225
469 1 23.714 -12.9406 12.2598 5.88039 -1.00937 -3.93111
2214 1 11.0598 9.60839 19.6926 -2.34186 -1.19559 1.0232
2217 1 11.8636 -12.7726 20.7562 -1.02565 3.25654 4.85171
2221 1 18.5191 4.27262 18.9435 -3.39082 1.72155 0.754361
2222 1 2.46463 6.7719 3.90535 -4.38789 1.19023 -2.80429
2226 1 18.9985 -0.883096 15.1865 -2.04987 5.08186 -0.0980741
2229 1 17.6731 5.05584 16.2532 -1.94047 -1.49997 -0.362418
2235 1 8.02277 -23.3977 11.3973 4.48676 -2.00861 -1.4422
2245 1 21.7399 -18.5411 9.30541 1.6191 2.26674 3.53507
2247 1 23.1699 -12.1609 9.57448 0.620281 1.19225 -2.51144
2250 1 0.673679 1.17059 7.54548 3.00877 2.16262 1.1106
2283 1 21.6056 -11.3582 7.2316 -0.856872 -0.074173 4.92124
2286 1 4.14208 -9.94032 2.7589 -2.18151 1.30901 5.99251
2290 1 16.0403 -7.84526 21.9686 -2.26461 -1.13403 0.457571
2293 1 2.32311 6.01904 10.773 6.23619 0.593336 -2.27556
2301 1 5.0481 -23.7683 21.7616 0.906416 1.29146 5.72511
2306 1 3.05839 -4.32343 22.3915 0.315175 -1.47874 -0.110367
2310 1 4.59473 -17.5089 7.99739 0.549527 -1.01928 -5.02315
2311 1 6.61141 1.43105 2.25824 -0.484847 2.29809 4.02828
2319 1 5.0241 -10.0614 7.62013 -1.06187 5.25824 -2.72902
2329 1 7.12908 5.61404 12.4208 3.42881 -6.40417 4.0068
2330 1 12.0294 -21.1821 16.3648 4.60976 -4.01987 -4.43768
2332 1 20.1539 -15.9148 12.3064 5.92484 0.855279 2.63257
2337 1 8.89891 6.0773 0.678645 6.52758 5.62474 -2.96314
2340 1 7.96915 8.85651 14.7627 0.152306 -6.6094 -1.95305
2342 1 9.05638 -14.3877 0.322957 -2.88458 1.048 2.70337
2348 1 7.77665 -2.12518 3.6494 1.65813 -1.3431 -2.06207
2353 1 14.7668 -2.28225 6.41515 -1.08964 4.31933 -0.299479
2359 1 9.08437 9.61901 7.58205 -4.99635 4.25991 -3.30351
2514 1 22.7693 10.4116 24.0411 0.103462 -0.237866 -1.88416
2366 1 10.7236 3.59203 1.23888 0.252833 -0.964006 -0.438223
2369 1 19.8062 3.82275 14.9814 2.88153 -0.913963 -3.09782
2378 1 5.85124 -1.79009 19.2451 -1.64308 2.73183 -2.27276
2380 1 9.1072 -13.1365 21.7324 -4.05587 -4.86431 -0.000481452
2383 1 22.7978 -18.3103 6.68488 1.04933 -3.06573 1.92143
2373 1 13.0955 10.794 16.3568 2.24855 -1.40265 0.383027
2386 1 2.26182 -3.35801 7.02031 2.39581 -2.67209 -1.00813
2389 1 7.66708 -11.2517 11.0098 -2.32815 -8.57046 2.33156
2393 1 4.43941 -17.2872 20.1849 -0.744802 5.03762 1.89742
2400 1 11.5467 -7.15494 15.8877 4.68542 2.91605 2.12208
3909 1 1.21422 -10.2563 20.2439 -1.02892 -0.421276 -3.80183
2427 1 13.3765 3.1994 4.65665 3.20334 2.53097 1.98183
2428 1 12.9512 -15.9148 14.2113 -5.39695 -0.0669714 -1.8314
2433 1 19.7842 -23.2538 21.2672 2.2738 3.74389 -1.23678
2445 1 2.26593 2.57366 21.5317 5.65943 -2.74778 0.703639
2449 1 17.5526 -22.8185 12.4178 3.88807 -2.74308 -3.04971
2025 1 3.32991 -10.367 23.8006 -0.130849 2.83005 -0.922899
2451 1 7.72741 -22.8413 4.555 3.37465 3.12742 -2.21512
2455 1 11.606 9.14428 14.7916 2.8101 4.96587 -2.14906
2467 1 0.846699 -18.1724 11.5274 1.37161 -1.76862 1.6813
2497 1 4.92923 7.19396 19.8499 2.28078 -0.384556 -2.03336
2511 1 4.34145 4.59708 18.2621 -2.04399 5.68812 1.54148
2513 1 19.8277 8.46332 7.67634 -0.206439 2.12038 -4.04188
3666 1 3.09083 -16.3279 23.3555 -1.29618 -1.74746 0.630463
2515 1 2.24246 -21.2076 2.46027 -5.10948 4.93638 1.06717
2521 1 9.35695 5.96482 14.8614 1.55228 -0.723171 -0.822028
2527 1 5.83594 4.44292 8.57065 3.68683 0.836917 -3.22085
2535 1 14.6024 -6.1585 15.5587 -1.58755 1.65304 6.13089
2539 1 13.0706 -10.7189 17.0651 -2.37784 3.27076 -0.293782
2540 1 19.8688 -8.78889 15.9656 2.87683 0.817248 0.555867
2541 1 5.76465 7.06687 14.8735 5.45479 3.91825 1.59487
2544 1 13.0456 2.72887 7.60377 -3.48586 -1.29673 -3.0917
2560 1 20.8636 -21.0637 8.56517 -2.95595 -2.33498 -2.21501
2566 1 23.0602 -10.7097 13.967 -0.981564 -1.07669 -2.11444
2571 1 13.3409 -0.101798 22.1938 3.77667 4.84322 1.70461
2585 1 15.5982 -15.4537 20.6847 -6.03998 -0.234879 -2.00622
2587 1 17.3823 -18.5171 7.59371 -6.57977 -5.36541 1.84499
2594 1 21.7054 -7.95395 17.8483 0.0529883 -4.55809 -1.10099
2621 1 4.21292 -22.5241 5.99394 -3.16045 -2.35653 1.22654
2635 1 0.272454 10.2361 22.5792 1.69817 4.6105 2.67659
2706 1 1.93018 -21.804 22.8684 1.59376 3.54281 3.21119
2645 1 4.871 -22.0298 14.9554 -0.53842 3.0149 -0.233827
2648 1 17.4297 1.49603 3.4438 0.189784 -0.216786 1.47217
2661 1 7.45004 5.8573 23.4211 -3.94574 -2.74207 2.12815
2666 1 20.5849 -21.5408 1.87872 -1.42537 -1.58543 0.906304
2669 1 1.45923 -8.26572 17.4531 0.805121 -3.34789 -0.649009
2672 1 6.6848 -6.85148 9.12332 -1.48881 -1.80966 0.00982712
2679 1 9.49501 -0.6106 1.70904 0.64331 -4.13928 -5.00518
1421 1 23.5552 -9.72863 5.86849 3.25283 -2.82397 3.80828
2695 1 15.4459 7.69829 12.8702 -1.69136 -1.17742 0.270595
3908 1 22.9101 -13.7537 14.9264 2.98196 0.593163 -1.35091
2698 1 14.8678 -12.8645 21.3803 -0.924078 2.06663 1.62473
2704 1 1.72613 -23.7993 3.04588 -2.83934 -1.34498 -2.96063
478 1 3.43602 0.46624 24.0315 -2.30793 -0.213512 1.56612
2709 1 20.2582 -3.27184 21.2751 3.03768 0.970541 -2.61766
2719 1 20.9213 -10.3755 2.97464 7.82718 1.53947 -2.05696
2721 1 3.69072 -12.2637 10.6107 -0.437044 -1.44599 -2.72887
2728 1 22.4523 -3.25528 11.7742 -4.11793 0.515129 -0.163125
2732 1 2.32853 1.75208 4.85739 -0.731444 2.7939 1.19668
2734 1 18.1471 -9.55179 20.8777 -1.38349 -3.37976 -3.17929
2751 1 8.35545 -24.0298 7.19034 -1.78449 -3.5131 -3.40713
2755 1 1.51252 -13.4361 17.2108 3.05452 6.90415 0.994126
2757 1 17.479 -17.7626 20.1223 -3.21011 2.90348 1.21099
2766 1 10.0233 8.12886 17.135 -1.41071 -2.90524 -0.408605
2770 1 22.6735 10.0277 3.2908 0.964853 3.76929 -0.562292
2782 1 7.608 -9.80995 13.6053 -5.19299 5.25233 -0.680779
2786 1 5.84351 -4.45003 2.61695 4.25528 -3.80895 -3.84273
2796 1 17.7949 -15.0998 13.7896 -2.90452 0.488229 0.273583
716 1 -0.1966 -21.5957 8.40698 1.19118 0.814012 -4.18875
2816 1 2.56844 -15.5834 19.0089 0.397622 4.23739 2.01795
2818 1 0.352448 -2.91725 2.31025 5.38507 6.09791 2.79804
3953 1 20.393 -18.3557 14.8895 -2.57783 -1.52873 -4.34057
2823 1 12.4203 -15.0882 4.79749 1.59548 -6.03655 2.49208
2827 1 5.27741 -10.0702 21.6251 -0.614815 -2.5998 5.25941
2829 1 17.8801 -21.0712 8.81332 2.41553 5.2576 4.84408
2838 1 17.2982 -11.926 22.5946 -0.574689 -1.1489 -3.23233
2857 1 18.9976 9.57896 10.3269 -5.62829 2.10364 0.0141962
295 1 -0.346115 6.95364 9.26943 -0.416761 -3.73027 1.19977
3926 1 8.347 -4.28784 23.3838 0.444406 -1.21453 2.28777
255 1 23.5866 -21.6004 9.41463 -2.92276 0.498777 3.47462
2872 1 6.46001 8.91495 8.33244 -1.29702 -0.872572 -5.1342
2877 1 11.4325 -5.94584 3.54823 -3.01215 4.96724 2.9513
3905 1 -0.133152 -11.0134 4.41022 1.28811 0.965772 3.27466
518 1 23.5047 -22.174 2.30119 4.26374 -2.49439 5.19684
2889 1 4.901 -3.57789 8.36479 -4.50897 0.937003 -0.0241286
2891 1 6.9938 -4.55286 15.0394 1.95452 -0.0751641 -0.979543
2906 1 12.9681 3.36463 18.2599 2.66917 2.58157 -8.25077
3425 1 23.7365 -10.4028 18.5078 -2.13362 -1.13246 2.85009
2914 1 0.216711 -0.846577 12.7585 0.700885 -0.33684 2.85931
2925 1 19.0927 -7.59081 13.1369 -0.732409 0.30816 3.36048
2927 1 12.9993 5.56971 1.10722 0.151087 -0.91814 3.90114
2929 1 5.55267 -13.8973 7.23359 -1.24195 4.50681 -0.94316
2931 1 1.5082 -8.31903 22.5158 -5.18097 -1.47792 1.99465
2933 1 22.608 -5.86972 11.0841 -0.486941 -2.69089 -1.20899
2371 1 16.7894 -20.735 0.086462 -2.90146 4.26068 2.13621
2944 1 7.47464 -22.6506 14.045 -0.847524 0.0513217 2.74921
2946 1 12.2109 0.141878 12.3271 1.33142 -1.34362 -2.98371
1394 1 3.80955 6.79412 0.0344766 -1.13119 -0.256163 -0.193376
2953 1 15.2658 3.90398 2.05875 -1.09056 -3.70234 -0.0289563
2955 1 10.354 -9.80419 16.3156 -2.91976 4.0908 -0.131446
2957 1 0.974544 -18.5261 14.5658 -3.21066 -1.46077 0.319463
2967 1 1.04609 9.42495 10.1176 -4.01572 0.180467 -1.41118
2974 1 22.9858 -0.1985 19.63 -0.796139 0.121312 0.198848
2979 1 7.14182 5.38282 17.0073 1.58818 -1.37652 0.430118
2990 1 12.2724 -17.965 16.0049 0.533216 1.97333 -0.225327
2991 1 2.11467 1.68893 10.1773 -3.1978 -1.50511 -0.655595
2994 1 17.765 2.40575 13.5917 0.469485 6.48406 1.98224
2996 1 13.0459 5.81301 5.78025 3.79301 -5.14749 -3.25242
2998 1 2.85273 -14.7225 14.9915 -4.45942 2.68755 -2.16014
3013 1 11.7666 -18.2123 21.4945 -0.566538 -3.70372 -0.723173
3022 1 15.4981 -12.3774 1.22786 -6.23162 -3.19743 0.249994
3024 1 23.3267 5.86497 2.27263 2.45082 -0.0779064 0.0205146
3025 1 4.52282 -23.0782 8.53913 -0.493888 -0.106588 2.93223
3026 1 2.01852 -20.6937 7.08006 5.8083 -0.463495 -3.50482
3027 1 13.6129 3.72504 10.3428 -2.38146 5.15692 1.12022
3029 1 6.64677 2.75618 12.8486 2.85693 2.99399 -1.13168
3039 1 16.0443 -21.0806 19.0721 -2.12029 -1.5742 -4.63362
3040 1 5.60211 -18.8124 13.0135 2.47935 2.15352 3.09032
3048 1 5.61282 -12.297 19.585 0.601101 0.201113 2.36083
3050 1 1.15463 -22.9874 17.7157 -2.53712 2.61075 0.446813
3054 1 21.81 -2.76883 23.4918 1.92503 -0.25615 1.71893
3055 1 19.7834 3.2107 4.06402 -0.515605 6.70405 -0.913609
3057 1 18.3483 6.20341 23.2318 1.06968 2.96786 0.742302
3058 1 12.2955 -6.65555 8.76667 0.101606 -0.168266 -4.28034
3066 1 22.1743 -1.07882 0.517118 -3.1062 1.53297 -4.02673
3070 1 23.0815 -6.96503 0.799929 -0.466945 0.817481 5.11085
3072 1 2.70389 8.72586 21.5262 -0.50241 2.66425 2.67118
3088 1 9.28892 3.34022 16.6986 4.20413 -2.49323 -5.1792
3089 1 8.20319 -20.0996 12.9044 -1.14876 5.37902 -4.05489
3094 1 14.4856 6.95237 20.5866 2.12353 -0.193073 -2.05302
3102 1 4.55197 3.9805 23.0446 -0.750526 0.763266 -7.45581
3107 1 19.9696 -15.3175 22.0471 -0.742099 -1.32494 0.334976
3109 1 2.70007 -0.151053 1.64812 3.66169 -1.75736 -2.44134
3110 1 6.29466 6.94522 1.88142 -3.04776 1.2073 -3.1618
3118 1 3.8812 5.44606 6.37298 0.718327 1.04802 0.00319411
3127 1 16.6715 5.72521 3.68297 0.59454 -2.95775 0.873816
3130 1 22.2228 -9.44416 9.86521 -1.78994 2.5948 -3.33517
3132 1 2.99223 9.7698 3.58333 -0.613356 0.924543 0.159815
3145 1 19.1135 -17.5194 9.57177 -0.401548 -2.67689 -0.907764
3148 1 7.22848 -7.3584 5.20026 2.06501 -3.22788 4.46267
3156 1 20.6254 -3.71536 6.9553 -0.353391 -3.07339 1.79015
3157 1 10.3524 3.37 3.84906 -2.30567 -4.09667 -2.66653
3163 1 22.358 -0.37601 14.4129 -1.94268 5.10726 0.553514
3166 1 15.8415 -10.3508 14.4366 3.97246 4.69224 -1.11513
3176 1 20.575 1.34935 16.1893 -3.00441 1.02989 -1.68017
3179 1 0.902739 0.111006 20.7562 -0.434119 -1.35981 -0.631646
3184 1 14.4501 -3.24876 3.64666 0.753337 5.36478 0.235325
3189 1 14.9731 10.9967 7.11215 0.87368 -1.09494 -0.164458
3916 1 21.272 -12.7589 23.21 -6.4731 -1.38534 -1.98393
3199 1 12.8212 -23.0713 7.21739 -2.16189 2.78331 -0.175753
3203 1 17.8365 9.42296 20.7746 3.75096 2.57504 0.0296821
3208 1 5.51177 -7.35242 2.78916 2.11755 -4.44051 -0.0446909
3209 1 11.1544 -15.4549 22.2735 -1.20328 -2.76537 -1.25527
3215 1 11.1522 2.52878 11.1964 0.0271639 -2.64486 -5.2887
3216 1 22.8459 -0.905656 10.0006 -4.22366 -2.27279 -1.70385
3217 1 10.5256 2.2043 8.58852 1.33878 -4.31559 -3.91606
3241 1 -0.0226024 -20.7417 16.3824 -2.32483 0.990592 0.378884
3246 1 17.7305 4.04879 6.12365 0.175773 -3.01125 1.34556
3942 1 9.39863 -22.0874 15.8762 -3.11076 -4.10362 -0.58791
3249 1 9.49198 -2.61117 12.4501 -4.86759 0.399095 -1.71058
3252 1 16.8853 -22.3947 15.0846 2.30986 -1.21826 0.00328571
3262 1 9.27697 6.77656 11.1291 -6.70044 3.03085 -3.7689
3263 1 23.4797 4.02612 20.3959 2.80429 -2.43648 -2.23542
2096 1 9.09574 -5.40369 0.278362 0.544434 2.31546 0.416365
3266 1 10.2961 -0.503057 22.0805 3.65603 -5.16783 3.39571
3268 1 6.6 -21.4281 9.57799 -0.995097 -0.453635 -4.23792
3270 1 18.5672 -16.4684 16.2225 2.57351 0.223276 1.76744
3271 1 7.97909 -10.6736 20.481 1.31384 0.419018 -1.36549
3274 1 13.2487 -19.7535 4.60104 -1.35019 -5.94066 -2.59798
3275 1 21.5899 8.27021 10.965 0.68176 -4.12941 1.2928
3276 1 9.43024 2.71568 13.659 4.05966 0.41407 -0.886517
3279 1 7.38758 -0.742775 16.9883 -5.33047 -2.611 6.01002
3915 1 6.81817 -2.58266 6.55796 -1.53333 3.85425 4.00263
3309 1 4.12375 -1.58579 10.9062 -0.149288 3.92317 1.52573
3313 1 15.0377 10.4269 13.3472 2.53491 -3.86868 -1.8318
3314 1 -0.00557717 -2.59636 10.4764 -1.87047 2.06534 -1.3179
3317 1 3.51842 0.315329 7.16316 7.17194 -4.4882 3.06863
3333 1 6.25855 -7.78162 23.0099 2.96407 1.13696 3.77346
3336 1 13.4798 -16.6658 1.66893 -5.83894 3.21752 3.65499
3342 1 0.0107882 0.815904 1.68844 -2.29781 0.667789 -1.36684
3344 1 17.4402 -18.867 17.2629 3.79197 -2.3796 -2.18088
3346 1 9.59697 -22.6189 0.311662 -3.63596 -1.81022 5.4401
3357 1 6.81396 -6.85441 20.3482 -3.35522 4.43684 -0.2067
1213 1 22.5376 -13.8553 20.5659 -3.42518 -1.998 4.55999
3368 1 20.1229 -20.1996 17.3564 -0.970889 1.17331 0.975038
3373 1 12.7781 -5.49833 19.4191 -3.59753 0.557947 -4.8101
3919 1 7.49649 -14.3784 19.2312 -0.130163 -1.29152 -3.19347
3377 1 5.30207 -12.1435 13.0603 -2.25376 -0.159058 -0.270984
3379 1 9.43891 -6.32559 8.48961 1.74837 -0.549067 3.78098
3995 1 4.27511 -23.4987 1.71518 5.95866 0.772848 -3.18249
3395 1 13.6061 -16.1236 10.5999 1.73791 2.34315 -1.40482
3399 1 0.741062 -5.10383 4.31355 4.4041 0.135557 -0.674457
3405 1 16.7862 5.32576 13.2767 -2.94374 1.81178 0.940616
3406 1 3.69923 -4.64539 4.56343 -0.0566962 1.53469 4.82767
3424 1 -0.0230016 -9.70987 1.66085 -1.77315 -0.732846 -2.49936
3429 1 2.6633 -17.2076 16.621 -2.31534 1.18245 6.47382
3439 1 1.96219 -13.1947 12.8806 1.09686 3.44125 4.28536
3641 1 4.97038 11.1327 20.0755 -2.86977 -2.17193 1.66205
3465 1 1.39405 -4.74585 12.1887 0.49202 0.201361 -0.504158
3474 1 17.1247 -2.6913 12.4887 -3.44159 -3.57841 1.62164
3478 1 10.6048 -13.865 2.85415 1.93467 0.0327277 -0.542118
3479 1 17.6565 -6.5546 9.15838 1.53375 3.22036 -3.2104
3492 1 18.4788 -1.11848 4.29848 -0.620518 3.22934 4.34579
3495 1 22.3817 -4.04561 17.203 -1.17578 0.783284 2.11737
3503 1 18.1829 -22.4606 3.44194 0.937982 3.13572 -1.12545
3505 1 0.249492 -13.452 2.86622 0.110214 0.000116728 -5.46819
3515 1 14.5716 -17.8045 8.3718 -1.06027 4.65163 -1.13188
3531 1 4.65723 6.82112 22.9348 -1.04703 -3.59343 5.30076
3533 1 16.0187 10.313 4.5611 -3.37594 -7.62901 -1.18339
3534 1 5.27188 -4.52389 20.2609 -1.29055 -3.87985 2.33306
3536 1 21.9038 -15.8585 8.1133 -4.58604 4.26216 -0.115596
3538 1 5.31114 -6.70334 15.6143 -1.12599 3.33493 1.62518
3542 1 20.4868 0.567417 5.28085 -4.85027 -1.53837 -3.3707
3559 1 10.6304 -5.00001 10.7429 0.117413 0.328336 3.13151
2883 1 11.843 -14.6697 0.330555 2.99728 -1.00937 0.865999
3567 1 2.57017 -10.0417 4.96989 -5.46962 0.682636 -1.16579
3568 1 16.1648 0.258342 15.3136 6.43917 1.87775 -0.60905
3576 1 15.3393 3.36537 16.1747 0.249394 6.84344 -0.491094
3578 1 21.8454 6.51504 19.8371 -0.580523 3.57218 -5.97131
3981 1 11.2043 -8.80514 4.37557 -0.114696 -0.173448 -1.73131
3584 1 10.4587 5.4878 23.9453 -0.492038 -1.71917 2.54788
3585 1 11.7026 -1.98333 10.6295 -1.36528 1.89334 -2.44783
3594 1 13.0462 0.244268 6.02253 5.90069 5.15888 -0.885136
3609 1 8.15763 -12.7505 6.3367 -1.90851 -0.46002 0.670973
3622 1 6.28174 -13.3946 9.87273 -4.67258 1.10503 2.65496
3623 1 9.96919 -0.860911 18.021 -0.609819 -1.4173 -3.9129
3624 1 21.7515 -7.86227 4.73805 -2.01062 3.83028 1.08881
3625 1 8.34704 -16.1129 21.666 -7.14031 1.66329 -6.6458
3628 1 9.88879 -0.655614 8.39968 -0.698198 -4.86162 0.242166
3631 1 7.60416 10.366 19.3427 1.13138 -0.606813 -2.6975
3638 1 22.2074 -7.94662 22.3695 -0.765364 0.211975 2.45411
3639 1 6.81316 -18.2554 4.34461 -3.25514 -1.30453 0.103833
3643 1 0.795947 3.88369 6.1603 0.609378 4.36106 0.163265
3647 1 18.2987 -19.8833 5.09164 3.70679 0.704611 0.509791
3652 1 20.8811 -11.5669 15.7352 -3.33922 -2.09175 1.83658
3660 1 16.1204 8.61942 9.98634 3.47908 0.0110421 3.96902
3680 1 13.2942 5.50685 23.1042 -2.53035 0.383269 4.43444
3932 1 22.8189 5.9133 12.4112 -0.833829 1.43711 -1.61962
3683 1 5.15996 10.6201 5.2076 -0.344448 3.57365 5.16828
3685 1 5.18183 -2.72425 0.313406 -3.89047 -1.97652 1.71261
3687 1 8.89466 -14.5886 9.48218 -0.996543 -1.56138 4.83217
3697 1 10.0543 5.53815 5.78372 3.15305 -1.59661 0.212278
3701 1 14.2763 -3.04786 11.4776 0.525607 4.23845 0.440288
3704 1 19.5823 -3.1533 11.02 -1.21517 0.151165 -3.08604
3705 1 5.26678 -0.980081 2.58378 2.14613 0.411518 -0.582073
3708 1 6.03026 1.60897 8.21932 1.3858 -1.25902 -0.294487
3722 1 19.0515 -8.26093 6.08709 -0.121263 -0.8795 -0.00094754
3390 1 23.387 -22.2849 14.4482 6.42657 -1.72518 2.62992
3730 1 12.3472 -4.57145 13.0257 2.75522 1.81952 -2.03812
3737 1 0.0645828 5.00238 0.942647 1.98485 -1.29629 -3.14696
3739 1 0.122715 -5.29797 9.21122 -5.81405 1.89972 -4.51002
3743 1 5.35355 -13.5508 15.6006 5.97681 -0.472447 6.00032
3745 1 3.12776 -9.37973 11.0352 1.81049 0.220552 -1.16964
3762 1 9.35675 -11.1839 8.51971 3.17658 0.893631 3.22829
3763 1 12.5414 10.0284 6.61289 5.49704 3.11079 2.28767
3764 1 15.3191 -11.0315 18.9524 7.61114 -1.76376 2.54675
3773 1 1.65944 -3.91672 14.8276 1.58407 1.79541 5.92424
3776 1 9.30237 -5.50802 16.7586 -9.71737 -2.82898 1.03862
3784 1 12.9096 0.408365 3.09917 1.30262 -4.41093 -1.04557
3786 1 20.0099 6.48656 17.311 -0.852803 -3.07513 -1.78049
3811 1 13.3346 -14.0235 23.9457 -2.92602 -2.23468 -0.338252
3814 1 3.55958 8.6138 10.8212 2.10358 -0.5766 -2.718
3821 1 10.4837 -11.8917 14.015 -4.35702 0.559536 1.76178
3822 1 9.80046 6.84138 8.3919 4.21904 -2.02437 0.158989
3825 1 21.0187 -12.814 11.3785 2.74663 -1.43832 -1.58093
3827 1 0.476597 7.21315 19.9911 -0.892478 -2.23137 -1.3033
3832 1 22.6367 0.0133628 3.29514 3.46558 1.63106 0.368487
3834 1 7.09256 5.81207 4.39959 1.92351 -5.0001 -5.44196
3839 1 19.2238 6.00972 2.48852 1.61677 1.0391 -4.82116
3841 1 21.9347 3.39587 11.2002 -0.860156 -0.51542 -3.38333
3969 1 16.6246 -23.1851 21.1112 -1.02688 4.12342 -1.58727
3848 1 5.97596 -15.9376 5.52181 -3.97035 2.02143 1.35374
3850 1 19.8664 -19.9885 22.8443 1.88802 2.4169 -1.1443
3853 1 19.9717 -12.9306 3.69047 2.19605 3.99425 -2.11021
3858 1 15.6753 6.1568 6.25728 1.09501 3.49527 -2.46174
3865 1 0.961571 -22.9685 14.8793 -1.61459 -3.83005 -7.11311
3866 1 10.3655 -14.9514 6.8918 -1.20415 1.0911 0.464282
3871 1 18.5338 0.146309 20.8961 -1.69541 -4.08856 0.0823943
1613 1 -0.177798 -16.1522 1.94677 1.77495 5.15821 0.120222
3878 1 7.79097 -16.6235 7.73498 -1.71668 -0.531827 4.29549
3879 1 17.3545 -14.687 23.5122 0.675762 -3.9479 -0.829913
3891 1 5.31352 -15.8942 17.5747 6.01098 -0.954292 -2.03545
3939 1 21.1683 -3.13056 14.6698 1.71437 1.421 3.03569
3898 1 18.1985 -2.81271 17.2548 4.73879 -1.46006 -0.305713
3899 1 5.9424 9.37883 17.0183 1.50308 -1.71073 2.59594
2815 1 22.967 8.33357 7.37455 0.528245 -0.129567 1.56977
2852 1 2.65475 -5.30661 0.458889 -2.77958 1.36019 -2.96359
1135 1 6.19147 -0.494397 23.489 3.51961 0.238255 2.97377
2924 1 -0.256353 -16.2464 23.968 4.28794 -3.36953 -1.3249
3365 1 -0.385928 -9.74809 11.4996 -2.60223 -2.91978 -3.37879
483 1 5.596 -17.2986 0.18383 -0.289808 3.15852 2.26277
1209 1 2.458 -6.24751 24.2224 -3.31094 1.13373 -5.72787
3728 1 15.5492 -9.66496 24.1688 -2.26796 4.27277 0.0493326
2469 1 13.2771 -22.8447 24.0338 3.71114 1.41069 1.17542
125 1 15.2536 9.56715 0.147048 -2.99067 -3.39368 2.25978
24 1 10.1078 19.5094 -4.31114 1.49984 -2.81984 -0.705225
85 1 6.41483 14.2224 -2.48973 -2.54731 0.338892 0.776849
87 1 0.97506 17.5281 -7.6226 -0.0249698 3.99462 0.473476
91 1 17.3941 18.8396 -20.5446 0.928598 -3.18973 3.11443
105 1 4.85404 18.6335 -19.1252 -2.03187 -0.101924 1.13136
117 1 20.0257 16.9262 -20.4406 -1.44246 -7.01405 -0.277112
166 1 10.2451 19.9264 -22.7993 1.14764 -2.25571 -0.52007
1353 1 6.88307 21.9634 -0.916774 -2.29444 2.3545 4.85029
169 1 4.59588 24.633 -12.8047 -2.06426 -1.94287 -3.22116
183 1 20.9574 12.9874 -3.40795 -2.51983 -1.86652 2.7869
186 1 14.28 23.6094 -9.29884 1.71913 4.0224 6.64008
194 1 1.62162 24.4521 -21.472 -2.26156 0.852465 1.44304
226 1 23.1891 15.8631 -14.3163 -1.9134 -1.51954 1.42529
252 1 20.0196 16.5214 -11.8088 -1.12351 0.337727 2.02872
271 1 2.54688 22.6768 -12.7673 -0.394587 -1.64502 -1.10236
275 1 12.7384 22.8553 -20.625 0.598277 -0.255311 -2.34972
296 1 2.02274 14.3801 -2.30764 -0.806685 -1.23598 -3.41947
306 1 13.5039 20.9785 -11.9659 3.29082 2.39493 -1.01245
3902 1 12.0349 12.1855 -7.96771 -3.7131 -0.90977 -1.01401
336 1 19.2361 15.1186 -22.5832 0.527269 -1.02082 -0.396617
354 1 9.86928 23.073 -7.27149 0.377401 -2.75446 -2.93961
367 1 7.38442 18.006 -17.9368 -2.84011 1.70871 -3.65666
380 1 14.0697 16.517 -20.7911 2.48112 -1.38533 1.22894
382 1 16.5633 16.7819 -3.61845 1.50547 -5.97149 -1.98922
414 1 4.93549 18.5154 -14.0807 -2.68219 1.14981 1.41764
428 1 9.82375 12.0163 -6.33027 6.33787 -0.0481578 3.98039
437 1 19.558 18.0451 -9.44371 -4.27312 6.6025 -0.704997
466 1 15.5206 13.3737 -21.6059 -4.78432 2.84229 0.855753
468 1 22.536 16.9975 -9.24918 -1.98564 0.80634 -2.16382
475 1 21.8157 11.1763 -21.1504 -3.4862 -4.32854 -0.383769
1820 1 15.3799 11.4908 -11.8656 -1.03794 -1.72397 3.10522
507 1 12.288 21.3619 -14.4734 -5.13033 3.59524 -2.85201
509 1 23.2912 14.7945 -18.9814 2.57838 1.55838 -1.85346
554 1 3.24601 16.3565 -18.4603 -0.151437 -1.37798 2.25293
168 1 23.6066 21.8273 -3.73364 1.493 2.24901 -5.43264
586 1 17.4583 22.8905 -20.7505 -1.9667 0.147642 -1.69988
635 1 8.51246 12.4601 -3.57288 -1.01474 -0.179086 -0.0120079
638 1 14.2368 17.909 -5.08908 -1.05039 0.968702 0.880903
656 1 2.47301 22.7816 -9.65365 3.88026 -1.08743 1.43123
680 1 8.47121 21.178 -8.95753 3.61073 0.894734 -3.6497
690 1 1.04794 23.1714 -5.48899 2.78644 0.0271936 -5.87618
703 1 6.83777 23.9772 -22.7731 2.1631 1.31859 0.0639139
705 1 5.83011 20.9366 -15.8711 -2.80928 -2.91105 0.00499626
736 1 6.2426 20.3051 -7.49847 2.92515 0.413767 2.7892
784 1 12.4971 14.9333 -3.73435 3.63899 2.22035 -3.80676
787 1 9.66093 14.3616 -12.6889 -0.433347 2.65294 -2.4397
794 1 6.12234 15.6837 -23.1706 -3.64022 4.83006 -0.277143
801 1 20.1175 14.9009 -1.37378 3.86027 1.85184 2.31666
807 1 16.4635 21.3284 -22.7171 -3.01462 -3.73752 1.49612
862 1 1.41814 14.6165 -9.264 0.847812 0.86254 0.744675
868 1 2.19574 17.5907 -4.75518 1.72706 1.53967 0.464322
878 1 9.16789 12.2319 -23.517 -0.89516 -2.85179 -0.382925
883 1 16.9023 17.3816 -6.82529 -2.03355 1.6995 5.33778
920 1 2.03655 14.0284 -22.3864 -3.23605 -1.98731 -3.02293
1816 1 0.366417 16.9802 -11.0379 -3.02864 0.124902 -5.37194
3427 1 23.6456 12.4699 -17.1213 1.01368 -0.337371 -4.77269
978 1 4.87882 12.8648 -23.4744 -2.26465 -0.920663 1.29625
979 1 6.38819 23.6354 -19.8296 0.689699 -4.6993 -3.18236
1000 1 16.8469 16.3661 -9.79621 0.550069 -0.787621 1.75619
1026 1 3.04201 12.3672 -10.5663 -4.51017 -2.53362 -0.182014
1035 1 12.8908 20.0348 -3.70233 -0.649148 -2.29448 5.02966
1039 1 20.9183 20.5787 -10.0633 -1.84793 -3.41085 -1.84927
1046 1 18.0853 15.8929 -15.4947 2.52617 -1.61967 -6.4368
1065 1 15.5062 21.1836 -18.0349 -0.256138 1.50721 2.29602
1424 1 21.4078 11.4774 -8.51554 -1.35261 1.73669 -0.7354
1096 1 10.1053 19.3636 -11.9589 -0.920612 -4.10548 0.157341
1127 1 15.0162 19.4671 -7.77177 3.27289 -0.131761 -6.23449
1165 1 18.3449 22.7491 -0.370792 2.8329 1.03456 0.790843
1181 1 9.28913 18.4488 -9.3844 -5.049 2.77358 3.59138
1194 1 8.4627 16.2917 -6.79097 -2.77684 0.475111 -1.89887
1196 1 5.5369 15.4416 -14.0133 2.01513 -4.16944 -4.53468
1221 1 2.33555 20.9127 -21.7303 -1.50624 -0.428223 2.66828
1241 1 14.6649 12.8373 -17.8273 1.72915 -1.83469 -2.40725
1243 1 9.80054 16.0737 -22.2777 2.63102 -2.04281 7.75927
1249 1 7.64392 13.9204 -21.463 -1.37334 -1.80248 -0.636708
1253 1 14.6973 23.6407 -2.58517 -2.74106 -2.01319 1.26424
1274 1 22.0752 19.9078 -21.5489 1.57466 -0.150414 -0.0450493
1301 1 11.4199 16.3439 -10.1207 3.73411 -0.347831 7.35774
1069 1 23.8053 16.1765 -22.2533 1.04247 -1.67164 -3.62174
1336 1 3.28088 19.7641 -7.32925 0.341736 -3.68351 -0.172864
60 1 0.840527 16.9359 -21.8894 -3.21326 1.1587 2.65437
3653 1 0.176105 16.6197 -2.50236 0.659043 -1.81967 1.7284
1380 1 17.0689 21.8113 -10.2817 -3.4933 -0.0817334 2.44233
1384 1 2.98502 19.8551 -12.4319 0.609572 2.74627 2.49381
1397 1 4.92525 23.1857 -7.48956 5.25184 -5.25188 -0.760519
1398 1 3.68255 21.691 -5.21432 2.89732 2.37984 0.020965
3691 1 22.008 47.4509 -6.79418 -0.0939366 -1.77315 1.2074
1419 1 10.7128 23.1249 -2.76875 0.321785 0.501788 2.2742
1423 1 8.06228 21.1954 -20.2914 4.54257 -3.59605 3.02612
1880 1 0.153239 23.3012 -19.2979 -3.73128 -0.263612 0.0662387
1435 1 19.9492 21.5866 -4.6986 -0.209281 0.738822 -1.69893
1437 1 4.05742 15.446 -21.1606 -4.76274 -2.1536 1.721
3564 1 20.1112 11.4431 -14.213 -2.47002 4.65352 0.612661
1451 1 11.1958 21.4955 -10.508 0.607213 -4.29181 -11.0114
1474 1 0.86922 21.1676 -23.939 -5.32466 6.10549 3.53272
1480 1 1.93516 14.5263 -5.29149 1.72253 -3.06881 -0.343009
1482 1 5.36885 21.8141 -23.3433 0.483853 -0.970362 -2.70718
1501 1 9.31488 17.2242 -15.609 0.232393 0.418251 -5.52063
1503 1 9.41732 24.42 -23.5027 6.57289 4.31724 1.44963
1506 1 14.4449 13.4407 -2.23242 -0.459189 -1.60751 1.40478
1509 1 12.0678 20.863 -7.85097 1.59031 -2.11815 -2.60175
1561 1 21.6098 18.3638 -6.75645 0.660662 -1.75659 0.794937
1564 1 10.4096 14.7613 -7.9697 -3.29424 3.20311 0.376383
1568 1 19.1513 21.346 -12.1913 -1.89764 0.853835 -3.25652
1576 1 13.4548 20.3148 -19.9716 0.0213598 1.09161 0.250329
1588 1 3.52278 18.3345 -21.6613 -4.06225 0.710479 -2.40807
1593 1 2.31264 23.4273 -17.3841 3.25073 -4.81116 0.374435
1595 1 6.63669 16.3552 -4.4328 1.17753 1.04351 1.43221
1601 1 7.61962 15.1872 -17.9949 -1.54636 -0.631351 -1.09469
1624 1 6.28209 19.4185 -21.7761 -0.512635 1.40811 2.9649
1625 1 12.5966 14.0328 -11.1762 0.607996 8.30665 -0.0227357
1633 1 19.2951 18.095 -23.0121 0.669688 0.876256 0.331677
1647 1 17.0025 11.5574 -19.0133 -7.79153 0.185524 -0.839146
1670 1 4.36116 15.5593 -1.25326 0.236487 -3.46383 0.274709
1678 1 3.93274 21.0827 -17.8825 -1.22114 -0.0898703 0.73124
1683 1 15.0595 24.0329 -16.4405 -1.9168 1.43577 -2.01964
1701 1 12.79 24.6744 -4.53893 -0.588302 0.841327 0.178419
1709 1 19.0238 18.2279 -2.53296 4.67103 5.41474 -1.66945
1712 1 12.967 14.0207 -20.0346 -6.59337 -0.0980525 2.08839
1735 1 1.61035 19.7821 -16.933 0.0149765 0.62942 -2.81854
1744 1 16.0537 22.3419 -7.48323 -2.10783 -2.50551 1.31331
1745 1 7.41495 13.6713 -6.14489 -5.39061 -0.838313 -1.3295
1746 1 17.934 24.0575 -12.3899 0.0288399 -1.70043 0.548525
1752 1 22.8655 17.3495 -20.0183 3.36465 -0.503821 -2.83909
1775 1 8.71639 13.7304 -10.0284 -2.69654 1.82374 2.44088
1776 1 10.5852 13.6102 -2.11049 0.275036 0.867033 0.01119
1781 1 8.15247 18.0882 -23.3416 -3.43249 2.62318 0.860365
1787 1 7.24391 19.2365 -12.3744 0.263003 -0.298236 -9.68393
2583 1 5.95527 18.8379 -0.679261 4.15078 2.39588 -3.21897
2033 1 10.1668 15.6587 -0.260231 3.49283 -2.47675 -0.470498
1845 1 21.6664 16.6791 -23.8566 1.01848 -4.21181 -4.50722
1855 1 1.11858 22.1548 -15.1907 -0.914854 3.83997 4.12601
1878 1 22.5312 22.4645 -0.978294 2.47615 -4.22531 -1.00219
1896 1 16.5226 20.6125 -1.03833 -1.73151 -2.24093 -0.110732
2487 1 2.93657 18.645 -0.443989 3.27695 0.0357235 -4.16104
1921 1 18.9823 13.0462 -5.90366 -0.226616 -1.31937 -2.78318
1943 1 4.66165 17.1924 -6.47242 3.52292 4.10672 5.42734
1950 1 23.3062 20.9425 -6.70169 2.26947 0.806235 2.83788
1964 1 21.2031 24.8244 -16.5028 0.698521 4.04868 2.17513
1981 1 17.1652 24.1771 -2.75324 6.69155 -7.37901 1.61581
1993 1 4.56224 12.7054 -13.7114 1.34757 1.83605 -0.449989
2027 1 5.45893 16.9931 -11.5063 1.02935 -0.204705 -3.21081
3260 1 19.2915 47.067 -6.06724 4.65571 1.31018 1.77651
2048 1 3.31594 13.6842 -17.5148 4.21067 -0.297768 1.12426
2049 1 18.1655 20.9238 -18.8125 -0.98182 1.83883 7.46509
2089 1 9.87481 14.137 -19.6588 1.78162 -1.51894 5.22163
2094 1 23.3373 11.8271 -2.30268 0.520195 -2.13444 -0.0447756
2138 1 17.1994 23.032 -15.1246 -3.70728 -2.55313 -1.86789
2152 1 9.11105 22.0727 -4.78297 -0.0352725 -1.40456 2.55473
2165 1 18.6341 19.1927 -13.9718 5.07477 1.22685 -0.481253
3524 1 0.747503 24.301 -0.563619 -2.07697 4.9403 0.978372
2184 1 16.3369 16.7312 -18.6887 0.784741 1.2704 -4.57485
2189 1 2.76586 18.2175 -9.97203 1.74171 -1.30652 5.02971
2198 1 2.7456 11.7859 -4.67805 -0.460188 2.02085 -1.26259
2208 1 17.6724 19.4131 -4.92252 4.1931 2.38554 0.575818
2215 1 10.0039 17.9971 -1.70235 0.0161287 -3.87643 -1.68412
2220 1 1.36574 17.244 -13.6103 3.23083 1.35224 1.73637
2230 1 2.83142 20.3811 -2.6612 2.09721 3.58455 -0.179914
2238 1 15.4254 15.0205 -16.2586 3.36031 -2.05077 -2.75052
2243 1 11.6138 24.0798 -9.53127 -1.66416 -4.05724 -1.91848
2244 1 22.9377 21.4036 -15.1806 -2.2411 -1.80919 -2.25484
2246 1 2.85824 17.5089 -15.9461 -0.127748 2.43758 0.0340478
2256 1 14.9168 18.8627 -22.1296 -3.43261 2.17426 1.64639
2260 1 20.4941 16.6206 -17.4627 1.90687 -1.66002 -5.7049
2345 1 7.91387 14.7028 -15.1171 -2.43592 1.37084 -3.51844
2394 1 16.6835 14.7096 -5.86338 4.5014 3.80687 -2.55461
2402 1 17.6239 14.4106 -19.9142 2.53206 2.69026 -4.3895
1548 1 17.0007 47.1211 -8.02461 -2.49371 -2.54444 3.20485
2432 1 19.1856 13.164 -17.5863 1.15762 3.69792 -2.76401
2452 1 13.4472 16.5169 -14.2941 -1.39009 -3.02309 3.25769
2464 1 8.39588 19.8874 -14.8424 -0.614372 0.140331 1.72978
2480 1 0.638658 20.9288 -7.54514 2.16905 0.934719 0.799841
2489 1 6.97336 21.8173 -11.1986 4.68329 1.05094 -5.84041
2493 1 20.111 22.5433 -21.2776 -0.797011 4.22305 -2.93846
2503 1 17.2218 14.4836 -1.71657 7.20592 -2.36669 -1.95634
2508 1 13.4466 22.0227 -5.72349 -0.801675 -0.145261 0.952199
2524 1 10.3538 22.4962 -21.5353 0.320849 0.835038 0.111982
2549 1 7.55667 12.2202 -16.6626 0.328951 2.97183 -4.89911
2554 1 19.5871 23.9477 -7.70293 0.873791 3.30747 -0.906261
2555 1 4.48314 14.2656 -6.51909 -5.7462 2.47934 -6.59628
2577 1 15.5159 21.2032 -3.96533 4.96593 1.3411 -1.57866
2640 1 5.47551 13.7978 -19.3591 -0.308711 -0.931896 2.64451
2670 1 23.1113 22.9654 -17.781 0.895331 -3.85475 -6.64437
2676 1 21.2132 21.0157 -19.0097 4.49159 4.75386 3.87716
2693 1 9.73283 19.3482 -18.8682 -1.94573 0.950975 -3.34211
1154 1 0.317209 11.4442 -22.2972 -0.30497 -3.57044 -0.339529
2760 1 0.703602 12.577 -18.1004 4.16055 -0.618913 -2.86317
2764 1 9.83891 22.1331 -13.3977 8.587 4.70885 -0.536311
2791 1 21.3821 14.6888 -5.66121 0.146253 -3.82818 -1.46326
2794 1 6.67271 17.6311 -8.72221 -4.01265 -3.17474 3.23438
2795 1 20.7117 14.1326 -20.0434 -1.5844 1.79016 -0.388104
1029 1 11.7532 11.5785 -0.437616 4.23904 -0.894831 -3.69527
2810 1 6.76092 22.8598 -14.0861 -0.10172 -1.60404 -0.638419
2825 1 15.7819 19.0556 -10.6663 0.0298072 2.18351 3.98203
2892 1 22.9673 18.8874 -11.6154 -0.814062 1.05195 -0.147805
2916 1 18.0533 20.0146 -7.92486 0.359593 3.40375 0.600893
74 1 0.344345 13.1715 -13.8046 5.77807 -2.03359 2.40473
2940 1 15.3122 16.8982 -0.98785 0.477663 4.54503 -1.90055
2978 1 13.2036 19.839 -16.8478 2.24636 2.07356 -2.89191
2989 1 21.3616 17.9437 -13.8302 -4.35057 -1.61156 -2.45003
3174 1 23.5791 13.6604 -12.2376 1.07185 -1.12752 4.01965
3004 1 18.1035 18.4607 -17.0653 -3.30119 4.19705 -3.34209
3023 1 4.39244 17.8746 -3.05574 -0.343505 2.36661 -1.0498
3063 1 10.5077 24.8811 -14.3657 4.06145 -3.30314 -1.52503
3067 1 17.0735 17.0186 -12.6859 -0.62368 -6.36638 -4.26023
3068 1 21.5479 17.511 -1.41729 -4.37925 -4.97125 -3.52848
3073 1 3.0749 23.0367 -1.61362 1.01503 0.441455 0.72983
3140 1 0.709607 16.3846 -19.2728 -0.4426 1.24196 3.97355
3142 1 3.71377 22.9605 -20.1894 0.696092 -2.22863 -0.927654
3143 1 22.1093 24.4153 -22.4968 -2.5099 -0.0271697 -1.59498
3183 1 23.0767 16.9168 -4.73226 1.57784 -2.0664 -4.75621
759 1 0.0385916 12.2877 -10.4201 -0.588777 -1.05289 2.83465
3227 1 6.50567 21.0048 -4.81404 -0.996606 -3.58343 -2.65298
3238 1 21.6229 19.3705 -3.9093 -3.1811 -0.872254 1.48911
3244 1 19.8754 14.2828 -13.8937 3.96444 0.0175706 -1.00433
3269 1 7.38385 18.5833 -3.24068 2.6344 2.51774 -0.0973833
3272 1 2.70911 12.3539 -7.63689 -7.14423 -1.60543 1.72137
3284 1 15.1268 23.972 -19.1717 -0.468032 0.630117 4.46603
3285 1 0.280576 19.7523 -13.3676 1.29888 2.41702 1.09085
3291 1 21.3491 22.8037 -12.945 -0.934479 5.78725 -2.52627
3339 1 11.53 17.8385 -20.65 2.35563 -1.19051 1.67071
3341 1 20.5814 19.8789 -15.9439 6.55058 -8.19515 -2.69312
3345 1 13.9126 22.338 -23.3024 3.83605 -4.99392 0.345632
3349 1 14.9041 18.8016 -13.5271 0.148477 -2.12151 -2.15119
3421 1 10.9679 16.7716 -12.9694 1.28555 2.49075 0.274231
1083 1 0.790298 20.4404 -19.6617 -4.64761 -2.68715 -2.02998
3434 1 14.119 16.9878 -8.91405 -5.15285 6.2378 0.322584
3437 1 12.4622 16.1078 -6.44365 -0.617637 1.5352 -0.954693
3440 1 4.50805 20.6203 -10.1012 0.230553 -0.246544 0.50697
3449 1 7.25064 23.5088 -17.0745 -1.37649 -5.61535 1.38642
3456 1 10.108 23.5255 -16.7757 2.15606 -1.16601 6.6413
2935 1 9.17951 23.4355 -0.12055 1.76415 -2.92601 0.621508
3483 1 12.1786 21.3956 -0.906003 -3.49012 -0.109 2.86359
3488 1 17.1664 14.0898 -12.5083 1.54816 0.918641 -4.95798
3500 1 19.4482 16.3299 -7.28538 0.230544 2.83984 2.77611
3521 1 2.65843 14.7697 -14.778 0.426262 0.769018 0.908481
2411 1 9.68256 11.4325 -18.7062 -5.35949 3.57426 -2.56013
3526 1 10.6861 18.4573 -6.84397 0.958278 3.16639 -2.54735
3539 1 15.119 23.3755 -12.0171 -2.79353 1.61969 -0.158145
3546 1 19.4898 13.8342 -8.74139 2.10451 -1.87745 -0.388853
3554 1 14.3435 13.6322 -13.4756 4.61709 2.86056 1.68441
3599 1 13.8448 13.4785 -6.06191 1.2322 -3.54648 -5.87912
3604 1 11.4521 12.0981 -21.8093 -5.4158 1.14718 -0.737754
3608 1 19.4451 22.5828 -16.4445 3.16752 -2.42456 2.44596
3644 1 20.3782 21.0246 -1.86718 3.81459 -2.25448 -1.08934
1318 1 23.8212 19.7688 -0.534985 -2.59067 2.49338 9.80193
3657 1 22.8651 22.7505 -10.2962 -7.35345 -1.68778 -0.752522
3667 1 13.5014 17.0587 -17.2789 3.28014 2.51674 -0.575064
3676 1 17.0152 13.4051 -9.60593 1.13095 3.64932 -1.32663
3684 1 14.7007 15.3875 -23.5026 2.92001 -0.809548 -1.47075
3689 1 21.8907 14.5002 -16.428 -1.63214 3.21469 0.925021
3693 1 5.59266 22.9717 -2.97906 -1.26893 2.40851 -0.281296
3703 1 20.9045 12.5777 -23.5901 -1.07086 1.59993 -1.73677
3712 1 18.0285 23.5441 -5.23582 1.72293 3.61759 -4.53137
3734 1 14.3603 13.8901 -9.05026 -0.341233 2.94984 3.63346
3750 1 13.446 24.0604 -14.1464 -2.08458 2.11963 0.695998
3778 1 5.50214 14.0302 -11.1738 -5.33725 -5.16333 -4.75683
3780 1 22.5255 18.6815 -17.6036 4.61907 -0.929642 4.1759
3787 1 10.5834 20.8377 -16.632 1.07346 -1.73964 -6.43795
3789 1 20.2861 25.4716 -13.5616 4.00442 1.64221 0.0954132
3799 1 20.6547 21.3306 -7.38697 5.56476 -1.68141 -2.14566
3801 1 4.25223 15.7746 -8.99853 -4.71159 0.404906 0.663747
3820 1 22.9764 12.4688 -6.426 5.91399 -0.362908 -1.48553
3849 1 17.6983 12.443 -23.4776 -0.744289 -1.04674 -6.85239
3854 1 17.9319 12.1369 -3.08621 1.61864 -1.36497 2.97618
3883 1 21.5754 14.7666 -10.4263 2.7311 3.31569 4.30527
1913 1 -0.144318 18.8784 -0.875474 0.283206 3.46063 4.1165
1611 1 5.27401 11.5112 -3.20712 1.1385 -2.12204 5.65685
3927 1 12.9565 17.3294 -2.46925 5.45073 2.45163 -0.946161
1444 1 12.7949 19.7014 -23.9784 1.25138 -1.28564 -0.688824
3948 1 10.9233 16.6353 -18.0329 -0.812387 0.608851 -3.81455
3986 1 16.4602 20.4742 -15.4681 -5.09526 0.435659 -0.362867
4123 1 0.810166 27.772 -5.13668 5.31575 -2.66664 -2.79192
4124 1 2.15755 25.6874 -6.15722 1.72004 -1.23612 -0.820087
4127 1 0.65788 27.6214 -9.68531 -0.13005 3.25429 5.53216
4128 1 2.17326 25.46 -8.92062 7.74079 -0.934918 -3.63088
4135 1 1.23688 27.9554 -2.36164 5.47509 1.08063 0.136452
4136 1 2.82431 25.778 -1.9119 -1.22895 0.721257 -3.92967
4147 1 0.736119 32.5946 -5.08877 2.36335 2.91523 -4.25495
4148 1 2.09599 30.1671 -5.90248 -0.839382 -2.10668 -2.31963
4151 1 0.628533 32.2289 -9.35801 2.17489 -1.12602 -2.73084
4152 1 1.88889 29.7288 -8.82212 -3.75819 1.77526 0.746553
4159 1 1.0674 32.6886 -2.07987 6.25305 -6.51782 1.83706
4160 1 2.40064 30.2547 -1.55178 -3.0527 -0.156644 1.0728
4171 1 0.847754 37.1074 -5.0973 -1.66154 1.61061 0.683217
4172 1 2.1572 34.7925 -5.98598 -2.52716 1.89383 0.837641
4175 1 0.400484 36.9017 -9.40824 -5.12264 0.137143 2.43125
4176 1 1.79257 34.7649 -8.78613 0.257299 -2.41399 1.10653
4183 1 0.958617 37.2839 -2.3547 -1.04374 -3.02444 7.12096
4184 1 2.30302 35.023 -1.4294 1.79993 3.58542 2.25966
4195 1 1.00563 41.4706 -4.98748 4.0601 1.32398 -0.956004
4196 1 2.21242 39.3196 -6.18803 -1.77586 -3.32259 -3.86519
4199 1 0.368356 41.4118 -9.54365 3.54755 0.454791 1.50121
4200 1 1.92302 39.1218 -8.95384 -0.128145 -0.881463 -0.476479
4207 1 1.28465 41.4442 -2.26612 -2.64365 -3.64797 -4.65373
4208 1 2.71483 39.1217 -1.24564 -2.72917 -1.77247 -2.5406
4219 1 0.70735 45.8412 -4.99289 -4.58659 4.8017 -1.09134
4220 1 2.06369 43.739 -5.99475 4.73646 -3.12274 -2.12891
4223 1 0.658515 46.0026 -9.23092 1.49962 -3.94168 -0.0189947
4224 1 2.00123 43.5093 -8.7694 -1.31805 3.49002 -5.89648
4231 1 1.59139 46.4446 -2.04955 -2.40522 4.80731 0.852577
4232 1 2.53966 43.8876 -1.35489 0.528407 5.50839 -6.49237
4241 1 4.81642 25.6675 -6.08651 1.10163 -0.524531 0.774097
4242 1 6.42741 28.0019 -6.66034 -4.69255 0.220054 2.14388
4243 1 9.02842 27.7154 -5.82857 3.01579 1.76289 -1.00196
4244 1 10.8236 25.4527 -6.35557 2.12233 4.03739 7.31701
4245 1 4.61043 25.0448 -10.0313 -0.731241 1.42655 1.1221
4246 1 5.95167 27.4452 -9.44247 2.08466 -0.475108 0.0763143
4247 1 8.78337 27.654 -10.1189 -7.01924 1.70765 0.959509
4248 1 10.9782 26.7612 -8.97796 6.95392 0.614622 -0.313001
4253 1 5.23066 25.6399 -3.22572 6.53866 1.56775 -0.489249
4254 1 6.51795 27.9236 -2.019 -2.38534 0.557464 0.908899
4255 1 9.19209 28.0997 -3.0513 3.47757 -1.53678 6.40581
4256 1 11.0613 26.1221 -2.47186 -1.81864 0.663816 0.943948
4265 1 4.86646 30.0858 -5.29206 3.26194 -2.54916 -0.356346
4266 1 5.7657 32.3956 -6.62096 -1.71328 5.42005 5.82272
4267 1 8.40816 32.4167 -6.03944 1.48339 -3.68329 4.55323
4268 1 9.71763 30.3742 -7.17934 3.79005 -0.280183 -0.0644553
4269 1 4.4327 29.9379 -9.88173 0.505491 0.00876671 0.989883
4270 1 5.63277 32.5709 -9.56136 -0.556095 -4.32462 1.1812
4271 1 8.05187 32.8628 -10.6998 -0.861946 -1.62103 -2.2362
4272 1 9.37559 30.4128 -10.0546 -3.52402 -3.13235 5.04675
4277 1 4.92399 30.0556 -2.49351 5.50148 1.49652 0.196297
4278 1 5.98035 32.5011 -1.82851 4.2626 0.969753 1.37077
4279 1 8.42906 32.7789 -3.22475 4.70763 -0.104033 5.02533
4280 1 9.86915 30.6698 -2.25266 -0.848494 -1.99948 -1.671
4289 1 4.78427 34.6454 -5.39245 -1.6279 4.50069 3.98342
4290 1 6.19071 36.8474 -6.19993 0.237676 2.09193 4.14318
4291 1 8.879 36.9196 -5.43602 -1.26772 0.954865 -0.928755
4292 1 9.71624 34.6533 -6.88311 0.22092 -1.77351 -4.32167
4293 1 4.217 35.0248 -10.1125 -4.56176 -6.39924 -0.337517
4294 1 5.8301 37.025 -9.08468 1.02777 4.128 2.81812
4295 1 8.27825 37.0332 -10.3558 1.4796 -0.31307 -7.16101
4296 1 9.69709 35.0021 -9.5723 -0.502538 -5.85154 3.2762
4301 1 4.88424 34.9147 -2.59877 2.74338 2.14328 -0.593599
4302 1 6.0674 37.0914 -1.65158 1.60989 0.412563 1.74582
4303 1 8.80951 37.3941 -2.80515 -2.08602 1.19989 -0.872601
4304 1 9.48265 35.0012 -1.66858 -1.59695 -2.88525 -6.41067
4313 1 4.80694 39.1854 -5.48689 3.9675 -4.73523 -1.48402
4314 1 6.32328 41.3539 -6.61748 2.85841 -1.83742 -1.37471
4315 1 8.88988 41.7402 -5.63496 3.02222 4.428 4.63801
4316 1 9.82333 39.118 -6.70629 1.94821 -0.240479 0.409424
4317 1 4.44765 39.2292 -9.85887 -0.602918 1.95305 0.35668
4318 1 5.813 41.6461 -9.32117 -3.41293 -0.638493 4.76077
4319 1 8.42501 41.7443 -10.0149 -0.512752 1.8515 0.134842
4320 1 9.82751 39.534 -9.62125 1.02958 -0.0138937 -0.675186
4325 1 5.10564 39.4006 -2.65896 2.64675 -3.35155 -1.50539
4326 1 6.2399 41.7056 -1.75501 5.57224 -4.49089 0.161945
4327 1 8.98802 41.7267 -2.71272 -0.933836 -1.8312 -1.34861
4328 1 10.4922 39.5631 -1.82627 -4.89457 3.0897 -1.31497
4337 1 4.85069 43.4083 -5.55167 -0.430829 -0.312863 2.16858
4338 1 6.34369 45.4314 -6.71033 4.61943 5.91793 5.3456
4339 1 9.01016 46.687 -6.44177 -1.4629 1.70851 -0.723889
4340 1 10.2031 43.8566 -6.87333 2.35948 2.11361 7.86944
4341 1 4.54692 43.9845 -9.63859 -0.698724 -2.61594 3.00462
4342 1 5.7721 46.4148 -9.23186 -0.0848865 -0.918879 4.08315
4343 1 8.07005 45.9397 -10.7264 -1.84227 0.726555 0.169842
4344 1 9.62751 43.9757 -9.64755 0.408589 3.47579 2.82704
4349 1 4.97454 43.9892 -2.86257 -6.20634 2.30994 -5.06871
4350 1 6.38573 46.4003 -2.59817 -0.937104 9.15129 -1.24026
4351 1 8.88133 46.5969 -3.54194 5.91681 4.70085 6.0215
4352 1 10.1588 44.3185 -2.56549 -6.61172 -0.0222429 -5.6393
307 1 13.3919 12.9589 -23.7759 -0.920457 -2.28455 -3.17212
2172 1 0.946975 20.5672 -4.67493 -0.575692 -4.20138 2.70795
3894 1 10.6744 11.989 -13.3261 0.0626864 2.2563 -0.407946
925 1 0.644648 12.0431 -2.79708 -1.19908 -0.180017 -1.40789
3206 1 15.5875 11.6271 -4.35522 -3.77634 0.991364 1.88306
2992 1 22.7633 11.3316 -11.1476 2.95098 -3.02349 -5.08312
974 1 -0.0518191 23.628 -12.6721 -2.15437 0.129547 1.83271
1348 1 4.89299 11.3623 -16.4652 4.54429 -2.78042 1.80132
508 1 -0.213137 21.6693 -10.5451 3.80139 -5.50971 1.32725
1405 1 20.199 20.8341 -23.6968 3.76747 0.620116 1.72821
3836 1 21.7809 12.7751 0.0292959 -0.110797 1.51813 2.67356
1128 1 0.194314 13.2346 -0.268288 -2.26303 -0.131507 -1.26279
229 1 11.0134 11.7186 -10.5294 -1.90612 -0.561702 4.85936
2802 1 6.8227 11.5259 -10.7119 2.38905 4.5294 1.93366
6 1 2.39945 16.7127 18.2577 2.76462 2.35529 -0.208158
7 1 6.5316 21.5396 6.99065 -1.44705 -2.79225 -4.88421
18 1 22.3039 23.0993 3.63407 -1.02059 -2.12293 2.94368
25 1 6.87819 24.7174 15.9918 4.63108 1.38088 -2.78836
49 1 21.9559 12.6937 4.27397 -1.18692 -3.06918 -3.89853
72 1 23.6619 15.3401 19.0507 3.9522 6.24223 -1.99137
84 1 21.65 22.4674 21.1 -0.803869 0.471089 -2.27486
103 1 19.9597 24.6925 21.2193 -1.54119 -1.92484 -2.41156
123 1 11.4925 14.6189 7.50028 1.94725 3.44108 1.04692
138 1 11.8865 16.3784 5.23278 -2.45627 -0.966268 2.78805
147 1 10.099 20.7906 5.04509 0.63158 -4.62519 -0.448482
175 1 9.69303 18.0445 5.25342 0.151889 0.283365 0.59105
185 1 21.4453 22.0176 15.3214 0.847901 2.23222 6.01635
202 1 11.4301 13.007 12.381 -2.48806 5.23765 -1.49135
215 1 9.02478 22.9554 15.9051 -1.17701 -0.335714 1.19793
217 1 4.21181 21.5236 8.6908 -1.87832 3.16668 1.18455
220 1 5.42643 19.688 15.9371 -0.363636 0.0271336 -0.4626
227 1 16.4896 16.586 1.74358 -2.74679 3.35062 1.03905
262 1 17.4977 19.0013 10.5367 2.88893 -0.3107 0.492647
281 1 14.5788 19.7105 13.2738 2.82483 -1.38441 -3.96597
284 1 1.79648 14.3299 1.84783 -3.14077 -0.728859 2.97631
288 1 16.9684 22.7623 3.62316 1.27559 -2.03054 -5.18234
310 1 1.94107 12.6161 13.8145 -3.5641 6.09726 -0.347604
328 1 14.302 21.2041 15.4506 6.45714 5.16945 -5.25644
360 1 5.80632 16.5774 1.25956 -7.87478 2.59843 0.638293
1771 1 0.170793 22.4349 9.08284 3.68819 -1.07621 4.36606
418 1 23.0361 19.7922 5.69627 0.637806 4.0955 4.27746
435 1 4.07874 22.9104 6.07656 1.89575 4.20694 -0.256035
443 1 22.4533 23.2101 12.9509 -1.70294 5.88076 -3.32119
447 1 7.43602 19.5483 14.0061 1.05279 1.83829 -0.669456
3815 1 -0.167138 19.1975 22.862 3.19947 -0.357828 -4.04496
457 1 7.58506 21.1622 17.538 1.06104 -0.469668 2.45192
458 1 23.5886 19.2036 18.4081 -2.3627 -5.34743 1.58687
463 1 6.97094 14.0835 11.4059 -1.35805 -1.71307 -2.75402
473 1 4.50808 12.2122 12.3602 3.55529 -2.70095 -4.32267
487 1 3.04127 22.4765 17.2224 0.933683 0.73088 2.4808
566 1 19.8451 14.0283 14.2647 3.07652 1.37781 -2.98218
3562 1 19.2384 11.7196 1.12186 -1.20141 3.22555 2.55407
627 1 20.8433 14.7203 11.6784 0.618521 1.69089 0.374894
646 1 15.7347 23.6858 15.1138 -0.883129 -0.159978 -0.237568
399 1 13.0646 14.91 0.0850829 -0.0314942 0.152004 -3.83202
671 1 20.3571 14.9867 3.17733 0.58496 -1.16175 -2.89181
715 1 2.81068 16.7518 9.78361 -0.308572 2.18648 1.87203
725 1 3.32082 17.9953 24.0794 0.320506 2.58209 0.758489
740 1 17.0072 12.5365 19.5973 3.31462 -1.15391 0.14029
4360 1 11.2715 44.1815 5.38359 0.495875 1.02944 3.36952
762 1 5.94283 17.1584 22.8185 0.96775 1.56253 5.34434
769 1 15.5527 24.7162 17.8239 -0.618745 -1.83104 0.756208
774 1 17.7395 16.0656 13.412 -0.672529 1.06118 -0.446322
805 1 10.8884 23.8726 22.877 -2.59291 3.40197 0.0304631
4138 1 -0.220019 27.8828 9.62736 1.2472 0.503827 -7.53646
820 1 2.71971 13.6597 8.40158 0.6805 -0.676345 -2.10681
829 1 19.9709 15.5039 20.037 -1.05867 -0.628073 -4.812
870 1 15.4659 19.6411 17.8865 -2.87659 2.28371 1.10535
875 1 21.2076 13.8461 8.85848 0.318927 -1.31576 2.17328
880 1 5.52972 13.9159 20.7505 4.69468 5.15075 -0.97803
894 1 1.66726 12.5991 22.4846 0.76732 -2.21477 -1.69725
927 1 6.89853 14.465 18.2342 -1.12901 -4.17549 1.73042
936 1 8.70395 12.0655 12.8127 -7.0027 -3.06263 0.697413
937 1 2.6836 14.7555 20.7316 4.88645 -1.58307 0.522936
958 1 2.30232 13.5168 17.8765 1.26842 1.55698 1.48165
980 1 5.57047 20.4504 11.0814 2.66397 5.95928 -2.30182
4252 1 10.6925 25.7098 0.513426 1.58271 0.7351 -3.75795
1019 1 7.88525 16.3572 3.57344 -3.33883 -4.33608 0.119388
1050 1 18.2305 20.4894 17.6509 7.46775 3.9957 3.40017
1063 1 1.48534 19.1412 10.7321 -3.87548 3.25069 2.22092
1097 1 17.8595 22.3514 13.413 -0.274089 -1.39279 -0.730803
4357 1 5.48655 44.2064 4.93434 4.00086 -3.29778 -3.05251
3180 1 -0.00288936 13.8062 3.97711 -2.52731 1.10795 -0.424564
1108 1 16.2277 12.3162 22.6083 1.25444 -2.23522 -0.119308
1133 1 11.2044 12.7943 17.7613 -1.1177 -4.84972 0.562994
1142 1 8.67747 14.3165 7.02202 -3.00108 -5.00776 1.54482
1145 1 3.42993 20.6023 23.1039 -0.938957 -0.080066 -2.25471
1146 1 10.9574 16.2874 19.1059 -4.65775 -2.85152 1.40592
1170 1 2.15608 13.9203 11.1638 2.96701 -0.00269893 -5.18321
1184 1 7.62951 19.4753 22.6747 -3.70236 -1.70332 1.48324
1189 1 13.6198 13.0865 3.4815 -0.670044 0.468183 0.29471
1222 1 20.2508 19.3158 11.6589 3.76352 -1.94326 -2.9453
1234 1 15.1553 13.6407 5.8103 0.938289 -0.721727 -0.827267
1235 1 12.2966 18.1943 2.21575 -0.839256 2.33024 -0.778234
1297 1 16.071 13.6177 15.9239 -1.14134 0.0265872 -0.415424
1313 1 16.9575 18.6803 22.2224 0.0657221 -1.69212 -1.76306
4142 1 -0.313224 28.0781 6.6047 2.84643 -0.324976 -2.11176
1328 1 10.5586 11.99 6.69201 1.98137 4.07799 0.0178535
1352 1 6.75228 23.9381 20.7329 -2.29053 -0.217903 -3.02546
1362 1 20.6988 19.153 7.39059 -1.65669 -2.34782 -4.30722
1381 1 18.1921 16.1427 10.7235 -0.87258 -1.61531 2.70249
1414 1 6.60668 23.155 4.52287 -7.26842 -1.54032 4.28877
1430 1 0.360587 15.6529 6.07984 1.66153 2.24696 -0.812972
1468 1 20.1234 24.0403 17.1631 4.79877 -3.02456 4.3169
1469 1 19.7318 11.6687 5.89723 2.83585 0.871104 2.11497
1526 1 20.9479 23.7133 1.22403 -1.07431 1.25903 -0.828517
1528 1 11.1054 14.2462 15.235 -0.447399 -4.34909 0.865593
1530 1 16.0975 16.2901 4.68619 2.03024 0.313659 2.23494
1533 1 12.073 20.816 12.2386 3.11044 1.28686 0.212282
1538 1 6.23232 17.2222 17.7807 3.96471 -0.917342 2.63433
1559 1 21.9307 17.1857 2.48921 -3.45757 1.37039 1.9619
1569 1 7.75418 13.4115 4.21456 2.10664 4.05912 -1.88722
1591 1 14.4196 12.2846 0.700608 0.204701 3.60433 -0.873165
1598 1 3.8147 12.3806 2.18363 5.07542 0.306578 -2.52428
1618 1 11.0405 16.8389 14.1651 3.25152 0.575777 1.30813
1619 1 14.7605 13.7073 18.3501 -0.687809 -0.879823 -2.30085
4359 1 9.71246 46.2512 4.53187 0.645974 0.513638 4.34026
4276 1 10.4633 30.6479 0.470076 -1.97371 -0.0875932 0.972518
1684 1 6.0995 15.6476 15.4139 0.360634 -4.51324 3.65675
1713 1 22.6297 16.4941 12.7658 -0.774492 1.2805 3.24548
1715 1 13.1448 23.3883 17.0551 -2.7306 2.12106 0.234889
1726 1 17.6014 21.3408 23.3522 3.74727 0.191256 -4.66012
1740 1 2.8823 19.4738 17.5487 -0.773241 5.35755 -2.55073
1741 1 11.0732 12.9637 23.34 1.95746 3.44208 0.994851
1750 1 16.1548 21.4197 11.3367 1.42176 2.28186 -4.16139
1762 1 4.17449 19.2114 4.0904 2.21453 2.43225 2.40344
1767 1 10.5126 24.2331 18.0202 0.791091 -8.02154 4.19402
3938 1 19.3666 11.9526 18.3372 -0.438087 -1.88288 -0.475089
1773 1 18.615 14.0135 7.58409 -1.24722 2.18334 -4.2364
1797 1 2.24873 16.3773 15.4748 4.09334 -1.07711 2.08924
1809 1 10.1849 19.7768 0.730081 0.852668 -2.69128 1.3831
1821 1 20.3489 22.2915 11.4608 -4.01514 3.8759 -1.21383
1829 1 5.22923 18.6195 6.76053 -2.31081 5.16777 -0.800626
1835 1 5.82837 23.3002 18.2305 2.60642 -1.06101 5.6282
1838 1 19.3836 21.5483 1.97168 -0.0637153 2.34068 1.12951
1839 1 19.7678 22.3812 4.9878 -2.57241 1.95218 -6.35905
1866 1 7.77846 21.8486 12.2838 2.39123 3.42966 -2.84334
1884 1 16.4959 14.1684 9.34536 -0.364874 -1.65898 -5.07602
1886 1 18.774 21.2931 7.25498 0.822848 -2.83949 8.17656
1922 1 9.20693 14.0874 19.6592 -4.01462 -0.257238 -0.968192
1929 1 7.63667 18.8135 1.72063 -2.37452 0.165994 2.06755
1957 1 14.2418 15.3172 7.99069 -3.00798 1.10801 1.5788
1984 1 2.93444 19.3071 20.5174 2.87304 3.81454 2.94431
1988 1 7.09741 19.2528 8.81496 0.614693 -2.97652 -0.636245
1992 1 12.4838 20.3639 3.87643 -0.807159 -1.25369 4.38763
1997 1 21.6984 20.5107 9.45085 0.864162 -6.4241 1.11395
2019 1 1.11114 22.3064 19.2276 -0.28073 -0.281415 4.01408
2022 1 18.2237 22.4654 9.61702 2.16198 -2.11412 -1.90012
2026 1 9.0065 20.6915 10.1328 0.746904 -2.89094 -2.21903
2055 1 4.44307 15.1127 6.96971 0.862849 -3.20089 7.32513
2084 1 15.3165 17.8136 20.2352 0.783861 -3.60109 -0.0165565
2088 1 8.84891 20.3955 20.0581 -0.771115 -3.97848 3.34443
2117 1 23.5673 22.3954 6.00084 -1.56778 -1.10034 3.58438
2134 1 12.5114 21.8729 8.39759 2.36958 -1.08103 2.08126
497 1 10.6147 15.6229 23.7266 -5.21056 -0.765776 -1.02582
2177 1 19.8319 17.1743 17.6869 2.48051 0.30528 -1.8311
2197 1 17.4853 23.2111 21.4606 2.59588 -0.113018 -0.104643
2240 1 14.741 17.3805 16.1144 2.09663 6.41986 -3.96478
2254 1 4.47439 17.6342 13.879 1.10928 -2.95187 2.5174
2281 1 19.9321 12.7424 22.3997 -3.67205 2.279 5.04475
2287 1 21.4155 15.9506 15.5673 -5.59579 1.26766 -2.81756
4356 1 11.4934 43.3717 7.91363 0.178564 -2.43653 2.14768
2300 1 6.94471 12.5176 1.60806 -3.48972 3.744 -2.85354
2304 1 8.70467 17.2297 7.71587 5.22903 -2.4077 -6.33121
2309 1 20.9522 17.3918 22.2469 0.620384 -1.51527 5.01861
2343 1 9.67328 22.2139 2.40743 -0.0999518 3.16524 2.6168
2344 1 13.4054 25.1858 3.58461 -0.577154 -0.112802 0.461238
2360 1 13.792 15.9039 2.90169 1.51499 3.83837 -3.11852
2367 1 5.50032 17.5234 10.473 -2.22867 1.62935 -5.08832
4355 1 10.3199 45.326 9.20128 0.463365 4.79959 4.42779
2375 1 10.3237 23.2535 13.1478 -0.570552 4.41099 4.83919
2388 1 9.34624 23.3893 20.4939 -0.304531 -4.05628 0.396339
2395 1 4.70709 16.871 20.32 4.11034 4.52657 2.19039
1319 1 14.737 22.9094 0.125922 -5.47488 -1.98625 0.456626
2412 1 10.0007 19.0932 15.1218 2.89359 1.61568 -2.31009
2416 1 7.32525 12.5683 8.75654 2.32816 -5.23527 1.68386
2423 1 13.6253 20.3303 6.3726 0.546712 -2.16479 3.40618
2444 1 13.5862 21.3367 18.9706 -0.81034 -4.81758 1.7437
2456 1 20.0123 19.9741 22.0542 -1.05628 -1.87491 2.94482
4354 1 7.70665 45.2903 8.38405 4.41897 -5.02528 -0.730785
2492 1 23.6131 13.3531 2.21286 -3.28584 1.50647 -3.88251
2500 1 9.52663 22.1327 7.62674 8.88662e-05 -2.99936 0.714632
2501 1 4.79921 13.5818 4.42772 1.28743 -2.06554 -0.937531
2426 1 0.0944291 16.6067 20.2126 1.02777 -1.27024 -1.06972
2553 1 1.8056 24.2086 15.2419 -0.0342222 0.670629 -4.92642
2565 1 13.6547 17.1031 13.2756 0.540377 -2.84578 0.281286
2575 1 3.05128 16.7979 1.83341 -2.63206 -0.910889 -2.70848
2576 1 23.3888 19.8416 15.4343 -5.2561 -2.48342 2.44629
2582 1 13.5175 24.3359 9.18369 1.36415 -0.0995764 0.363569
4358 1 7.20348 46.0796 5.80698 -5.18288 -0.302324 5.38864
2600 1 4.60641 23.0608 0.982689 2.90843 -1.63646 0.0163492
2606 1 16.8594 15.5286 19.1597 1.76796 -2.47779 -3.03365
2627 1 16.1381 23.6062 8.21478 1.4326 -3.19995 1.59068
2631 1 18.5921 14.5194 1.01183 1.27519 -1.61738 -3.74137
2671 1 11.8169 19.9017 20.5402 -0.100657 1.46696 -2.63708
2712 1 17.9898 14.0113 4.75941 1.67388 -3.94876 -3.92629
2716 1 16.7892 12.5522 2.53534 -3.95977 7.02015 1.4647
2717 1 11.547 19.3255 9.93423 -4.08171 -2.47527 4.80409
2736 1 17.8101 14.546 21.8115 2.2135 2.3293 -0.14632
2756 1 22.7693 11.3685 19.1569 4.8278 2.34359 -2.66728
2773 1 9.52494 23.8046 4.8094 -0.384008 -5.04508 6.78874
2779 1 21.3723 13.7531 17.9424 -2.30645 1.24636 -1.09473
2781 1 13.9207 23.074 11.736 3.34494 -0.790097 0.69585
2801 1 2.413 17.3 6.95654 -1.88161 1.06216 -1.17439
2824 1 8.30106 13.4168 15.4536 -1.44367 -2.97653 -0.772478
2844 1 21.818 16.3784 7.9038 0.206029 0.699326 3.77632
4353 1 5.70738 43.8374 9.67113 -4.5876 -0.347721 -1.80037
2879 1 1.68513 17.6571 4.19297 0.792872 0.644708 -2.36548
2886 1 12.2872 23.526 1.71052 -1.38244 -0.543909 -5.6381
2920 1 23.1106 13.2669 6.64354 5.94352 9.18246 6.26774
2932 1 9.03564 18.3824 17.7312 1.63266 -1.51896 0.537612
2847 1 7.52586 14.6156 0.170699 5.31445 -2.08636 -6.69863
3001 1 11.9724 12.6371 9.47212 -2.4269 6.57503 -0.9711
3003 1 16.2321 12.281 11.4698 -2.69444 -4.45101 2.43906
3035 1 19.8244 16.2776 6.03423 0.938865 2.66536 3.18128
3036 1 12.7251 17.3121 20.8791 0.53514 -2.45267 -3.59482
3047 1 7.20543 19.6098 4.60368 2.69525 -1.61163 -5.70338
3086 1 14.8999 20.9495 2.46737 4.87229 -0.0154279 -2.08773
3123 1 15.4764 14.4822 12.9022 0.842981 1.49325 -4.47641
3154 1 6.79493 21.4208 2.11636 -0.465327 -6.02459 3.12094
3170 1 6.07098 21.6982 22.4348 -2.18318 5.1818 2.47514
3173 1 10.6776 16.422 9.64902 -1.60348 -0.363897 -0.045007
3178 1 17.1219 18.8856 13.5452 -1.76194 2.6518 -5.53584
3236 1 16.6502 19.3095 7.89081 2.28947 -1.94067 1.33513
3243 1 8.38357 15.6893 22.0456 -4.87607 -2.18938 -1.60343
3251 1 0.282731 16.5223 11.4998 -1.3429 -1.02763 -0.72471
3253 1 10.505 15.981 2.38482 2.66978 -0.798647 -0.360852
3259 1 17.0937 19.3149 2.818 -0.863352 3.68602 7.38644
3280 1 9.59966 15.8132 12.0957 -1.64333 0.115898 3.25102
3304 1 0.197855 14.838 13.7874 1.63597 -0.290479 0.375607
3310 1 16.1588 21.7007 6.14189 2.12102 -5.01151 3.16365
3338 1 11.4455 21.3779 15.2053 6.77613 -2.56633 -1.42641
3352 1 5.06138 16.5731 4.44791 -4.03493 -0.218041 0.842853
3380 1 1.43076 16.7396 22.7635 -4.90141 -3.05995 0.122794
3418 1 21.2888 18.4877 14.3821 4.21647 3.14907 1.34122
3457 1 22.3125 13.6525 21.2361 -0.667345 -5.38019 4.68852
3467 1 13.7175 12.7121 14.3287 2.46416 3.28261 -3.21004
3476 1 3.73818 14.035 15.5371 -1.64216 -2.04228 1.61031
4300 1 10.3778 35.0019 0.998089 -1.61265 -1.79947 2.86308
2819 1 18.3897 11.933 15.5788 4.22053 3.81923 0.179106
3486 1 17.8958 23.1048 18.6549 -0.725966 2.69909 -0.608903
3493 1 5.12274 12.2205 17.3673 0.012279 1.00901 -0.105249
3537 1 21.9064 21.9307 18.2216 0.373371 -2.98231 2.21218
3545 1 3.17334 20.1538 12.7477 3.09674 -1.96488 4.4441
3552 1 14.1978 17.6283 6.6208 -1.3129 3.90187 -0.715654
3570 1 13.0116 21.7982 22.3813 1.22303 2.41288 -2.14914
3571 1 2.82512 23.4731 10.0897 -0.661921 3.28212 -2.9102
3602 1 2.08773 22.7534 21.8542 -4.3264 3.11858 0.370527
3605 1 19.2659 20.2952 15.0177 -2.15818 0.605874 -2.2323
3613 1 1.70297 22.8179 12.7776 -2.59714 2.22089 -0.818574
3615 1 3.12282 20.4129 1.77458 -1.78589 -0.944811 5.72205
3619 1 1.59216 20.1512 8.05389 5.28692 1.02075 2.54448
452 1 23.1659 15.5799 0.195292 3.94196 1.98458 -1.20481
3658 1 22.4443 12.754 15.3304 2.93732 5.1149 -1.45151
3664 1 6.99159 16.9504 12.7555 -1.5269 0.533853 0.772705
3669 1 0.837875 21.5538 2.886 -0.947993 2.09243 0.819573
3713 1 2.19247 21.2511 5.24658 3.99171 -3.2827 0.631288
3715 1 20.522 19.412 19.1801 -3.81552 0.750994 -7.05959
3720 1 17.3138 16.4094 16.2579 -2.01631 -2.47671 -1.93463
3732 1 17.9953 18.3101 5.41568 2.75887 1.17966 3.22486
604 1 1.07084 24.1444 24.1056 -1.94706 0.613402 -2.81892
3760 1 15.7964 24.8869 1.94471 -1.63366 2.78125 -1.73819
3783 1 20.6579 19.4042 4.13905 2.07897 0.675964 0.601887
3788 1 6.54822 15.4068 8.93705 -0.54886 -0.632167 -5.12052
3795 1 14.8606 23.5351 20.5886 -1.31958 1.6655 0.531583
3804 1 13.2605 14.9238 10.7131 0.187164 3.56812 -1.85931
3818 1 12.9767 16.9552 23.4925 6.01221 0.60366 -0.586973
3819 1 4.19425 22.0718 14.7043 0.440569 -0.690235 2.46216
819 1 9.47986 11.6635 21.1904 6.13474 -1.22401 -0.116175
3837 1 10.9065 13.6486 4.06178 -4.14952 0.783029 3.08574
3859 1 22.5695 17.8901 10.2512 -0.139864 -1.28508 1.28557
3885 1 13.1058 24.1631 14.0069 0.704456 -7.50533 5.23528
3890 1 1.46341 19.0354 14.9721 0.0933059 2.65898 3.53159
3897 1 7.12705 13.6166 23.2515 0.236594 -5.05427 -2.95662
3911 1 20.9624 19.5102 0.620994 -4.93621 -1.68541 -1.00113
3974 1 6.21323 23.6262 13.4574 4.55964 6.66263 -2.24204
3987 1 12.8935 15.4532 17.236 -1.33064 2.119 -0.814248
4131 1 1.64665 27.3853 2.4858 0.674864 -0.159262 -0.847121
4132 1 3.09824 25.3737 1.12587 5.52848 -1.21938 -4.28648
4139 1 2.50536 28.1229 9.81316 2.3815 0.893742 4.27568
4140 1 3.82922 25.8196 9.23638 3.78416 0.0435475 1.55923
4143 1 2.08094 27.6214 5.1513 -3.32681 1.12092 -1.49578
4144 1 3.40206 25.6289 6.51254 -0.545862 1.53107 5.01622
4155 1 1.57724 32.6816 2.56778 -0.981739 1.25733 1.98125
4156 1 2.70993 29.8326 1.45963 -1.44225 6.96927 0.785784
4163 1 2.07457 32.6278 9.78488 -1.51238 2.56209 2.96635
4164 1 3.40906 30.4611 8.68871 -2.78209 2.52064 -1.73529
4167 1 2.08378 32.4816 5.39701 -0.61514 -6.67987 0.847164
4168 1 3.27003 30.0454 5.73478 -1.57979 6.61739 2.10994
4179 1 1.33962 37.1058 2.73444 1.09349 0.927106 3.50161
4180 1 2.61091 34.9916 1.53219 1.32678 -2.67994 -1.37583
4187 1 1.77811 37.1548 9.89058 1.85787 0.746059 1.26081
4188 1 3.333 35.0305 9.06943 0.239982 -0.930641 -3.87089
4191 1 1.5055 37.4224 5.58126 0.222961 3.40132 1.65028
4192 1 2.6408 34.9733 6.5025 8.33448 -0.251995 -3.44911
4203 1 1.31377 41.6379 2.47686 -5.40378 3.21368 -5.09819
4204 1 2.7015 39.2359 1.49817 -0.336496 2.94011 2.26252
4211 1 1.88185 41.5833 9.49644 -0.624666 -3.2122 1.07264
4212 1 3.06733 39.369 8.76308 -0.622549 -3.47309 -2.37807
4215 1 1.53056 41.7033 5.25165 4.08756 -5.34465 -0.0339558
4216 1 3.01561 39.6201 5.97314 -1.306 -0.915343 -0.321103
4227 1 1.009 45.8096 2.67391 4.42148 -4.42261 2.25533
4228 1 2.66612 44.024 1.36666 -0.896625 -3.48901 -4.92879
4235 1 1.79815 45.8848 10.2192 -1.03245 2.3198 -1.31834
4236 1 3.0655 43.9311 8.89678 1.51456 1.85956 4.8871
4239 1 1.67102 46.1516 5.623 0.456877 3.94417 -1.70486
4240 1 3.08185 43.7927 6.2947 2.26818 -1.70455 5.78306
4249 1 5.87423 25.556 2.25372 1.81462 -0.668782 1.86976
4250 1 6.97326 27.7102 0.995027 0.838822 -2.50088 -3.67966
4251 1 9.73014 28.2389 1.5082 0.946329 1.98899 -4.40625
658 1 21.23 11.9783 12.6343 1.11258 0.884609 -0.109974
4257 1 6.48867 26.1784 9.47679 1.37903 4.69763 -5.21179
4258 1 7.65153 28.4085 8.52521 1.46506 1.72713 3.34752
4259 1 10.5263 28.1002 8.91019 1.94691 1.57595 2.21077
4260 1 11.3967 25.6695 7.68959 -0.0334214 -1.82213 3.02077
4261 1 5.9286 25.8361 5.12422 0.198428 -0.781993 -3.38998
4262 1 7.17928 28.0847 5.76848 -0.737496 1.98799 0.142971
4263 1 9.55645 28.2379 4.2178 0.315333 2.17863 2.26404
4264 1 11.1231 26.0898 4.9374 1.20238 -4.36325 -3.34113
4273 1 5.55774 29.8878 1.93129 2.70143 -2.51014 2.13036
4274 1 6.46709 32.466 1.07666 0.104565 2.09254 3.64482
4275 1 9.18466 32.7263 1.52205 3.21129 1.89716 1.13563
2887 1 23.3649 17.3426 20.7126 0.758095 4.00713 -4.01514
4281 1 6.21846 30.7208 9.17057 1.59502 4.05765 -2.42614
4282 1 7.49097 32.8512 8.13025 0.469502 1.09169 -3.45285
4283 1 10.0811 32.6008 8.73128 2.47392 -0.328623 -0.184764
4284 1 11.7459 30.5137 7.95206 -0.831598 -3.37752 -2.49464
4285 1 5.79769 30.2458 4.67692 3.95807 4.02818 -0.662681
4286 1 6.79005 32.8533 5.36718 2.42635 0.838325 0.337991
4287 1 9.54083 32.6489 4.16262 1.64872 2.38031 -0.102316
4288 1 11.0345 30.3696 5.23961 -1.31944 1.07737 5.81931
4297 1 5.29518 34.8013 2.21529 4.22864 -1.70607 -2.64694
4298 1 6.10532 37.2085 1.11971 1.80373 1.466 2.64119
4299 1 8.77383 37.1928 1.56293 -0.570852 0.0983863 1.09808
911 1 0.159182 14.6056 24.0974 0.509707 -1.47713 -3.03248
4305 1 6.10848 35.0749 9.15295 -2.92322 5.50888 0.933596
4306 1 7.45722 37.3005 8.40455 0.00619273 4.08138 -1.00117
4307 1 10.0361 36.9654 9.27353 -0.278349 -2.29895 3.50479
4308 1 11.0823 34.8819 7.82033 1.61675 0.835751 4.36271
4309 1 5.38087 35.0712 5.09422 1.95405 -2.66044 4.55171
4310 1 7.21655 37.121 5.6809 4.08198 -1.02721 -2.37425
4311 1 9.44832 37.3011 4.31771 -3.52797 4.50823 1.39157
4312 1 10.8 35.0202 5.09605 -4.86084 1.09336 -3.72056
4321 1 5.52918 39.8086 2.12428 1.38871 -0.413861 0.662229
4322 1 6.84918 42.0439 0.962411 2.59909 -1.04864 2.24485
4323 1 9.52612 41.8549 1.69783 -3.40042 2.63921 -1.67308
4324 1 10.4782 39.3458 0.81502 -1.99902 0.0377698 -3.66013
4329 1 6.04669 39.2888 9.39212 2.95264 -3.054 1.8911
4330 1 7.01576 41.6389 8.56858 0.936118 1.84884 0.410032
4331 1 9.7239 41.7234 9.01741 5.43971 -2.33662 0.849657
4332 1 11.3258 39.294 8.01222 0.216805 3.82796 -0.836605
4333 1 5.66228 39.427 4.96376 0.0713416 -2.46324 -0.049728
4334 1 6.77663 41.8505 5.67021 -0.462655 -1.8903 2.81411
4335 1 9.66314 41.8986 4.59487 -2.31908 -1.65015 0.182032
4336 1 10.641 39.4432 5.31472 -0.688849 3.02343 -1.33824
4345 1 5.19302 44.0016 2.1555 4.07847 0.527213 3.98988
4346 1 6.3501 46.6294 2.16165 -2.27183 1.82363 5.5511
4347 1 9.14235 46.1052 1.86481 -4.88377 -0.0493451 0.485
4348 1 10.1597 44.106 0.225414 -0.668421 1.4362 1.6996
2272 1 -0.220854 12.3035 10.3655 -0.50099 4.14904 -3.40539
3460 1 -0.0367577 20.4045 17.0856 3.00207 -1.31478 -4.45532
749 1 -0.228633 13.2109 7.63885 0.041074 2.44217 -0.589525
1115 1 22.6466 22.5976 23.8986 1.50526 2.7547 -1.84279
2291 1 0.166473 19.4607 19.8874 0.0380863 1.81465 0.236731
3522 1 23.3296 14.3252 24.1212 3.02262 -1.87917 1.40428
2409 1 6.19988 11.3306 14.6875 -1.28054 -0.509706 1.48467
1639 1 13.0305 11.4226 19.6598 -2.57507 -0.915046 0.599848
3757 1 -0.0546872 21.7576 0.182438 -1.942 1.24004 -0.149998
1004 1 23.3297 22.6387 8.78152 -3.76122 -2.25587 -1.22269
2137 1 17.2831 16.2387 24.1149 -1.50179 0.68502 -1.19661
2993 1 23.833 17.0332 16.7365 -1.29341 1.37001 0.249658
1979 1 -0.303446 21.1393 11.6484 0.837123 0.161605 -0.939874
1939 1 11.1648 11.3648 2.43308 5.78862 2.85746 -1.47829
3930 1 14.0585 19.399 -0.0607207 0.685104 8.99301 -3.10454
3482 1 18.3592 18.5554 0.172428 3.00176 2.59818 2.35395
