ITEM: TIMESTEP
600
ITEM: NUMBER OF ATOMS
4360
ITEM: BOX BOUNDS pp pp pp
-2.4751850080572936e+01 2.3942685980576918e+01
-2.5014242591484482e+01 4.7530678191484476e+01
-2.4351367880676747e+01 2.4343166280680805e+01
ITEM: ATOMS id type x y z vx vy vz
1 1 22.4064 -21.4383 12.6367 -0.62629 -3.61249 -1.67977
3 1 4.73578 -7.49057 -23.8689 0.546622 -3.01532 -0.438091
4 1 1.75511 -1.35524 -7.11345 0.544764 -4.2567 0.887417
5 1 -20.3177 -21.3721 21.0143 -3.77583 -3.73035 -2.53451
8 1 -23.7963 -12.1145 -13.9351 -2.36321 -0.0210816 -2.82817
10 1 -0.408451 -8.46743 15.2655 -0.594035 0.721826 -0.451796
11 1 5.21939 -11.0866 17.6464 4.83036 0.572189 1.13304
12 1 20.1883 -6.31717 -21.4131 4.51171 -1.15423 0.87721
13 1 -21.505 -14.6918 13.861 3.90794 0.812157 1.00103
17 1 16.6933 -9.44086 16.7554 2.53597 -5.32797 -1.61833
23 1 -12.0048 -23.2198 21.2783 5.54593 -0.396543 0.697559
29 1 -8.38372 -12.3836 -9.86613 0.418596 3.01621 -3.25476
30 1 21.4948 -1.41097 -22.2195 -2.16049 -2.31433 4.5291
31 1 3.27001 -15.8796 -19.7135 -1.83923 -2.98378 -1.84074
34 1 -20.1315 -23.2938 14.8146 -1.6547 2.5763 0.583468
37 1 -10.7908 -6.5741 -2.38872 2.75778 -2.95017 4.27139
41 1 6.32965 -6.81841 -10.8232 -1.25074 -3.67651 0.0522429
42 1 -17.6249 -16.212 1.28206 2.74753 -0.0493186 1.29219
43 1 -14.6631 -4.39164 2.16359 0.731024 -2.56785 -1.58099
44 1 -2.86452 -17.0469 -8.19522 -1.72554 -2.09918 -0.331118
46 1 -23.4783 -21.4037 18.1071 -2.85009 4.09402 -0.564717
50 1 14.8814 -19.8528 12.8847 -0.306111 0.850234 -0.68401
51 1 -8.75849 -3.36289 18.5087 5.33412 2.50805 -1.92103
54 1 -17.4332 -11.3381 -11.1477 2.99773 -3.712 -2.43511
55 1 -6.68305 -3.28096 -16.2733 -4.32879 1.11251 -1.69455
57 1 -16.1796 -9.19932 -3.97171 -1.67431 -4.18339 0.495318
58 1 2.41823 -20.5638 -3.84448 8.165 2.21746 -2.1321
62 1 -1.77161 -10.1334 17.2247 -0.263616 0.207767 1.38296
64 1 -10.7015 -1.35313 2.43561 -0.390308 1.59973 -1.16884
65 1 19.0992 -2.86822 8.63354 2.94575 -3.7554 5.11259
66 1 -12.1287 -16.135 -13.1685 1.22491 -1.28239 -3.44286
73 1 -12.5172 -17.6978 14.7157 -1.37716 -4.78488 -2.86099
76 1 -24.2382 -4.27094 1.74723 0.913423 -1.0642 2.42214
77 1 12.9913 -21.826 -1.35809 -2.67437 1.26318 -0.952578
261 1 -1.89421 -24.4771 10.9851 -0.169211 -0.0718269 -5.78972
81 1 0.164642 -10.7567 -14.688 -2.849 -1.55043 6.91701
82 1 6.07325 -24.5005 4.65417 -1.48223 -1.82513 2.13756
89 1 -11.314 -3.89469 22.8332 -1.73314 -0.0624247 -0.405773
90 1 8.30717 -4.58124 6.56014 1.2135 5.41034 -3.45883
92 1 15.1302 -23.1776 0.270504 6.37342 3.32862 2.61177
93 1 -20.5456 -22.1691 17.4679 4.05927 3.01058 0.0692004
95 1 2.74886 -4.37993 -12.2106 1.30159 4.75296 -1.59445
96 1 -24.6498 -15.9987 22.3549 0.459339 0.389463 -3.2127
97 1 -7.56323 -14.3345 -21.9166 -2.25605 -0.978524 -2.33895
99 1 17.5409 -21.8178 -5.4568 0.79376 -3.1573 3.58615
100 1 -23.6208 -15.2828 -23.8267 1.15099 0.552645 -0.83819
101 1 0.0622306 -19.5856 -10.4142 1.77279 7.9527 -0.996553
104 1 -14.7005 -22.9548 -9.95035 6.54794 1.16392 0.84164
107 1 20.6562 -2.14866 18.3132 -1.92082 -3.80544 -3.92562
110 1 10.046 -13.3829 -8.21261 0.32776 4.73982 6.91374
111 1 23.2638 -5.71728 -12.4247 2.00154 6.5354 -1.60081
113 1 -4.05609 -7.30839 19.6888 4.83465 1.38566 1.94664
114 1 -23.0536 -19.0892 19.39 4.68411 0.245807 -3.99205
116 1 2.8242 -15.0235 -17.0307 -0.680855 1.11496 -0.484401
118 1 4.75991 -17.8087 -9.11879 -5.54792 -2.04862 2.63305
3989 1 -16.0124 -10.4085 -13.3819 -2.25091 -2.64966 0.239368
121 1 -6.8899 -18.8663 24.095 -0.222662 -1.72576 2.91343
124 1 22.8447 -20.8669 -14.8342 1.84972 -1.20104 5.00139
129 1 16.8428 -10.2953 4.00516 -3.71293 -1.31556 -0.565921
131 1 2.32274 -8.39242 -20.7181 3.7649 -1.42838 0.536324
132 1 -6.88534 -4.01818 -23.4634 0.447904 4.64517 1.13193
134 1 19.8847 -7.82329 -23.7902 -3.45018 -1.43687 0.646459
135 1 -14.517 -5.0543 -22.0444 -5.75154 -5.49943 0.0213574
139 1 -19.5104 -19.3653 -15.6137 1.33578 0.620007 -0.995168
140 1 2.30496 -6.46409 20.1822 -2.15504 -1.75716 -2.69744
141 1 11.4216 -18.0679 3.58762 1.81194 3.60901 0.624027
143 1 -4.1054 -2.25661 -3.37115 -0.228988 2.70662 -0.303734
144 1 -23.3299 -9.71824 -15.2438 1.12371 1.17385 0.893671
146 1 -11.7717 -10.7775 14.4063 -2.58121 0.980115 -3.28308
149 1 -19.7146 -24.8674 -18.25 1.34345 1.99714 1.99512
152 1 -6.23488 -4.47362 18.2213 -3.77849 -1.9989 -0.755653
153 1 9.05656 -15.0479 -2.88528 0.732252 1.32075 2.22311
155 1 23.1073 -21.4208 -19.8159 -0.833268 -1.32423 2.10858
157 1 12.2079 -13.0841 -15.1362 -0.457105 1.86201 3.39617
159 1 -22.6982 -11.3102 11.4754 -3.26714 -2.12761 -5.8185
160 1 -4.70099 -15.9236 -4.37874 2.19054 -0.801784 4.06832
162 1 -16.2871 -10.711 20.7717 1.89512 -1.20772 -2.52314
170 1 -6.22971 -18.3101 -14.0771 -1.02472 1.22448 -1.77449
177 1 -5.02565 -20.2992 11.9393 -2.41389 0.655076 -4.40308
179 1 -7.19442 -7.3788 -12.9407 -0.722645 5.63523 -2.19867
181 1 -4.34968 -3.91813 -20.2327 0.543004 0.00460391 -0.216292
182 1 -23.7651 -2.05477 16.5239 3.30078 -1.80591 1.60279
184 1 3.83168 -22.7999 -22.4932 0.309785 -1.56434 -3.52174
188 1 6.41868 -22.469 -4.25405 1.8501 -0.432575 -0.592848
189 1 -4.08279 -5.86473 3.3036 0.446942 -2.02638 -2.90107
191 1 2.4015 -4.29626 -21.8651 -0.424841 1.92688 -2.65999
197 1 -24.307 -4.07829 22.9607 -2.97979 4.2395 -5.21275
198 1 -12.1185 -21.7093 -17.4349 3.92893 -5.1617 -3.01478
199 1 -23.2939 -5.04853 -10.2877 1.63972 0.474582 0.638651
204 1 -6.75418 -16.2666 -9.7378 0.646152 0.00770417 -0.288575
205 1 19.8191 -6.00776 12.0892 1.21132 2.30896 -1.08733
206 1 -4.08909 -14.7143 -19.6272 -3.88731 1.81593 -0.608038
208 1 2.87667 -6.04518 16.0283 -1.25664 -1.06324 -2.42133
213 1 -21.0106 -19.5592 -2.64397 -3.93649 -0.485787 -2.4152
214 1 16.8736 -5.5827 -20.329 9.00702 -1.48824 -2.09498
1359 1 -22.3661 -24.0435 23.2171 -4.43337 4.2479 0.300206
222 1 -12.5492 -8.71667 -1.27427 -3.72179 -1.01631 0.025973
223 1 -23.6076 -5.97383 -0.87534 0.106007 2.10234 -1.57432
224 1 -13.621 -3.31607 24.1139 1.97966 -1.93959 2.3559
225 1 3.70015 -13.7908 -5.91474 4.3341 -2.79599 -2.90403
231 1 23.731 -3.01362 -21.5582 -0.25381 0.899769 0.65062
232 1 -2.12632 -13.2858 10.6876 -3.06708 -3.18076 0.789268
279 1 -23.9709 -2.31107 -0.389214 -4.667 1.5952 -2.76013
236 1 16.9762 -9.43003 8.19822 -0.619295 -0.45989 -0.40133
238 1 17.2372 -1.77491 23.7121 -0.298301 2.53942 3.37742
241 1 -22.8965 -14.85 11.0109 3.53529 2.2491 -1.60203
242 1 -9.86627 -4.08617 -12.97 -0.530742 -1.4329 0.117026
243 1 -7.20957 -8.75926 11.5514 2.52553 -1.60565 -5.34654
247 1 -23.8211 -7.04551 13.8167 -3.35729 -5.44299 2.08595
249 1 -0.872278 -18.5514 10.081 0.0583571 2.8053 0.878777
2203 1 5.95261 -0.86724 -1.47468 -5.78428 -1.15207 4.4163
251 1 -22.5177 -1.91464 -22.2576 -5.92252 -2.46981 1.30589
253 1 -1.43787 -2.14913 -23.604 1.19053 -3.44077 -1.06626
254 1 5.69384 -11.7991 -9.10508 3.37071 -0.178544 -2.25008
255 1 23.5048 -22.094 10.061 -1.378 1.24096 -4.38268
256 1 -11.8148 -4.95996 -10.8963 -1.27262 -0.0758983 -2.59638
258 1 -5.54451 -1.83608 -5.8373 3.3874 2.51852 -4.97883
259 1 18.0919 -16.6944 -17.5556 5.69725 0.0576185 -1.92153
2868 1 3.28636 -24.6987 20.4984 3.58346 2.26768 -1.01149
265 1 13.0703 -16.3878 -6.21433 -3.14961 -1.06726 4.41504
269 1 -19.4264 -8.45756 -14.2073 2.98259 -0.553985 0.360102
270 1 -23.3115 -16.7429 17.3297 1.87073 -1.25717 0.769409
272 1 12.074 -17.3664 11.1284 -4.32802 1.21688 0.448927
273 1 -18.3051 -11.0585 13.6075 1.90775 1.01721 -2.86928
274 1 12.1927 -12.0913 8.31028 -1.71021 4.93731 3.05265
277 1 11.5612 -13.7051 -19.3436 -5.18849 -3.308 -2.28336
280 1 -4.60363 -20.3993 -12.9924 4.60081 -4.7294 2.20815
283 1 -5.24704 -19.8065 -20.3073 1.94404 -1.62194 -1.41941
287 1 4.959 -9.14428 -7.82698 2.77244 0.665186 0.530498
289 1 -5.94391 -21.9066 9.30498 -2.21404 -0.397305 -2.17454
290 1 -4.93845 -12.2178 -16.082 1.45194 1.7039 1.48753
291 1 -11.1723 -17.1991 12.0689 2.80767 2.29162 -3.48177
297 1 20.0335 -6.95247 -7.11443 -6.48032 2.61003 -3.29193
298 1 13.8643 -20.3897 -20.8938 -0.51235 -2.5628 -6.06385
299 1 4.49952 -21.9526 -12.5934 -4.60329 2.80884 0.98307
300 1 13.8959 -3.71036 16.7393 -3.67515 2.64409 -0.572324
303 1 -21.7402 -18.1745 -7.93848 0.205739 -3.62084 -2.24567
304 1 -20.3551 -17.3175 13.9297 -0.805749 -1.64917 -0.111148
305 1 3.9274 -20.445 20.946 1.52228 6.89884 5.24787
308 1 -17.6949 -21.7145 3.11228 -3.12136 0.0429953 3.8977
309 1 6.39588 -18.657 18.3315 -0.0797874 3.19662 0.248178
311 1 12.9348 -9.75323 1.56544 -1.01474 -3.1296 -0.9206
313 1 -16.9783 -15.2444 -9.41794 -0.841249 -4.9584 -0.0696999
315 1 -15.3961 -23.2383 3.85088 3.19112 0.649621 -0.950078
316 1 22.1947 -5.42527 3.39496 5.51575 2.45767 -0.590426
317 1 -10.2717 -10.4792 -23.1695 -1.4568 0.7346 -1.86278
318 1 20.6413 -16.7273 21.1008 7.91648 2.97542 -0.35496
2960 1 -13.6708 -1.14737 -22.5007 -0.185959 -1.67859 2.4494
321 1 -19.5619 -11.1834 -13.2365 1.15804 1.94126 -3.48226
325 1 -0.473587 -20.9444 18.9755 -1.71719 -1.19616 3.10292
327 1 -7.85197 -11.5764 20.8412 -0.145871 -1.86636 1.78041
330 1 -15.3382 -23.6585 -24.2599 -2.85401 -6.30302 -0.934117
333 1 8.73259 -10.4295 -14.8105 -2.40596 -1.38869 0.253618
334 1 4.33346 -21.7223 -2.10289 4.27076 -1.54633 1.38884
335 1 23.1588 -23.7623 5.59112 -0.119316 -2.17404 -0.592964
338 1 6.17836 -8.26884 18.2239 -2.36491 -1.84857 -1.81176
339 1 -6.45877 -16.1016 -23.7664 1.30305 -8.39487 3.96591
342 1 -1.1545 -15.4431 -11.1528 -0.499825 -0.547478 -5.16491
343 1 -2.75426 -12.4971 -5.68572 -1.26448 -5.78892 0.747103
344 1 8.87688 -16.0582 -11.1299 -0.336993 -0.0900281 0.184049
345 1 -11.7511 -5.36342 15.6967 -4.75439 0.21572 -0.662941
347 1 20.4102 -6.05728 9.1669 -0.304304 -0.485454 5.31184
348 1 -11.9356 -3.66344 9.84463 0.455693 -0.675836 -4.76658
353 1 17.5746 -21.4517 -15.2151 0.269989 -1.01382 -0.0916302
355 1 -5.46367 -1.2418 8.04723 0.13828 0.669117 1.39881
356 1 -3.10002 -18.6524 -21.629 4.10866 1.4495 4.10482
357 1 -7.07663 -14.6157 1.73675 4.2251 -4.67658 2.66228
358 1 19.5428 -12.375 13.6635 -1.78109 -0.991615 -5.73425
359 1 -14.0846 -20.0779 -10.339 1.71164 1.06895 1.40705
361 1 -23.7292 -20.7569 -3.65903 -1.8489 2.75964 -0.808537
363 1 -18.1753 -19.397 11.0499 1.07123 0.856498 -1.81632
365 1 -2.4405 -17.0897 19.8298 -0.663246 0.870253 2.18669
368 1 3.71766 -6.60288 11.6236 -2.25108 3.17404 -2.72366
370 1 4.91134 -14.3013 -21.3136 0.401018 1.7958 -3.74147
3691 1 20.2761 -24.8972 -8.23163 -3.52678 2.52948 -1.24508
375 1 -22.9929 -6.79171 22.471 -2.57306 -0.836335 1.90691
376 1 -5.23432 -15.0706 -16.9883 -1.50087 -6.42632 -2.32988
378 1 17.477 -14.7641 -4.0813 -2.16936 -0.459149 3.65126
381 1 -23.1623 -13.5851 15.7048 1.33272 4.79381 -2.63241
383 1 10.5389 -24.2133 8.03055 -2.40005 -0.0322293 -0.953455
386 1 17.8012 -2.85749 -19.8951 5.19459 2.26855 3.56993
387 1 5.09601 -20.9461 1.28818 4.74945 0.791824 1.38061
1714 1 6.17785 -1.504 -12.8823 -1.25425 -0.290122 4.68363
392 1 19.2658 -10.9705 18.9671 -1.0769 2.6374 -2.46275
393 1 -14.2665 -18.2512 -12.8416 0.845186 -2.87079 -5.20621
1906 1 -19.6855 -24.7218 12.2276 -3.4857 -1.93445 -0.668457
396 1 10.0877 -19.7502 0.297421 3.2862 2.811 -2.37562
397 1 2.34642 -20.7627 18.3472 -4.0316 -0.108939 -2.90992
398 1 23.935 -21.5922 -6.55538 -1.98079 -7.26916 2.38938
400 1 -24.1316 -16.3719 -2.3147 6.11892 -2.00114 -1.86171
401 1 21.7374 -16.7083 -5.5869 -1.819 -1.9457 -2.67306
1854 1 3.63134 -24.5585 11.3558 2.53245 -4.56503 3.20175
404 1 -15.7957 -1.62931 1.82527 3.2634 -1.74092 -3.17772
405 1 4.71153 -23.6126 -6.5908 7.60823 4.35639 -0.806678
406 1 -9.09575 -20.232 22.7321 1.39056 -0.871916 0.940508
407 1 2.31039 -10.5865 16.3242 1.71946 2.59124 0.818271
408 1 -2.19179 -2.17724 -17.4895 -0.76375 1.77666 3.1649
411 1 -1.7701 -3.15714 -8.094 0.695153 0.5682 -1.81161
412 1 -17.0428 -6.92868 6.41341 3.67973 2.11835 -2.65552
420 1 -2.46516 -2.99929 12.2185 4.36319 0.299058 0.0422199
421 1 -16.3293 -22.8715 -14.7261 1.05712 -1.71799 -1.66053
424 1 4.80427 -5.20329 -2.08349 2.60424 1.74261 0.56516
426 1 -15.6477 -2.1333 -9.22904 -1.98046 2.14105 -4.42745
427 1 -16.2853 -23.9116 21.6448 -2.13995 2.43 4.28913
430 1 -22.4384 -2.28879 23.782 4.03165 -0.406488 1.15965
431 1 11.5319 -6.52303 -15.6476 0.700012 -4.31984 4.50145
432 1 8.4675 -5.34237 13.3066 0.19239 1.27061 -6.13317
434 1 -12.8686 -1.99272 -10.389 -1.85968 1.30582 0.73981
436 1 -15.6635 -10.2525 -8.36346 2.5022 2.43026 -2.67117
445 1 20.5748 -8.81979 -11.9532 -3.09643 -3.31743 -1.12423
446 1 22.386 -14.0833 -6.84109 -1.28942 -3.18556 -0.0312856
449 1 13.8812 -4.13366 -2.48844 5.64426 1.50112 -1.02448
450 1 15.9099 -20.649 6.09073 0.830759 0.405102 -3.58764
451 1 23.5311 -12.41 -18.8629 0.0769391 -5.9314 -1.02682
455 1 13.0401 -11.7929 14.695 -0.107636 -0.86917 -3.88956
462 1 -8.10492 -20.403 20.1707 1.85494 0.782054 -1.95722
464 1 -14.4103 -24.1452 6.31064 1.35538 1.07777 0.654043
465 1 -2.10154 -12.6399 3.56255 1.81564 4.2622 -0.559793
467 1 -6.0494 -11.8701 13.8774 -0.0185516 -0.296349 2.92965
469 1 23.7767 -13.3287 12.5424 1.7639 1.03 1.33566
471 1 22.8625 -5.78059 -8.83804 -0.983215 -3.08505 -5.84845
472 1 -15.6931 -6.09474 17.8672 3.08983 1.2383 -0.596406
474 1 3.40569 -7.17861 -11.5294 -5.39624 0.631118 -1.70918
476 1 -13.482 -5.4751 -3.17531 -3.34025 -0.162868 3.33829
477 1 -12.0146 -10.1622 -16.308 2.59225 -0.2703 -3.73482
479 1 15.8708 -15.9513 13.7524 -1.31375 3.43978 -1.81296
480 1 1.609 -10.4296 9.92737 3.80365 1.39202 -3.62969
482 1 23.7796 -3.63992 19.8311 0.306654 -0.23269 -0.701119
483 1 5.86032 -16.3457 0.186588 -0.0157 -4.46884 1.95048
484 1 23.513 -14.7531 -13.4227 0.916092 -6.52384 1.3613
485 1 21.2905 -21.1718 -17.3452 0.864109 -0.882398 2.20359
488 1 1.14521 -15.5042 21.6214 -2.06365 2.64773 -0.881062
490 1 16.5162 -15.1353 -11.2575 -1.02651 3.56185 1.16937
491 1 -20.5419 -12.3797 9.94818 4.26795 -4.11066 -6.1481
492 1 -16.037 -16.116 -12.0685 6.9488 -0.010539 -0.258985
495 1 -2.0199 -9.6405 -4.67648 0.514528 3.52109 1.85873
500 1 -5.51608 -16.4803 8.7542 3.87902 -7.81642 1.09996
501 1 -14.5009 -12.9486 -7.22993 -3.21669 1.28034 -3.16469
502 1 12.0356 -13.5085 18.4723 2.7119 0.456266 2.16544
506 1 -1.75966 -19.9806 -15.9625 -1.56902 -4.45397 7.83677
510 1 8.26479 -17.9304 16.0382 2.46822 -0.428604 -0.172559
511 1 8.14372 -14.0451 5.15862 -2.77807 -0.567115 1.08912
512 1 0.931808 -4.40351 18.5962 3.60128 -0.333881 4.4738
513 1 -20.5728 -13.5037 19.0611 -0.446685 2.21627 0.815248
516 1 8.56384 -23.542 -2.8757 -1.19495 -4.87331 -2.86457
3216 1 22.3904 -1.93223 10.1281 -0.250775 2.75023 0.42857
518 1 22.6762 -23.4493 2.93497 -3.70588 -1.86308 0.171236
519 1 -21.7079 -12.2855 -8.22275 4.60202 -1.59206 1.71946
235 1 -21.9642 -1.02154 -8.97536 4.2044 -3.76746 -1.02103
522 1 3.05878 -16.5199 6.35654 -0.223744 0.724045 -4.51292
523 1 -9.46627 -16.5166 -8.66081 -0.595626 -2.76234 2.01495
524 1 -1.10227 -2.54702 17.6576 3.5409 -3.14051 -4.40982
587 1 -20.0797 -24.1913 -10.3647 0.980395 0.970582 4.78845
529 1 -8.51998 -12.9641 8.24549 -0.850001 4.06386 2.43889
531 1 22.5757 -8.71899 12.8219 1.89137 0.783251 -2.25191
532 1 -10.1821 -2.84717 -2.79093 -0.155974 -2.93311 -0.806808
533 1 -10.1794 -19.0427 15.2905 -2.56662 -0.574254 1.01185
536 1 -1.06006 -8.20875 4.17916 -0.441808 -2.1061 0.27473
537 1 8.94815 -4.74534 3.14637 -1.29157 -1.00891 1.94222
538 1 -20.8486 -7.35969 11.793 -0.896789 2.07426 2.45829
540 1 -12.9132 -11.3744 2.83135 -2.6576 0.548614 -4.08168
543 1 21.5532 -17.4689 -15.8217 2.52124 0.924517 3.35232
544 1 -4.90353 -17.3689 -18.9369 3.27843 -3.74578 2.48314
545 1 21.9649 -17.1258 16.6338 2.76607 -1.42394 0.994488
546 1 -6.76088 -15.2939 -14.2843 6.20937 0.47807 1.45582
547 1 16.3237 -16.4411 -21.78 1.56001 -0.44203 0.365869
549 1 -20.8122 -4.93763 7.33603 -3.08048 3.46061 2.71298
550 1 -0.07239 -20.8892 -13.9454 0.0096291 -0.911605 0.947568
552 1 1.94232 -18.1949 -1.00174 -3.73468 1.22443 3.19583
555 1 -15.2441 -14.6351 0.224128 -3.98778 -1.43299 -2.73594
557 1 10.8336 -22.7248 -10.2278 1.92675 6.33939 4.56174
558 1 -3.48466 -12.0787 15.8478 0.174947 0.953871 1.7791
559 1 -8.53704 -19.1345 6.92206 -4.63075 -0.29583 4.32184
560 1 22.2425 -21.9438 -4.36892 -3.54269 1.39263 -1.13078
561 1 6.78614 -23.244 19.3707 1.42064 0.71695 2.12403
563 1 5.21467 -20.3929 6.0561 2.56157 2.29408 -1.4758
564 1 -10.9723 -19.612 10.4947 3.15319 1.80689 -3.55448
565 1 14.5485 -21.1768 22.7346 3.99276 5.09475 -0.872235
568 1 5.77862 -6.04875 7.23417 2.85044 0.391244 3.42229
571 1 -0.556487 -12.782 21.5992 1.82487 0.00379766 -2.99318
572 1 10.2346 -23.9206 3.76481 3.35795 1.42013 3.97311
573 1 18.3034 -5.72505 5.50929 -1.89673 1.07968 -1.71678
574 1 13.4925 -22.0396 -5.27875 2.89548 -7.86353 -0.91939
579 1 2.10718 -19.9716 -12.4029 1.96338 -2.47711 0.928236
581 1 -16.0178 -9.81526 15.167 0.723327 -0.0116171 3.73744
582 1 -2.5821 -13.0021 -17.8207 -2.4826 -0.106826 -2.55485
3066 1 22.5452 -1.06071 0.906062 -1.31321 7.9293 2.11249
591 1 19.5993 -18.5345 13.1157 -1.33157 -2.91817 -4.52245
592 1 -15.8892 -12.8852 10.6391 -1.58878 1.55204 -0.812999
593 1 -12.5298 -21.3262 17.4634 -1.27193 1.20692 -1.39871
595 1 8.22809 -16.7928 -24.3021 -4.60144 -3.59538 -1.50086
596 1 -12.1725 -20.9377 6.07815 1.03869 -2.50008 1.68151
597 1 -24.0919 -22.6408 -10.8542 2.19714 2.68705 -0.0279401
598 1 16.2658 -14.4729 4.79084 -1.73929 3.80206 1.41164
599 1 10.3794 -14.905 13.253 -4.86106 -0.350799 -0.590058
601 1 0.984541 -2.9546 20.9678 -4.22115 -7.13252 -1.96532
605 1 -21.0067 -2.36149 17.6465 -3.61822 4.27016 4.00967
3832 1 21.3753 -1.31123 3.54329 -2.82294 -5.42924 -4.38592
607 1 -1.41467 -3.44078 14.9417 -0.0334251 -1.43724 1.99034
609 1 10.3773 -19.8621 20.9085 -3.56747 -1.46735 -0.0938745
610 1 16.3933 -2.88845 15.1167 1.4693 0.770412 -3.25447
611 1 -2.29944 -7.08774 -5.98424 5.48912 -2.02337 -1.02569
614 1 -18.6213 -9.50442 -5.78802 -2.57839 -1.08837 0.260827
615 1 11.5807 -2.75614 18.5185 0.850463 -3.2521 1.62319
616 1 17.9215 -2.43055 20.764 -3.22051 -0.82291 0.771315
620 1 21.4348 -11.5056 -8.33385 -1.96454 0.933182 -4.49481
622 1 -22.6842 -9.94405 1.28894 1.65961 -1.87572 -4.99983
623 1 22.2347 -13.9688 4.05711 6.01259 -1.86209 1.34204
625 1 0.301764 -8.20183 -6.25321 1.61473 -5.83278 -0.427999
628 1 -21.6718 -15.621 -0.907059 -2.6619 2.1945 1.26669
631 1 -5.62369 -18.0498 16.5617 -3.39022 -2.29479 -3.11263
632 1 -13.8896 -20.9006 3.59727 0.682153 0.998635 -1.03668
634 1 -10.4025 -2.89781 16.2343 -3.72356 1.32332 -7.111
637 1 -10.6844 -22.6035 -23.0382 0.551201 1.80925 -0.202218
639 1 -11.2631 -17.8561 -23.1286 2.52969 0.346749 -3.721
642 1 -7.24167 -3.63048 4.93803 0.0430162 -0.772794 -0.892157
643 1 9.53032 -19.4484 7.39572 -0.688089 -1.36715 -1.24029
645 1 -9.86842 -7.74372 -19.5076 1.74721 -2.9638 -1.51736
648 1 20.9688 -16.149 -23.1123 -2.71697 4.20401 -5.58754
649 1 10.3014 -16.5656 17.5857 1.44037 -1.37085 -0.101951
652 1 -7.84148 -4.32671 -18.9513 1.31556 2.31011 0.760563
653 1 -22.4344 -21.9799 -13.4059 -0.25417 1.26106 4.12333
2780 1 -12.9881 -0.877755 -6.71959 5.22459 2.99273 -3.32703
655 1 -4.76177 -11.0404 -13.3027 1.99602 -3.06525 -2.8458
657 1 -0.0563195 -4.96694 -13.1236 2.52029 -1.73385 1.84853
661 1 -17.7271 -7.67078 -17.4564 1.22178 -0.423114 -4.95711
662 1 3.21662 -6.04567 8.71374 3.27736 1.51898 -1.38972
663 1 -12.7892 -18.8232 -8.10104 1.56926 1.82298 0.750471
664 1 -15.0275 -20.0865 12.6016 -3.39847 -0.199168 1.59428
665 1 -1.53358 -5.64423 18.8913 3.84564 0.277781 2.05406
666 1 -9.75202 -6.84007 -11.4994 2.45594 1.13233 -1.57163
667 1 -21.7239 -21.1396 23.4776 0.816938 -3.65432 -2.20418
669 1 7.18633 -15.1565 16.0329 -1.43417 0.251397 -2.99466
670 1 0.0850438 -14.3756 -0.473509 -1.58515 2.68676 1.17538
675 1 -22.1682 -9.46687 -7.31235 5.04961 -2.11595 2.29377
677 1 -22.7463 -12.4488 -10.9783 5.33024 -0.685314 0.313952
678 1 -21.1073 -6.1931 0.426886 -0.563423 -0.0673021 -0.0938695
684 1 9.75152 -20.276 -10.4222 0.574248 2.34357 -5.61612
1644 1 -19.6523 -1.37941 10.8901 -3.66666 -6.38574 1.16052
688 1 -10.7898 -12.243 -14.3291 -0.232301 2.37322 -2.19666
692 1 -10.0663 -6.53998 3.91573 5.93492 -3.56075 -6.33371
694 1 8.84059 -17.9036 2.50141 2.05712 -0.712763 -2.97941
695 1 7.72142 -10.2311 -7.97732 -1.04746 2.71012 -0.470358
696 1 -8.23322 -22.1417 7.64373 3.39152 -6.18202 5.05526
698 1 23.1066 -11.1449 -5.93482 5.14541 3.52218 -3.90801
699 1 -15.1262 -12.2339 16.1997 -6.74667 -0.518141 -3.34042
702 1 -16.7671 -3.62194 11.5519 -0.154022 1.47954 -2.51931
704 1 -10.6026 -11.7939 11.9632 0.211387 0.280011 -0.742071
708 1 10.3079 -6.48925 -18.2481 -0.707032 -2.2591 0.411496
709 1 -9.30235 -4.39305 -6.58629 5.42431 -1.71967 3.05671
710 1 -4.74028 -9.19208 13.2072 -2.99769 3.3414 -0.763694
711 1 -13.9735 -6.63715 -15.2838 0.118124 -4.66974 -0.0832448
712 1 4.64276 -9.63689 14.8185 1.41243 -2.89497 -2.15745
714 1 18.9871 -6.24405 -11.5209 4.32416 7.58041 2.57378
716 1 -1.57797 -21.8832 8.50376 -0.425038 -2.59148 -3.22378
717 1 -12.858 -4.26448 -13.5483 5.82556 1.35146 -2.47793
718 1 -12.936 -6.63188 3.20936 -4.11684 -2.49841 0.113385
719 1 14.3598 -8.08765 10.9501 1.22672 -4.80833 -0.261331
720 1 4.17156 -5.97011 -20.4892 -1.46721 1.42597 -3.21981
721 1 -9.22848 -9.25479 -16.1914 -0.307506 1.34639 6.86928
722 1 7.35229 -22.3179 -13.1354 -3.90902 0.696562 0.101111
726 1 -4.56732 -8.29423 23.3654 -0.0923681 4.03075 5.73818
727 1 7.79859 -5.29853 -13.2218 -0.940882 0.803882 2.01341
730 1 14.7022 -19.2203 -18.2746 0.409502 6.00022 6.87576
732 1 12.3229 -22.8951 -7.95795 -4.55309 -0.220781 -0.988
733 1 -14.0273 -18.2137 5.9281 2.29673 1.40071 -1.9905
737 1 21.0765 -16.062 5.32819 -3.17892 0.787526 0.953537
739 1 -17.6964 -18.6894 2.84182 -0.904477 4.2133 -5.42625
741 1 -17.0299 -19.3128 -13.8557 5.98227 5.853 0.709758
742 1 -8.15312 -22.5249 24.128 4.29283 -1.71929 0.976047
744 1 8.66359 -13.2216 -11.9499 -3.84164 -3.49732 -2.52948
746 1 -17.5647 -7.41411 24.0077 3.87869 -1.27315 -2.17152
747 1 10.5103 -10.6699 2.88785 -2.20831 -2.80496 1.41334
748 1 -13.0926 -20.287 21.4636 5.83639 3.86561 4.61171
750 1 17.1289 -3.91076 -12.5126 -2.37664 4.15745 -1.63692
752 1 21.1742 -20.3878 5.08256 -1.26402 -1.75642 2.22369
753 1 -17.9165 -17.8358 23.5492 5.00576 -0.975722 0.293427
756 1 -5.80681 -3.1147 -0.905785 -1.43878 -7.94446 3.84427
758 1 -15.6747 -18.9784 20.6305 4.03108 5.17874 -1.44369
761 1 -10.2907 -12.2295 -7.74299 -2.85361 -1.86131 1.47575
767 1 -0.976808 -11.8807 -0.302691 1.2251 -1.54363 -2.10961
771 1 9.35856 -17.2994 12.0979 -7.03207 -0.757414 2.25643
773 1 10.538 -20.6368 11.0163 -5.0516 -0.111603 2.84853
775 1 22.4176 -18.5971 -10.9829 -1.73112 -3.22647 -4.38211
777 1 23.1331 -11.8683 -10.7509 -3.89995 3.29304 -1.59809
778 1 1.69631 -17.5463 -16.0564 -2.70644 -1.0368 4.33185
780 1 -6.57439 -9.48804 -20.2189 2.61716 -3.49091 5.23507
782 1 19.9575 -7.99639 -14.6259 0.529537 0.370567 -0.641007
783 1 5.61516 -15.9673 22.3426 4.20278 -3.39153 1.23853
793 1 23.1331 -8.77856 0.508622 -0.310297 5.14191 -0.884038
795 1 19.6017 -8.12786 21.9061 -3.62973 0.717959 -0.541528
796 1 -10.1328 -15.1903 -15.0952 0.470601 1.41438 -4.68668
797 1 -18.7793 -13.8523 14.2662 6.74791 4.7263 3.82592
800 1 -18.9635 -11.3389 17.6309 -3.19441 0.444543 4.90223
802 1 -20.2619 -20.1559 14.315 2.85293 -0.904841 1.28961
803 1 19.7744 -9.17498 -9.04785 1.45416 0.0456014 3.39487
804 1 6.90285 -19.9044 -9.77647 -1.72937 3.35687 -3.42155
806 1 -1.08938 -13.1062 13.3855 2.99165 0.890232 3.45368
808 1 -2.21709 -18.1831 -11.1288 2.20635 4.00178 1.41858
810 1 -21.5362 -13.6634 -5.79514 -0.905309 -4.18297 0.830912
811 1 -14.7785 -8.08903 -6.25223 -4.0926 -1.48397 3.51805
812 1 2.92296 -12.2267 -8.44329 1.34812 -1.84719 5.90682
814 1 -21.3498 -2.03216 -1.41874 -2.86447 -1.66299 -0.178021
816 1 18.1829 -20.8999 19.0719 -0.89887 1.06485 1.80803
817 1 7.84504 -11.2772 16.3419 0.272747 0.412209 0.913892
821 1 -23.6707 -23.7613 -23.2093 -6.42294 -5.61682 -4.18772
822 1 21.5441 -14.1806 17.1087 -0.683198 -0.232155 -3.53643
823 1 6.6548 -9.86077 3.31166 2.22775 -1.38158 0.496673
824 1 3.25739 -20.1414 -6.80606 1.81988 -1.02202 2.74342
828 1 -7.81732 -20.2042 12.7751 0.03343 -3.82251 -1.51865
830 1 -10.6806 -10.3706 20.6494 2.18956 -1.36473 3.19583
831 1 2.40808 -14.661 -22.8105 2.66969 0.77553 1.10883
832 1 -5.01222 -3.94607 11.198 -0.916971 2.95611 -0.917876
833 1 -12.4758 -5.47288 -8.19647 -5.96491 3.10702 2.68519
836 1 5.46259 -12.9874 23.077 3.7024 -0.825189 1.04562
837 1 -19.532 -15.7717 -6.30039 0.11387 -1.31354 1.8564
838 1 22.0253 -20.2289 2.10641 1.23544 6.58197 -0.326826
840 1 2.58867 -16.5891 13.104 1.75089 -2.93031 2.93083
842 1 -6.8502 -22.3038 -3.03768 -0.0789293 -2.49394 9.37744
843 1 18.1367 -5.45708 18.2343 2.78371 1.84846 -1.21614
844 1 16.8707 -19.4243 -21.5826 -1.87059 -3.17107 2.20918
847 1 -13.6617 -23.6069 -14.7344 4.979 -5.68512 -0.700974
849 1 21.1824 -13.7647 -11.9864 1.77263 0.59751 2.61955
850 1 17.0152 -20.4052 24.1126 0.208232 0.506083 0.295746
852 1 11.9868 -1.86633 -1.58783 0.403626 0.740839 -1.53705
854 1 -23.4559 -13.7534 4.44057 -2.01243 2.6013 -0.452142
856 1 -20.1539 -3.09055 -9.41534 -3.10637 8.88463 0.12266
857 1 -24.5148 -6.28133 9.55649 -2.10944 -0.480696 1.08657
858 1 16.7248 -11.926 14.1548 -1.50381 5.12555 -5.43037
859 1 -15.0709 -8.28218 0.278598 1.38633 -0.530304 -1.15505
860 1 13.0143 -8.97912 -16.4715 -0.390818 5.61925 -4.57514
863 1 18.2191 -16.0044 6.2313 -2.21414 -3.60788 0.745544
865 1 -1.01368 -21.019 11.1911 4.63694 -3.24668 -2.36117
866 1 13.8589 -3.06275 21.7803 -3.0473 -2.89568 4.00723
872 1 -4.81222 -6.86755 -20.8008 0.0249591 0.805217 -4.24227
876 1 12.9702 -14.3615 -8.32564 -0.206198 -4.34458 0.858879
877 1 0.205917 -18.1163 19.058 -2.36952 -7.34686 -2.10994
881 1 -2.6575 -3.37501 20.2066 2.27317 0.697718 1.84196
882 1 -13.0546 -2.79242 -1.84315 2.89738 1.40182 -4.01859
884 1 18.0185 -17.7709 -14.9127 1.06482 7.13337 -1.54094
885 1 -4.75887 -18.5611 -3.54473 0.870233 -3.50584 -0.161198
887 1 9.29245 -23.5254 18.4226 2.0136 -3.10165 -1.60323
889 1 -15.6609 -2.8517 15.2078 -1.93775 -0.852733 2.24024
890 1 12.0553 -19.231 13.2279 -3.06227 2.77148 1.24162
891 1 -22.7432 -2.39105 3.88419 -3.50371 -5.07652 -1.52498
892 1 4.14078 -10.0059 -5.06356 0.0947312 2.70833 3.22619
893 1 20.2134 -4.15395 1.45778 -1.79122 -0.37203 0.0552151
895 1 1.53806 -23.6883 6.00636 0.737486 4.64398 3.05109
896 1 10.8737 -3.98179 21.1619 2.61405 3.68309 -1.92342
897 1 -12.776 -23.6912 10.9283 4.21143 3.99035 -1.02616
899 1 14.2685 -18.3668 17.9707 -2.75034 0.914529 1.27626
900 1 -14.505 -14.3663 -13.5973 0.148745 -1.91674 0.759633
901 1 3.41585 -20.2398 9.22454 3.05264 -1.57658 -3.88852
904 1 -10.2215 -6.94199 -7.03362 -6.42105 1.01145 -5.65396
905 1 22.753 -7.79141 -24.0324 2.23634 4.22982 0.269113
906 1 -8.50284 -23.4719 18.235 -2.90663 2.06133 -3.62478
908 1 -8.69994 -17.4302 13.0439 -3.78266 -3.37844 -0.866943
909 1 15.5959 -21.6237 10.6432 0.190113 -1.61994 1.68189
915 1 16.1571 -6.54755 -13.6748 2.13873 0.579844 -3.42383
916 1 -18.1198 -17.0344 20.7731 -3.56994 5.26991 -0.272513
921 1 9.42947 -9.78825 -20.8154 2.13247 -5.19214 -3.84725
923 1 2.26489 -10.3065 0.994606 5.94621 -5.90581 -1.50889
926 1 0.945019 -15.0009 7.56893 2.54629 2.09527 2.18405
928 1 6.57353 -17.205 10.5717 -2.17089 -0.539326 1.65637
929 1 -8.11178 -14.2993 -4.62397 2.12277 -4.7022 -1.29461
930 1 -20.6207 -18.2218 -13.2239 5.72194 -0.980737 0.419265
933 1 -19.5097 -22.342 -23.4495 1.83395 1.70944 -2.31044
935 1 21.4875 -10.2302 -1.33317 3.60669 5.42933 -4.79178
939 1 -7.52394 -11.1611 -17.2217 0.919272 2.12669 4.45836
942 1 -7.32047 -16.4852 -19.8908 -7.79972 -7.36614 -1.10682
943 1 17.6073 -4.91643 1.06102 1.99584 -2.02694 -1.60674
944 1 -16.65 -3.47452 23.6959 -2.80544 0.744304 0.217281
945 1 4.38471 -23.6731 17.9697 -0.168869 3.75508 -3.28787
946 1 -14.7302 -8.55268 5.84724 0.356607 0.803031 0.452718
3702 1 -6.22923 -1.62697 -13.6477 -4.06488 -0.469904 0.80613
952 1 11.2844 -14.6038 -10.5924 3.15425 -3.47696 3.05155
953 1 16.8807 -2.54291 2.5284 -0.940976 -0.0919326 0.587604
956 1 -13.6041 -7.57129 -10.0548 -4.20475 4.94544 -1.38095
957 1 -4.29896 -2.72845 14.7043 -1.14551 -3.10675 5.37413
959 1 -15.3472 -18.1486 -23.417 0.429316 -2.70112 1.68091
960 1 -2.39481 -22.875 4.36665 5.65019 -2.70981 1.48063
964 1 13.5643 -16.4578 -22.756 -3.40067 1.72849 -1.86709
966 1 -17.318 -7.36631 13.7363 -1.72047 -6.2373 0.549592
967 1 20.4386 -5.30172 -13.8761 -5.0382 1.98421 2.78806
969 1 15.4282 -22.5223 2.90414 -0.379835 -4.82012 0.579462
970 1 -3.69241 -23.4907 -9.38837 -0.477975 -6.3972 1.2455
971 1 14.9271 -6.43543 22.8055 -0.180828 2.15179 2.40077
972 1 -9.08616 -18.5766 -1.19788 3.86945 2.19341 -0.150403
973 1 -13.8239 -4.0189 17.3113 -0.718921 2.26066 5.15403
975 1 -11.0729 -9.85268 6.84986 -3.88587 0.10132 1.53213
976 1 -18.5157 -6.99472 10.0933 6.19992 2.78439 -0.133514
977 1 3.41621 -22.7095 13.5634 2.54548 2.57283 0.740176
981 1 5.97715 -2.31766 -5.59964 -5.84519 -3.52292 0.140952
982 1 -6.85392 -8.60611 4.98946 0.75367 -1.4884 4.67578
987 1 -22.8558 -17.6612 12.2486 1.62019 -0.0433209 3.86682
988 1 -10.4062 -23.5103 9.25664 0.413931 -0.130361 2.50519
990 1 13.3027 -7.24912 13.3999 -0.463545 -3.04009 -1.68144
991 1 -6.71998 -7.95747 7.7039 -5.66708 2.17515 0.51549
994 1 22.7961 -17.8577 19.3711 -0.661009 -1.64428 4.79521
1001 1 -20.1566 -3.38067 -6.36373 -2.62396 0.325138 -1.02234
1002 1 -13.3478 -16.1003 4.19527 -4.07762 -2.50768 -0.941531
1003 1 11.8888 -13.8114 10.8299 1.18955 -1.08845 0.932323
1008 1 5.65458 -2.21265 15.8775 -2.25077 1.33005 4.66981
1009 1 9.34787 -17.079 5.43701 0.869393 -2.72677 -1.34284
1013 1 4.54852 -16.6861 2.62097 5.65122 -2.66975 -2.47581
1014 1 -20.3561 -22.2084 3.51738 8.32131 1.72176 0.595553
1018 1 -22.898 -20.7784 6.76333 1.69782 1.75059 4.16983
1020 1 -19.9657 -23.2309 9.88193 -0.14681 -0.24898 3.17913
1021 1 19.9439 -18.5203 -4.35939 0.570218 0.732579 6.15944
1022 1 -9.34284 -22.3213 -10.9005 2.24746 -1.13577 2.66049
1027 1 -22.2429 -4.91242 12.707 -0.972411 -5.45749 2.55965
1028 1 -7.31208 -11.9445 -12.577 -1.68432 2.58753 -1.70335
1030 1 -18.7334 -16.3872 -22.5446 -5.20899 0.405056 -0.456877
1031 1 -4.92469 -10.7572 -4.5763 -2.00397 4.50211 -3.105
1033 1 -5.14459 -16.7542 1.446 -1.22043 0.375085 -2.18595
1036 1 2.40584 -13.0868 20.2163 0.471747 -2.90185 -3.32737
1037 1 -13.9927 -16.5379 17.9495 -0.152032 -1.11886 5.33708
1040 1 9.594 -3.10819 -23.2769 -2.07968 0.528378 -1.43004
1042 1 11.592 -6.55713 23.9076 -2.84923 -3.95008 2.35387
1045 1 -7.08757 -2.32087 22.9404 1.62584 0.0933853 -1.93347
3160 1 -12.6615 -23.6793 23.8094 -0.746971 0.836147 -0.705873
1052 1 -21.1318 -3.13643 -20.0774 -2.49831 -2.43332 1.89378
1057 1 -8.58523 -17.5259 -15.6528 0.310058 3.76748 1.23021
1058 1 1.01264 -3.08637 -9.37549 5.78099 -0.888573 0.308616
1059 1 4.02422 -21.8852 -15.554 -2.00861 2.71103 8.02785
1060 1 -18.8454 -11.4814 6.69515 -3.64617 -3.90109 -3.23321
3997 1 18.9911 -21.9592 -10.3459 -2.21138 0.669737 0.118732
1064 1 14.4198 -16.7037 5.39164 2.8137 -5.2502 -2.60526
1066 1 13.9255 -3.38161 -22.3027 -4.09499 0.650157 3.65905
1073 1 -1.26287 -21.9762 -9.49788 -5.11977 0.402691 4.80019
1077 1 16.9726 -8.01573 -8.37244 -1.58707 -4.06252 -0.24301
1078 1 10.3808 -7.60851 14.0129 1.37524 0.747586 -4.14536
1080 1 -19.7713 -7.70511 -7.85712 -5.30685 -2.48458 1.41475
1081 1 8.43792 -8.35332 16.1806 2.1203 -0.664014 -0.55122
1082 1 -18.938 -18.7612 -6.81591 4.05066 -2.06687 4.22944
1084 1 -1.8535 -14.8616 -4.53842 -3.14339 4.46747 -3.38921
1085 1 -10.648 -15.405 -3.85138 3.41568 -5.66129 3.09289
1087 1 9.0906 -2.08229 -19.4195 -2.5185 -5.12192 -2.83825
1090 1 -20.6865 -20.4627 -11.4008 2.39543 -0.469323 -1.60187
1092 1 -21.2641 -17.9458 -4.86618 -0.280358 -5.38647 1.36672
1098 1 -12.665 -4.53141 20.3499 1.77201 -3.43825 1.22431
1100 1 10.4627 -9.20635 19.8125 -2.58336 -2.41205 -0.917078
1101 1 7.56501 -14.4759 13.2059 -1.62866 0.720463 3.43638
1102 1 12.9491 -14.3146 15.807 4.80775 -5.44044 2.18278
1104 1 -23.3398 -1.71799 8.89345 -6.04302 -0.0351443 3.74411
1106 1 -17.0096 -19.0098 5.86366 3.46462 1.15756 -1.32885
1107 1 2.36748 -12.9557 0.81364 2.3535 2.75614 -1.50417
1109 1 -19.194 -10.1621 4.31026 -0.903065 5.66672 -1.50684
1111 1 12.845 -9.01344 7.68189 -3.94917 0.458617 3.55844
1112 1 -2.98415 -14.0342 20.1673 -0.622594 -3.7738 1.1406
1114 1 -19.4426 -3.98676 9.90457 2.52974 -0.623216 -2.55282
1119 1 6.89453 -9.49283 5.96331 3.46834 0.0515142 -0.594053
1120 1 -6.00793 -14.336 -2.36971 -5.18926 0.504415 -1.20431
1121 1 11.9954 -4.24401 -19.0316 0.962518 -1.52086 -0.458286
1123 1 14.6574 -6.0854 -4.31186 -1.2518 5.81257 1.40292
1126 1 -1.36851 -13.0392 -12.3895 0.000425063 -5.44323 -1.08105
1129 1 -2.03978 -8.9542 -23.541 3.64868 -0.876781 -1.38454
1131 1 16.8661 -8.05486 -3.91836 1.29816 6.46361 0.161233
1132 1 20.424 -6.24494 19.9949 -10.1642 -3.84675 1.14883
1134 1 14.1395 -20.6646 19.8097 2.68408 0.988308 -3.13003
2748 1 -6.08522 -1.62116 -10.5811 -4.41645 -3.55126 -1.72985
1136 1 -20.8237 -21.2544 -21.0065 0.95842 -4.85321 4.0995
1138 1 -22.7768 -23.154 5.29722 2.33683 -5.23144 1.1809
1140 1 14.2609 -8.28044 -19.145 0.362507 -1.80664 5.24426
1143 1 0.713641 -7.9079 -12.765 2.18192 -0.324071 -4.26477
1149 1 0.769186 -15.3626 10.7712 0.672943 -5.48723 -2.17354
1151 1 22.9382 -23.6783 19.9915 -3.96957 2.72247 -2.89707
1153 1 -4.78459 -20.2065 1.00463 -1.96647 -0.474452 -2.70764
1155 1 4.56456 -19.6357 16.6495 0.624802 0.377906 -5.95343
1156 1 -18.562 -13.0431 24.33 -1.18906 0.349789 -4.60949
1159 1 18.6535 -4.25089 14.0461 4.01267 -3.11182 -1.5482
1161 1 -8.59125 -23.7216 -18.7559 -1.96463 0.0488887 -2.10602
1163 1 -17.3816 -23.0377 13.7166 -3.86905 -0.967998 -0.520577
1164 1 -20.1552 -15.0899 9.88601 4.44006 -2.49804 -1.88059
1168 1 10.9717 -8.96928 -0.297008 -1.06016 4.01259 -0.992993
1169 1 14.5496 -7.283 17.6129 -4.61394 -0.706924 -0.541305
1171 1 22.7501 -1.39421 -7.4448 2.76382 -1.27865 -5.40835
1172 1 -22.2112 -15.7007 -15.4577 2.56949 0.858931 0.320129
1173 1 7.57411 -20.5911 20.0506 -1.56592 0.0122191 -0.062786
1174 1 -23.5936 -20.3723 -16.4763 4.16418 -4.00752 -1.90739
1176 1 -2.27727 -10.3964 13.9525 0.929778 0.836646 3.98039
1179 1 9.41606 -7.8815 -8.95391 2.71498 -2.51561 -4.57338
654 1 -10.9235 -1.70381 -19.9585 1.53567 -2.18129 8.31871
1183 1 3.23663 -7.0301 -16.6171 -1.98347 5.88677 -0.169588
1186 1 7.43989 -7.3617 0.219079 -1.89368 -1.23048 5.62303
1190 1 14.7316 -2.68209 -19.7227 1.59797 -1.5067 0.191218
1191 1 -1.65972 -4.4972 -19.0902 0.779472 0.193727 3.353
1193 1 9.29458 -2.33249 16.3829 2.38068 1.06786 2.21656
1195 1 12.6106 -11.6888 -17.3126 -2.11307 -1.0464 1.22212
1198 1 19.6578 -21.1394 12.028 5.81848 -1.90894 -1.01932
1200 1 12.0242 -9.90267 10.585 0.596338 3.58596 -6.69315
1201 1 22.3977 -20.7276 19.8802 1.05584 -5.35265 3.28106
674 1 -9.14289 -1.04557 -22.0129 0.496078 2.34504 2.52903
1203 1 -16.2633 -11.6419 -15.9403 0.60762 0.655705 2.66736
1205 1 -4.14719 -18.371 10.386 -3.01301 0.486813 0.862801
1206 1 21.6951 -20.8606 -22.3198 0.489212 -2.51408 0.325219
1207 1 15.911 -4.92695 -16.3031 -2.74931 3.51185 -0.644689
1208 1 22.3302 -7.97731 8.10026 2.8955 1.18521 -4.64842
1209 1 2.35558 -5.93467 24.1954 1.97934 3.36001 -7.11554
1211 1 -18.0758 -10.9957 10.789 0.455592 -2.49047 -3.31649
1213 1 22.8211 -14.8644 19.7672 -0.428911 -4.24312 -5.68081
1216 1 17.07 -8.0965 -11.2258 -2.91191 -0.875325 -0.659414
1217 1 15.4679 -14.0052 2.05018 0.586021 2.35603 2.047
1218 1 15.0481 -3.77793 -10.4037 -5.73569 -0.947555 2.83981
1224 1 16.3713 -7.49419 13.1285 2.77133 -2.54405 -1.1621
1225 1 -0.657939 -20.1642 22.094 1.60804 0.739955 1.6261
1227 1 -0.4208 -7.29921 -1.10648 5.35253 -3.49069 1.85746
1228 1 -23.4848 -19.7835 -10.1443 0.598419 6.48583 -3.99024
1229 1 18.8526 -17.0985 -0.440567 1.50452 -2.33853 -0.0799906
1230 1 -14.6458 -17.3776 -9.93125 2.95426 -3.21951 2.90084
1231 1 -18.8828 -9.14118 -10.0485 1.46966 -1.75425 0.439437
1236 1 -5.70008 -22.3239 15.3028 -5.90858 -4.32347 -1.48322
1238 1 9.13509 -2.71114 -13.6242 0.239282 2.53044 1.42729
1239 1 -1.50461 -24.0281 6.67116 -2.00041 3.3454 3.3571
1240 1 -6.7534 -23.4374 2.72016 4.15331 -1.34377 -0.762389
1242 1 8.56109 -17.7562 -13.137 -2.57438 4.74217 6.21414
1246 1 -6.50932 -15.235 4.6935 0.181331 -0.105477 3.23582
1252 1 19.2449 -18.9341 1.63087 2.15016 -0.74414 0.342534
1254 1 -22.2113 -18.7588 4.82519 3.02046 -2.53423 2.51335
1255 1 -7.16084 -10.3459 9.08562 2.8992 1.86317 4.45231
1256 1 5.42624 -19.8511 -18.8362 -1.11936 1.91501 -1.37337
1257 1 -6.02018 -24.146 -10.6842 -0.774858 0.52664 0.272483
1259 1 19.4454 -10.9602 7.52314 3.1239 -2.94693 1.59323
1260 1 4.05947 -8.57058 -14.0678 -4.89327 -3.15911 -0.737911
1261 1 14.0982 -8.89055 -12.141 -2.07244 4.26566 6.65076
1262 1 11.1081 -13.8514 -4.49321 2.67808 0.974376 -1.58786
1263 1 -15.565 -6.9546 -2.11423 -2.40861 -2.58035 -1.81728
1264 1 -23.0988 -11.4932 -1.50424 -0.309811 2.70179 -0.0424147
1266 1 14.351 -8.66092 3.87081 -2.70265 4.00448 0.526832
1267 1 -24.5065 -15.5677 2.58769 -0.934508 6.64679 -0.662883
1268 1 -22.1201 -12.2706 -18.5152 -4.20158 1.69731 -8.44926
1269 1 9.85573 -6.37842 19.6583 4.26084 1.59597 4.46479
1276 1 -2.38829 -9.00312 -20.4497 1.83888 -0.70255 2.26252
1278 1 15.177 -8.23484 -22.5935 4.17823 -0.810544 -0.00684565
1280 1 0.682618 -2.8719 -4.68933 0.140882 1.64822 -0.968871
1281 1 13.3301 -9.14113 19.6702 0.937297 2.22368 -1.23224
1282 1 9.67927 -19.9106 -3.66842 -2.96933 -1.67128 -2.14954
1283 1 3.94224 -20.6041 -9.73648 -2.31257 -3.979 0.632426
1284 1 6.69186 -12.6959 2.88599 -1.46619 -0.931738 -0.795976
1287 1 8.72325 -17.8166 19.6282 -3.04053 -0.472314 0.77548
1288 1 3.65807 -4.88708 -14.8885 0.918949 0.17077 -2.98204
1289 1 23.7812 -9.73255 -8.48789 -3.75394 -0.273315 -2.23069
1293 1 -8.20424 -2.26117 0.795518 -1.66068 0.840301 0.99615
1294 1 14.3016 -12.1984 -6.67005 -0.666878 -1.23719 -1.48438
1296 1 -6.2902 -11.4582 4.72273 -0.405197 -6.48492 -2.06066
1298 1 2.31793 -6.6225 -2.13576 3.62702 1.84793 -2.78292
1299 1 -10.247 -10.4232 -5.68465 3.04872 -1.23103 -0.786487
1300 1 2.40566 -1.09903 -2.47643 0.269027 -1.20316 2.62592
1302 1 -4.03149 -3.3904 -23.025 1.90436 -0.822889 0.903132
1303 1 -7.82529 -7.05762 -17.3741 -0.125011 2.12728 0.391786
1306 1 7.05092 -22.3402 -0.726907 2.77013 -0.539295 -1.48499
1307 1 -15.7471 -23.1785 -3.66564 1.29677 3.13558 -1.21393
1308 1 -18.47 -3.19139 7.08036 4.66921 -1.47145 0.18262
1309 1 -0.840151 -11.7432 -7.88313 -0.999921 1.44065 -3.42493
1310 1 -1.08915 -18.626 -1.37364 -3.75407 0.375731 -1.76738
1312 1 -17.1349 -8.25822 3.96327 4.01367 2.78372 0.259008
1315 1 -20.2177 -12.0756 -22.3516 -4.76901 0.513682 0.576016
1316 1 18.1192 -10.5955 -15.1386 -2.27778 -0.455992 3.71035
1320 1 20.3598 -4.70642 -9.37076 3.38363 2.22704 3.91749
1321 1 8.11374 -21.7267 -6.72466 -2.61347 0.920945 0.491478
1322 1 1.04447 -14.0597 -4.81435 3.66866 -0.295303 -0.932945
1323 1 13.6097 -11.8073 11.9645 0.0588181 5.50553 3.4288
1324 1 -11.5509 -19.8285 -19.59 -1.73847 1.33453 -1.61772
1326 1 -19.4615 -19.0407 -19.7294 -3.07685 2.31316 1.02975
1329 1 20.8999 -13.207 -3.42745 1.42779 0.588057 7.13868
1332 1 11.8442 -21.9849 22.4309 2.42813 -3.14446 1.98799
1334 1 12.4842 -10.1051 -9.81407 3.62608 -1.04059 0.498628
1337 1 7.57039 -21.4719 7.5133 -2.3347 -2.47044 1.22415
1339 1 1.7027 -18.5896 21.5441 -2.40867 0.769289 0.0563414
1342 1 1.48581 -22.5658 -15.9245 3.37939 1.22523 -0.746968
1343 1 -12.2425 -8.96421 -6.94466 2.52258 -4.72891 1.34657
1344 1 19.2372 -8.26626 4.11587 -0.406697 2.98017 -0.206499
1346 1 16.6252 -2.64557 -14.8126 -4.27264 -3.79559 -1.52104
1347 1 -17.3128 -12.7688 -20.2576 -2.24299 -0.905276 4.0999
1349 1 2.50982 -13.4078 9.45072 -3.05976 1.82443 1.43176
1351 1 15.5729 -14.6978 16.5999 -2.37132 3.99658 -3.22661
1354 1 -1.02861 -6.1275 -16.6796 2.70788 2.61302 -1.06998
1356 1 -20.6889 -12.7388 -2.00288 -0.610365 -4.1358 4.39149
1357 1 -20.613 -7.77026 -11.7128 -0.182073 -2.23227 3.17613
3266 1 10.1376 -1.31478 21.7291 -2.2188 1.73002 2.06061
1360 1 18.2396 -13.5235 7.78439 -1.99526 2.97061 3.69612
1361 1 -8.49723 -22.2645 4.72969 -3.48832 1.57081 -3.05387
1363 1 -16.0115 -10.5687 -21.5612 -0.645419 -1.6646 -4.82264
1364 1 12.4936 -12.5126 -12.3107 -2.4961 -1.50576 4.66767
1365 1 7.35461 -6.53907 -22.3298 1.05841 -2.89131 -1.91025
1366 1 20.5086 -14.6451 0.51575 1.37491 -1.77321 -0.749895
1367 1 -9.13358 -13.3818 14.0326 0.977623 -3.74563 0.60563
1370 1 2.59269 -13.2212 23.3344 0.633162 -3.96561 -1.78762
1373 1 -13.5903 -8.68283 14.1729 -2.26855 0.466329 5.63492
1375 1 16.5492 -6.7495 3.249 3.03115 -1.30422 -2.54849
1378 1 8.6196 -9.97985 0.966602 0.844109 1.78257 0.929129
1379 1 -19.3683 -17.1312 4.89604 -1.94841 -3.2959 0.497624
1382 1 15.9749 -13.1247 9.30983 -1.56714 3.55435 -4.51171
1383 1 -7.45147 -24.2786 -14.9056 2.68151 -3.04847 4.21018
1388 1 15.2686 -2.11351 19.1622 6.0837 -5.26436 -3.08166
1389 1 20.7878 -2.51251 -0.98228 -4.3768 -1.53288 1.48028
1390 1 7.24882 -1.9838 11.6159 1.88877 -0.260613 3.5492
1393 1 -1.71413 -6.49503 1.60539 -1.90694 -5.04144 -1.47214
1396 1 -18.128 -8.98249 8.2306 1.21061 -1.21204 -0.251244
1399 1 -2.27907 -23.4937 -0.717526 4.07271 -0.639085 -1.3078
1401 1 21.7926 -22.9557 22.5883 -1.76568 3.5848 0.659257
1402 1 -18.735 -5.23878 -16.0754 -0.084856 3.76365 -0.701611
1403 1 14.71 -23.0754 16.3019 -0.483796 -2.58552 2.20491
1404 1 19.9343 -10.9295 10.4719 0.501044 4.8083 -3.33504
1408 1 -5.05977 -5.43062 -13.6862 -1.29964 -0.335888 -1.48286
1410 1 -0.19442 -18.7476 -17.7337 -1.68991 2.33329 0.182903
1415 1 -7.58372 -21.2554 1.0252 2.84766 3.72474 2.44585
1416 1 -22.1873 -8.08055 9.49465 4.07074 -0.638006 -1.58811
1418 1 16.0545 -7.17981 -0.368708 -2.00495 1.57145 2.79832
1421 1 23.8857 -9.66195 6.38867 2.04637 1.22702 0.295208
1422 1 -13.0247 -18.9459 -15.4011 8.69934 -0.264758 4.25471
1426 1 7.5528 -20.7099 2.71128 1.94809 0.444797 0.803872
1427 1 18.6901 -13.7031 -1.58732 -3.07483 -3.77344 0.416214
1428 1 -5.50489 -18.006 21.4739 -0.719234 -0.0651321 1.32575
1429 1 -21.3868 -16.9712 7.10697 3.67728 -3.17609 1.53733
1433 1 -19.032 -12.2481 -16.0938 0.514607 -0.395266 2.73928
1436 1 -16.2413 -4.79609 -14.5555 4.00363 4.71276 2.05623
1441 1 -18.6251 -15.7017 18.2143 0.352605 -2.04999 3.60934
1442 1 -22.3631 -6.58349 -3.60127 4.10716 -2.23584 -2.84495
1443 1 17.3209 -12.3968 17.0606 -3.03714 -0.77185 0.507784
1445 1 11.8981 -19.1318 9.13631 -0.0776944 2.55558 3.73635
1446 1 2.98335 -9.50032 -9.69292 1.62404 1.12014 -3.85232
1447 1 21.5292 -5.58668 -17.7285 2.86905 -5.03666 -0.699368
1449 1 10.5031 -2.75812 0.638097 -0.015852 -0.646537 3.05701
1450 1 -6.54171 -5.21869 -9.19218 2.61169 -0.0579813 -2.7826
1452 1 -6.67101 -22.7347 -17.1873 3.90541 2.62633 2.58081
1453 1 -0.525793 -21.3622 -6.69984 -1.43096 -2.25537 5.91262
1454 1 7.73486 -11.9122 -0.677032 -0.53439 -1.52302 -3.79296
1455 1 -14.9365 -17.5076 -3.50325 0.215246 3.12316 -2.63476
1459 1 -12.3972 -13.2419 -3.60994 -2.18853 2.82935 5.66315
1462 1 -9.84513 -17.7594 8.83246 -1.51314 2.75585 3.61103
1464 1 3.4224 -18.8144 4.29473 -1.38358 -0.127627 -1.70792
1466 1 -18.2569 -6.10543 -3.21061 -0.0227337 -3.71146 -1.87486
1467 1 -24.55 -16.0499 -16.9315 3.16821 0.38219 1.91718
1470 1 -3.89392 -12.3105 6.08819 -0.366085 -4.01123 -2.42959
1471 1 -4.57893 -4.7543 -11.0488 3.82928 0.561063 -4.2562
1473 1 15.1249 -18.2281 -14.4707 -0.491323 -3.49182 0.137061
1475 1 -22.0965 -23.0571 -2.92793 3.56407 3.33524 2.20545
1479 1 9.76047 -8.28501 6.78322 -3.70347 0.273497 -2.16825
1483 1 9.33161 -22.2722 -19.8722 -3.35028 -4.79699 -7.5657
1485 1 9.619 -9.81111 23.4812 -1.15664 -4.98653 0.171655
1486 1 -17.4868 -5.09133 15.9005 5.93806 -4.35494 2.10376
1488 1 -18.5084 -16.4902 11.5758 -1.16187 -3.13638 -1.09003
1493 1 -3.64507 -7.00221 -16.0597 -1.72484 0.666034 -5.98485
1495 1 -21.2316 -9.61124 19.6992 -3.23093 -3.14991 -1.67133
1497 1 12.5267 -9.97919 -20.7811 -1.28067 -6.37204 -0.761161
1502 1 -23.6109 -5.78385 -6.06053 -3.67314 0.402377 -3.45884
1504 1 -4.36649 -24.0937 -6.30713 -1.9909 -2.6019 -3.1181
1505 1 17.5777 -22.1475 -20.89 0.692953 -2.279 -0.41322
1508 1 20.5572 -10.5761 -4.76202 3.06378 1.93975 -4.44358
1510 1 -16.2258 -11.013 0.6382 5.15866 2.16278 -4.5726
1511 1 -24.3192 -6.51824 16.7342 -1.58326 3.56012 1.20131
1512 1 -12.9975 -13.3804 -0.880433 1.80127 -0.68829 1.70743
1514 1 -14.1961 -5.22292 -5.87824 1.45845 -1.86759 -0.381532
1515 1 -9.0983 -22.8595 21.2845 4.51096 2.98671 2.9667
1517 1 23.1786 -14.6374 -9.73522 -6.09727 0.894137 -0.0344093
1519 1 -11.6626 -17.7249 -0.151498 1.27862 1.00913 -2.81533
1521 1 -8.18562 -10.0883 18.3413 -0.58328 0.398008 0.513527
520 1 -5.27104 -24.9799 -13.3386 -3.51883 2.47684 1.44943
1524 1 1.30239 -19.0716 6.11474 0.397341 4.33542 -2.60982
1525 1 -11.2271 -7.02065 1.06211 -4.69594 1.11916 -1.70282
1531 1 5.57765 -9.07628 10.5865 0.348009 2.35093 -1.70556
1532 1 18.953 -4.80954 -16.5064 -2.0053 3.75487 3.62271
1534 1 -15.9927 -7.63192 11.2611 -2.47303 -3.65059 4.0606
1535 1 2.46548 -7.85832 13.8527 0.393926 -0.978692 4.83309
1541 1 7.21157 -17.9959 -7.41727 -0.815245 1.5627 2.83562
1542 1 -21.7584 -5.13476 16.6308 -0.628173 -1.64381 -1.29924
1543 1 3.04849 -1.74954 14.0573 0.505276 1.91956 2.22516
1545 1 -7.59144 -15.5023 14.5527 1.36735 0.890896 -3.96161
1546 1 -15.2591 -13.5315 21.1767 4.09137 3.24832 0.889676
403 1 14.4722 -1.33427 -24.1473 -6.63017 5.66595 2.80255
1548 1 16.7603 -23.9729 -6.99604 2.18627 -0.575844 -0.672983
1549 1 -0.546308 -3.49586 -15.624 0.525734 0.954562 -4.04221
1550 1 -3.19742 -7.3457 -10.6831 -3.19925 9.80853 1.40349
1554 1 -7.88819 -6.67767 -21.033 2.7212 2.19735 -4.156
1555 1 -21.5326 -3.66181 -3.84609 -0.306638 -1.20081 -1.60089
1556 1 19.0858 -17.0733 -9.24551 -1.15913 -3.36753 3.30465
1557 1 7.94339 -22.1025 -17.5969 -0.720457 1.47946 0.839571
1558 1 8.59325 -16.5363 -0.160108 4.0014 0.812251 -3.09891
1560 1 -20.1255 -18.7909 19.6628 -0.885104 2.3458 0.95309
1562 1 0.12559 -4.60645 0.372289 -2.97513 1.37733 -3.72558
1563 1 -3.33617 -5.83406 12.8172 1.82439 -0.172952 3.99092
1566 1 2.28272 -8.71036 7.75493 2.45981 4.68416 3.72135
1567 1 0.249254 -10.2518 -21.9078 0.939736 -0.406992 -2.16353
1571 1 -2.74 -10.1199 -1.64524 -0.0129994 -0.223865 -2.90579
1572 1 -2.20589 -16.3438 11.5537 4.37647 0.640853 -0.955775
1573 1 -11.4599 -12.7649 19.1502 -5.61272 -1.14891 2.10755
1574 1 18.9623 -17.1002 3.77596 0.502786 -2.67699 7.43698
1577 1 15.4238 -23.3195 5.51305 -2.60993 -2.02044 -3.88805
1580 1 -16.1877 -21.649 -6.1506 0.361171 -4.15492 -1.01298
1581 1 -7.27208 -5.8184 11.1736 0.707213 -1.74556 11.9246
1583 1 9.19464 -2.26548 -2.85185 5.37937 0.710965 -4.18104
1584 1 -6.64398 -4.12862 13.7513 2.27767 -3.39478 -2.25074
1585 1 -10.1971 -13.2745 22.7965 0.355666 -2.92509 -0.593963
1586 1 -17.3622 -22.0589 0.299613 3.46931 -5.43547 -3.30805
1587 1 17.9899 -3.09505 -9.70231 0.012924 4.18965 4.4325
1589 1 -11.2752 -22.0856 -3.1054 -0.389101 -1.04136 6.10849
1596 1 -5.06482 -1.92826 -18.264 1.51074 -3.65201 -1.92398
1597 1 18.3793 -23.3302 6.34052 -1.38045 1.88072 -2.93272
1599 1 -22.5369 -4.30914 9.81255 2.59847 1.30491 7.86237
1600 1 17.7945 -13.138 -16.5423 -0.612315 0.0522497 0.988456
1602 1 -20.0217 -13.7886 -19.9528 0.650432 3.00858 1.54674
1603 1 6.35466 -9.7729 -13.0445 -1.11733 1.79587 0.0503183
1604 1 20.3453 -14.7463 -16.3388 4.01129 -1.63405 -0.497082
1605 1 -0.110879 -2.2857 -12.0196 2.42277 1.55644 -2.04106
1607 1 12.3136 -21.2991 -14.4722 -4.53813 1.94064 -2.07934
1612 1 -24.4551 -17.7568 14.8385 2.75482 -2.71482 -0.587185
1613 1 -0.0101256 -15.9357 1.89661 3.21615 -3.49697 0.80151
1614 1 -15.3087 -12.8811 2.35451 -1.34531 -9.81347 -1.87614
1615 1 -3.95321 -15.116 -10.186 -3.39921 1.7838 1.08636
1616 1 15.2198 -12.5004 -18.0642 9.33693 -2.8981 -0.824496
1617 1 -14.7491 -12.2774 -10.2876 -0.719128 -0.71044 1.45843
1620 1 14.6715 -9.42807 -7.87218 1.14464 0.862859 4.63382
1623 1 -11.0484 -16.6438 17.0327 2.44943 1.03319 0.573402
1627 1 17.9788 -5.92066 23.3782 -2.69336 -1.03408 -4.8128
1629 1 -5.80858 -23.2027 17.7628 -0.756395 1.41571 -6.6069
1630 1 12.524 -6.43053 21.2433 0.6742 -0.578821 -0.214937
1631 1 23.7518 -19.6771 8.28903 -2.01958 -0.119543 2.01119
1634 1 -20.7613 -9.34411 -23.1413 0.708983 5.0758 -3.00037
1635 1 6.20444 -15.5747 -10.1559 -1.01644 -3.83497 -0.855615
1636 1 18.1513 -9.99281 12.3524 1.73824 -1.08376 -2.6943
1638 1 14.6258 -5.40141 -18.6102 4.6989 -4.26453 -3.29664
1640 1 -16.9257 -21.7783 -12.2422 -4.15987 2.75528 2.96905
1641 1 20.5181 -13.1322 20.5615 -1.92524 -3.20205 -2.54896
1645 1 -4.87639 -6.0094 -7.14043 3.19723 -4.39563 0.726021
1646 1 -22.9111 -6.87606 -19.2776 -0.561395 -2.83865 0.00419508
1648 1 -20.7349 -15.269 -24.3207 1.1396 -2.03894 -0.845862
1649 1 -16.8885 -6.12436 -12.0008 2.18518 -1.09342 5.79046
1650 1 11.6659 -3.69283 -12.4198 2.13512 -2.78007 2.19021
1651 1 13.5712 -17.7866 0.520809 -2.55475 6.28306 -3.41263
1653 1 12.7127 -22.5984 4.01563 -2.76526 4.00712 1.06411
1654 1 5.38194 -16.5148 12.9759 0.929177 0.601997 3.30696
1659 1 -5.75656 -23.5648 6.74004 -2.03763 0.542978 -3.50446
1660 1 3.91547 -10.2933 -22.3704 1.02856 -2.18242 -0.115799
1662 1 -9.60107 -21.1202 -8.27418 0.185739 1.00947 -0.0242611
1663 1 -15.38 -1.32597 -1.10504 1.96734 5.61971 1.76368
1664 1 3.13054 -11.2533 -14.391 -1.77526 -6.98867 -8.38561
1666 1 17.4283 -7.36584 -16.3477 -0.564926 2.65363 -2.66234
1667 1 -13.4734 -1.70077 8.68466 -2.44101 2.24245 -0.62906
1669 1 15.1865 -23.8766 -11.2737 1.47483 1.99406 -0.941391
1673 1 2.00703 -17.7394 1.80217 -0.565791 -4.8635 4.94344
1674 1 4.20886 -2.71277 -7.73339 0.399157 -4.86294 3.56889
1677 1 23.1495 -18.6155 12.1152 -3.12674 -3.91727 -4.28447
1680 1 -24.365 -18.9775 -20.5846 -1.97901 2.79062 4.52668
1681 1 -18.1831 -8.76591 -22.0644 0.933103 -3.27991 -4.12516
1686 1 12.0618 -10.3739 22.0259 4.52377 4.00458 -2.00052
1687 1 21.3359 -16.5246 -12.783 3.71402 0.65909 -4.38961
1688 1 -17.1701 -1.93471 -13.2519 -5.47874 -1.02847 0.310989
1689 1 2.33631 -23.8276 -2.05324 0.454904 -2.12721 -2.08016
1690 1 -7.33329 -23.9766 11.1699 -0.089517 3.55526 1.98047
1691 1 -17.8013 -14.061 5.94907 -0.133569 -0.896897 1.77214
1695 1 17.7283 -24.6709 -9.74887 3.66147 1.74561 -2.60077
1696 1 11.3847 -2.04028 3.43236 0.950995 1.64647 4.17547
1697 1 -11.9299 -23.4439 6.40491 1.16567 -0.0162574 1.6524
1700 1 14.1335 -2.10111 -13.3125 1.80047 0.015668 -7.42181
1702 1 1.39014 -20.5013 12.9215 -3.46041 -0.592185 1.04552
1704 1 -10.5847 -11.3862 4.57766 6.40132 -2.13127 0.522122
1707 1 -10.6019 -10.7544 16.9571 0.855593 -4.02358 2.78556
1710 1 -8.49232 -21.4279 -14.2657 5.46029 -7.6036 4.04457
3603 1 -5.67797 -1.0301 10.8791 0.160391 2.46839 -3.08709
1716 1 15.3947 -23.7211 23.7047 -0.0592818 -3.92728 -0.929594
1717 1 11.3678 -16.2617 -1.19749 -0.477996 -1.93465 -2.01483
1718 1 6.39135 -19.5561 -12.5618 -6.61317 -5.59398 0.255211
1720 1 -3.61161 -24.0171 8.78104 -0.322442 -0.842381 1.0699
1722 1 18.2483 -23.5353 17.7194 -0.897547 -1.57807 4.8634
1724 1 -18.4575 -23.3929 -3.0785 -1.54082 -3.9723 0.172106
1727 1 23.1888 -3.32396 -18.597 -1.32583 -1.47533 0.769797
1728 1 23.1455 -6.08611 -20.2718 3.25608 1.57332 -0.675347
1730 1 -4.71266 -9.44794 -22.5455 2.35817 1.50187 -4.5542
1732 1 14.6667 -13.0103 6.84768 5.87156 0.45874 -1.25423
1733 1 -11.6164 -15.6441 8.51711 -4.41849 -1.37586 2.66141
1739 1 -7.5007 -20.2516 15.7786 -3.97102 -1.76178 -0.799346
1742 1 -0.296543 -6.45592 21.4778 1.8341 0.414824 4.31843
1743 1 19.2221 -15.5514 9.64016 -2.29454 -0.209804 0.519565
1747 1 3.48496 -17.3424 -6.43252 -1.94712 0.250758 2.90168
1751 1 0.870617 -10.6868 13.5396 -0.748099 -4.52281 -4.26829
1753 1 -23.3665 -16.6693 -21.3119 2.21186 1.50037 1.47716
1757 1 18.8366 -12.003 -6.82222 -1.91349 4.52524 2.55384
1758 1 20.9959 -22.627 6.75491 1.85261 -3.87756 -1.76413
1760 1 -16.7734 -14.1352 -22.6418 1.5649 1.74642 2.53868
1761 1 21.4065 -18.2958 -20.9525 -2.10184 0.65193 -1.14074
1765 1 2.96893 -17.6975 -3.68486 3.16965 4.39947 2.47943
1768 1 12.8921 -3.37962 8.32057 0.2622 -3.19369 3.89917
1770 1 -9.75339 -5.1209 20.624 -5.22845 0.341868 -3.89927
1772 1 11.999 -21.6216 1.38363 -2.13958 -0.506059 -2.36693
1774 1 19.355 -18.5419 23.0425 1.49792 1.54959 1.33045
1777 1 -23.3687 -10.6081 15.6208 3.1245 -2.85072 2.46313
1778 1 -16.6236 -7.81653 -14.5693 3.99477 -1.34172 -3.14753
1782 1 -22.9281 -15.4901 -10.6067 -0.55974 1.20286 -0.0398999
1788 1 -16.0887 -16.0869 16.1995 -2.43599 -3.26786 0.372699
1918 1 -18.7938 -1.4264 -20.7322 3.88505 0.759816 1.61472
1791 1 0.890924 -7.87977 -15.6281 -0.114553 2.37525 4.59826
1522 1 -13.1026 -1.41798 -14.4424 9.21563 3.46865 -2.44056
1796 1 -22.9401 -11.5947 -23.6406 -0.52805 -7.2856 -1.6602
1798 1 19.0144 -7.23325 -18.8002 0.530823 2.52532 4.47778
1801 1 -11.6018 -19.632 -4.5253 0.374075 2.90384 1.27315
1802 1 -17.9823 -19.0848 -11.0281 -2.01205 1.89851 -2.5348
1804 1 -3.5129 -22.9704 -13.8741 -3.36376 -0.723808 0.991523
1806 1 11.5498 -3.74297 15.1113 2.30037 1.08797 -1.39077
1807 1 -18.9004 -10.1771 23.4459 -0.285334 -0.551971 1.37361
1808 1 22.1391 -11.7572 18.8614 -0.264903 0.354792 2.31841
1810 1 10.0469 -23.6801 -6.29231 2.53814 0.340911 -1.26547
1812 1 -11.9473 -3.62652 -21.6026 -1.36925 -9.98154 -0.659342
1815 1 12.0251 -3.81884 24.0444 -3.38487 0.488016 -1.19919
1818 1 -21.7149 -9.72441 5.57232 2.76444 3.85166 0.260852
1819 1 -14.2069 -11.7151 18.9444 0.312746 -1.28058 -5.18882
1822 1 15.735 -2.06409 -2.33718 0.192183 2.70945 0.574512
2160 1 -20.0198 -2.42884 20.6661 -0.912707 -0.788053 -0.424203
1824 1 -16.9438 -18.221 8.67046 -1.64199 3.22961 -4.05755
1825 1 7.56593 -10.8484 -5.03593 2.0202 -0.456104 -0.5044
1827 1 15.4771 -21.1738 -3.30318 2.91185 4.43875 -4.55686
1828 1 -14.3601 -21.6903 -21.9668 0.26195 -1.09324 6.51228
1831 1 13.0696 -15.6898 -3.45306 0.590591 7.50666 0.303334
1832 1 -23.4339 -12.9002 22.7378 -1.36419 3.77861 4.60693
1834 1 6.64443 -9.13726 -21.227 0.775031 -1.20579 2.75544
1836 1 -11.2859 -24.1874 -18.373 1.87007 -2.53428 3.04086
1837 1 14.2735 -20.264 8.34298 -1.20083 3.49544 -2.21885
1840 1 -20.5403 -12.0432 0.78406 -1.66875 0.398464 2.68353
1841 1 8.08329 -23.8051 -10.7972 -4.04746 4.24208 2.07293
1842 1 14.3701 -20.0184 1.77868 3.70651 -3.8832 -0.717712
1843 1 7.63461 -3.8302 -21.4187 1.59884 1.84795 1.81669
1844 1 -4.83974 -3.14185 6.13083 5.44599 0.775857 -0.930187
1846 1 11.4737 -20.3632 5.53464 0.54068 -4.38597 -0.292762
1847 1 18.8591 -14.5803 18.4361 2.84118 -0.521722 -2.12741
1849 1 12.7002 -23.1567 -12.3109 -0.0580496 -2.23148 -2.59671
1850 1 16.3363 -19.7286 -6.69993 -4.45966 -3.88443 2.06486
1853 1 3.94394 -12.0435 7.07458 -2.6476 3.76205 3.29653
250 1 -0.734282 -1.65931 6.0249 -3.0704 1.81404 -6.62406
1856 1 8.07622 -4.67786 -18.4373 0.308984 0.305846 -0.803508
1857 1 -0.806331 -20.6739 3.06107 3.24034 -2.43179 6.42524
1858 1 1.33959 -16.3027 -12.4816 -0.295165 -2.52194 -0.230034
1859 1 6.79373 -14.9173 -15.0147 3.21589 -4.58491 -3.32282
1861 1 -17.2066 -21.9612 -19.0033 1.39038 1.59149 -1.80665
1862 1 -11.2919 -2.76593 -8.12252 -1.23621 -1.37313 0.231768
1863 1 -4.62369 -13.5992 -7.48405 -1.32168 -0.255581 -5.47562
1865 1 -10.0072 -4.29386 5.6332 0.610235 0.160948 -6.23763
1867 1 5.79999 -7.79867 -1.86879 -1.96234 2.61037 -0.386617
1871 1 18.4977 -12.1574 4.88752 0.863007 -0.62065 -1.20538
1872 1 -1.96658 -9.91564 -9.75291 -0.787099 -1.23587 -1.09311
1874 1 -10.5652 -16.1843 -20.9354 -1.54669 -2.70219 4.89221
1875 1 22.8057 -7.93819 -10.7808 1.09832 -0.787492 2.56236
1877 1 -15.4637 -5.19519 7.82224 5.30649 2.07302 2.37603
1879 1 -20.7225 -17.4226 -17.5676 -5.78558 0.366277 0.155526
1883 1 -7.46628 -13.1695 -7.15762 -0.826654 -0.122362 0.439132
1887 1 17.9456 -6.80152 15.7524 0.794003 0.830347 2.20062
1888 1 -10.6274 -18.537 -13.8702 -1.79834 5.13904 -3.41456
1891 1 -10.1731 -14.1341 -23.0741 -3.15404 -0.0963183 -2.08311
1892 1 -0.00393414 -13.5796 -14.8692 0.353406 -1.60506 -3.28184
1894 1 -0.386531 -19.828 -4.2272 1.80421 3.64682 1.02753
1895 1 -19.6982 -7.04536 16.6945 1.37542 -1.50334 0.480898
3018 1 -21.7544 -1.58695 -13.3209 -4.84385 -6.15408 -1.51679
1901 1 -11.0776 -13.8779 -18.8745 2.30185 1.16613 -1.08208
1903 1 -0.32497 -16.5011 -14.7597 0.0477929 5.08322 -1.46283
1904 1 -9.44374 -20.6047 17.7203 -1.15753 -0.401354 5.29884
2812 1 -9.82993 -1.58429 22.4741 1.25355 1.03469 -0.899058
1907 1 -22.3305 -9.44331 13.4855 0.888517 0.32775 -5.30816
1908 1 -16.229 -5.6675 0.366762 0.503158 1.95241 2.00904
1909 1 10.3358 -10.1309 12.7019 1.90974 2.47376 2.50251
1910 1 -8.3352 -10.8765 15.3953 0.133639 -3.21555 -2.91635
1911 1 20.1167 -1.26737 -6.33804 -0.721425 -5.87365 -3.99922
1915 1 20.0413 -19.9178 -14.8221 -0.60714 2.30636 -4.37284
320 1 -2.66633 -1.18281 8.12367 1.50751 -1.60442 5.76993
1920 1 23.2444 -15.1191 -0.0838664 -3.49833 2.13346 -0.0518387
1924 1 23.1066 -17.8738 -0.411114 -0.90635 -5.17067 0.00439688
1925 1 20.3921 -24.4473 19.0235 2.17254 0.612385 -0.968609
1926 1 13.4848 -2.49706 -6.46105 -3.18368 -1.20553 0.495112
1927 1 -9.33728 -21.4766 -20.2417 3.15562 0.738145 -3.05234
1928 1 23.4913 -3.13868 4.97192 -1.59942 -0.482254 -1.41441
1930 1 -8.34382 -15.0299 -17.5232 0.721706 -0.526909 0.379027
1934 1 0.870316 -9.92572 -1.63679 2.90601 -3.68702 2.25237
1935 1 18.137 -14.3686 2.76575 4.32114 -7.60391 -1.44984
1936 1 18.0012 -23.2669 -24.3011 1.24229 -5.86529 1.63456
1940 1 -19.8536 -23.6563 5.91591 3.68075 -3.04882 3.4905
1941 1 -1.13664 -22.8394 -12.166 -0.343661 -2.97568 -0.995114
1944 1 -19.8862 -21.9824 -1.24271 2.53749 -3.21817 3.37359
1945 1 -23.8316 -20.9181 21.5904 4.20603 0.430435 -6.74668
1949 1 -8.42848 -7.3118 -9.02532 -4.08858 5.23445 -2.46012
1951 1 -5.13444 -14.5354 13.9807 0.479156 -2.05931 -2.44285
1952 1 5.08314 -14.9628 -12.7309 1.82167 2.45361 -0.0615485
1953 1 16.1081 -17.9672 -1.09496 -4.00409 -0.409594 -2.11496
1955 1 -12.9437 -17.354 21.4412 -8.98923 -0.915386 -2.78302
1959 1 23.014 -3.94324 -2.31647 -0.594916 -1.41434 2.32261
1960 1 -16.6318 -4.71358 -20.0829 2.39807 -3.29174 -1.79638
1961 1 16.5609 -11.8644 -5.01429 1.47106 -3.1591 -1.97171
1962 1 0.102184 -11.1701 -4.04745 -3.58625 8.27639 -0.0440226
1965 1 16.8267 -5.01876 20.8025 -0.0613658 -1.38957 3.70153
1966 1 -18.8646 -16.3833 -11.4618 -1.66424 1.08137 0.696513
1967 1 -14.8664 -22.8447 17.3643 7.17829 -2.21857 -1.83259
1969 1 -4.54996 -7.44255 10.9236 0.70561 -0.12193 -0.146455
1970 1 21.1909 -6.2171 -2.46698 0.40856 3.78269 3.10712
1971 1 22.8799 -1.36258 7.16419 -2.43436 0.554 0.0916477
1972 1 -3.97654 -7.31281 8.13405 2.18109 1.46102 0.804323
1973 1 12.6761 -16.2485 19.315 2.43588 -2.99063 0.402047
1974 1 15.9494 -10.5861 10.5755 -0.357874 0.744458 2.49138
1975 1 10.6015 -17.1135 -17.7718 1.30469 0.0704896 2.59782
1976 1 19.8706 -10.5528 -23.037 4.2628 1.5924 -5.4159
1977 1 15.725 -13.7203 12.2068 -1.37807 -4.19038 -0.13385
1978 1 5.90218 -3.78197 23.1014 -0.304677 -0.292563 -2.08166
1982 1 -20.9236 -4.55749 22.7323 2.68186 -2.75993 1.2373
1983 1 17.3201 -5.10152 -4.69983 -0.645288 1.39395 2.61126
1985 1 0.601781 -24.0025 -10.6264 4.25518 -1.79457 -2.20299
1986 1 13.7969 -5.82555 2.76141 -1.17507 5.89775 -3.57619
1989 1 -11.5118 -14.5685 11.057 -6.17858 3.67108 -0.568884
1990 1 19.7142 -14.5662 -5.89348 4.33474 -0.0976996 3.66439
1991 1 -23.019 -23.6737 20.4807 1.52947 -1.73784 -1.67503
1994 1 -24.5598 -18.2604 3.51077 -4.3955 2.31211 1.58157
1999 1 -2.44468 -11.3257 23.4219 3.04585 2.08979 -1.66781
2001 1 -9.66989 -12.2016 -3.58925 -1.74229 4.22603 -4.28376
2003 1 12.1826 -4.55149 -9.53875 -1.45642 1.28684 -1.43418
2004 1 -1.26784 -21.9555 -22.7465 4.50507 3.28709 1.40727
2005 1 3.67814 -3.70938 17.6688 2.45351 -5.38755 3.17527
2006 1 10.5559 -10.6906 -7.85436 1.25075 -7.57716 -2.92298
2012 1 17.1914 -19.9743 14.5603 -3.35975 -4.39901 -1.42794
2014 1 -9.50147 -9.26166 13.2515 -2.14403 -1.40543 0.369103
2015 1 -2.62029 -7.46618 -2.9228 -1.54352 2.61511 -2.15023
2016 1 -5.60826 -16.2419 -7.15508 -1.87299 -0.3528 4.15632
3492 1 18.5028 -1.25185 4.66511 0.873344 -3.12805 1.12453
2020 1 9.24436 -13.3369 -14.5902 -0.0711074 1.74994 1.61472
2023 1 -21.7017 -11.7663 7.49272 -2.25408 -3.76786 2.43536
2025 1 3.06823 -9.67588 23.3491 -0.816624 -2.7567 -7.41161
2028 1 1.28562 -2.75396 -19.621 0.47525 0.793759 1.66441
2029 1 14.4377 -8.46229 -2.3752 -3.41497 -0.810757 0.954741
2030 1 9.95635 -17.7404 -21.8431 1.8624 4.09677 1.90235
2031 1 -6.89847 -21.6199 -11.9268 0.420216 2.67029 -5.857
2034 1 -10.3061 -3.28743 -17.7458 2.16761 -0.695713 2.17412
2035 1 16.2609 -16.6426 22.1508 0.520459 2.23787 3.02298
2039 1 8.62655 -20.433 -21.8667 -1.88791 0.687281 3.21934
2040 1 -7.11703 -24.041 -5.04676 -0.725772 1.95603 1.8773
2041 1 -13.1586 -13.3472 23.1079 7.68561 1.60761 -0.610721
2042 1 6.45259 -20.5779 22.7795 -1.42793 -0.851685 3.13613
2044 1 3.04286 -6.20883 3.12236 -0.901408 1.60078 -0.268809
2045 1 6.43652 -17.7256 -14.9864 0.577057 0.645417 2.06576
2047 1 -6.26069 -13.9647 7.26954 2.73713 3.12745 0.857766
2057 1 16.9278 -4.0306 7.45909 -2.97848 0.210448 -0.49741
2059 1 3.56558 -9.13334 19.4777 2.01841 -2.31754 -1.05938
2060 1 -8.20507 -2.13457 -4.81231 -1.84509 1.75401 1.75756
3980 1 -23.1028 -16.9366 -13.0483 2.56008 -1.14133 4.46101
2063 1 -11.7093 -11.0916 -19.2777 -1.30261 3.29163 3.81556
2064 1 -14.2134 -17.406 11.4895 0.73928 -4.82428 -1.55839
2065 1 14.7418 -18.5712 23.8271 -3.34337 1.8471 -3.5638
2069 1 21.9146 -21.5674 -10.6079 1.4494 1.01226 4.1134
2071 1 -21.1549 -14.502 21.6456 3.40269 3.61614 -2.47861
2075 1 -8.00862 -15.2229 22.611 1.16468 -0.000726857 2.58144
2077 1 -17.6177 -4.46896 4.74532 -2.15469 -0.804623 -2.61796
2079 1 7.38088 -14.7804 -19.4353 2.86938 1.26648 0.665534
2080 1 -23.9709 -24.9058 -15.8135 -0.340223 -4.10665 -1.91726
2085 1 -20.706 -20.9305 -8.50615 -1.37537 7.70422 -0.10269
2086 1 -10.9103 -13.6134 6.69301 0.792015 -3.61114 -2.15227
2095 1 -20.9852 -8.04186 2.98798 -2.35862 3.14389 -4.2923
2096 1 9.02448 -5.06775 0.311678 -0.681919 2.97282 0.853069
2098 1 -15.4755 -17.5969 -7.14204 -0.590613 3.6016 4.42779
2099 1 15.1073 -10.2966 6.42194 -1.09183 -1.00945 -3.38612
2100 1 -1.27076 -3.79352 22.7583 1.1266 -1.08905 1.89406
2101 1 -23.3349 -7.3849 19.5281 1.65621 -0.567095 -2.99988
2103 1 10.4878 -15.9331 -14.9919 -1.31654 2.54644 -1.72588
2104 1 -22.1437 -4.37919 19.6134 -4.89225 -4.31573 -5.01934
2106 1 -20.7735 -16.506 -20.5538 4.67461 -3.42536 -1.20879
2111 1 23.0711 -11.338 21.6066 -2.55402 -2.12165 0.917075
2113 1 -17.6295 -4.02329 21.1056 -1.50754 -0.197567 -3.41856
2114 1 0.434028 -23.5022 20.1917 3.43799 -0.218658 5.99241
2115 1 17.3331 -13.2985 -9.11819 -0.29198 2.07252 -0.982216
2116 1 19.9999 -3.64299 4.46971 -3.15414 -3.12643 -1.25994
3309 1 4.34441 -1.6191 11.3783 1.68512 3.99656 -0.943666
2120 1 15.8289 -17.6784 11.3773 1.4386 5.45605 -0.870584
2121 1 8.87184 -19.3912 23.1907 7.84221 -5.93066 -2.053
2123 1 21.9333 -8.42333 -18.5753 0.195131 1.66333 0.232352
2124 1 21.6099 -1.23322 -18.0603 0.447956 2.57894 3.46743
2125 1 -2.62816 -14.7846 15.4329 5.63472 -2.7339 0.902536
2126 1 11.0342 -6.2386 -3.66277 2.25213 1.99666 -4.52473
2127 1 23.5754 -9.93115 -22.6266 1.59033 -2.92501 -2.3224
2128 1 -17.8815 -19.8505 -2.54677 -1.58309 -1.20961 2.942
2129 1 -13.4002 -22.4563 13.3342 -1.83712 -1.49967 -0.367558
2131 1 18.4931 -6.41964 -2.31292 1.41837 -1.20647 4.76099
2132 1 10.5503 -21.0189 -23.845 0.328566 1.76592 -0.908722
2133 1 -13.5977 -13.7446 7.29066 -2.78446 -3.27724 0.236422
2136 1 -4.96411 -21.8892 4.38086 0.0508127 -1.52693 -0.750825
2140 1 9.37828 -13.7779 17.0952 3.49976 3.70105 5.60368
2141 1 -21.4804 -21.8291 0.959997 2.5061 5.90672 -1.01239
2142 1 -17.4054 -8.79945 17.4535 -0.243791 1.42744 2.19993
2144 1 3.74177 -1.59878 5.08072 1.31786 7.1024 -1.992
2148 1 11.5186 -21.8895 19.4101 -0.284203 1.02395 5.41354
2149 1 18.7944 -2.74779 -4.04179 0.0251463 6.90396 -1.93062
2150 1 17.5789 -8.86791 1.4904 0.0453 -3.24122 3.88247
2153 1 -8.04652 -11.1775 -1.41312 -3.10178 -1.86814 0.0319313
2159 1 4.36793 -20.2619 12.3322 1.20857 4.57553 -0.430393
2163 1 6.2431 -7.26873 12.9256 0.834549 -1.17956 1.92575
2167 1 -14.2839 -10.6716 -17.6765 0.652933 1.46359 -2.46709
2169 1 10.0421 -7.12436 -20.9924 5.34948 -1.02996 -0.899597
2170 1 -7.89239 -15.8218 -0.742409 -3.54885 -0.142265 -0.623415
2175 1 10.6939 -23.6084 10.9922 -3.31426 1.72264 4.6335
2176 1 9.65039 -19.9134 14.6911 0.0935615 -3.94485 0.843804
2178 1 17.7628 -15.5363 -7.53704 0.939414 0.453502 0.042899
2179 1 11.0164 -3.56591 5.90408 -5.25538 -1.04451 -1.09035
2180 1 11.9419 -7.29225 -10.6775 -0.269147 -2.39991 2.47987
2181 1 -17.5624 -21.3971 21.2052 0.79879 6.25452 -2.0732
2183 1 6.33841 -4.72072 11.3995 0.870701 2.66641 0.461531
2186 1 3.03818 -9.37754 -18.33 0.925842 0.154555 2.71451
2187 1 15.6174 -5.6742 9.50138 -2.75773 -6.14761 4.34498
2193 1 16.4978 -13.9785 -14.0429 0.917485 -5.99184 1.75611
2195 1 -10.5683 -18.9686 -9.90094 -0.0459106 5.50499 1.09567
2200 1 -3.82125 -23.1775 1.87051 1.47452 -4.78441 -0.204804
2201 1 13.8362 -12.7657 -20.602 -3.13096 1.66418 0.975788
2202 1 17.4574 -19.2081 -18.7872 5.27337 0.498743 -0.0984062
2206 1 -2.61656 -9.42931 -14.7541 1.80845 -3.90526 -1.72001
2207 1 -23.955 -8.57361 -1.83656 -1.09658 2.06876 -0.991175
2210 1 20.6734 -18.7836 -1.72692 -3.2398 1.75155 1.9456
2212 1 -17.6535 -4.37457 -5.54885 1.09087 -1.15547 1.21562
2216 1 2.3177 -1.80304 -14.0256 0.383836 1.25751 1.00206
2217 1 12.1399 -12.9231 21.3423 -2.22398 3.88748 4.90002
2218 1 -18.1564 -6.71151 21.2778 -5.45198 2.07124 2.35741
2219 1 -10.6585 -23.2711 16.3998 0.51606 3.23051 -0.950176
2225 1 0.93375 -17.1259 -23.001 3.68773 -0.499768 -3.77161
2228 1 -8.9667 -6.20442 -23.6179 -1.1873 5.22493 2.51535
2235 1 7.99462 -23.9637 11.9583 2.96056 1.52054 -0.192501
2237 1 -1.7313 -23.1197 -19.97 -4.19054 -3.04847 4.72315
2239 1 -15.8292 -9.77877 23.382 5.64543 2.33633 -2.52213
2241 1 -22.9185 -3.22886 -17.7886 -4.99383 1.94702 -1.84158
2242 1 -11.6503 -15.4645 19.7777 -0.397712 -3.55168 -1.5855
2245 1 21.4545 -18.7418 9.74031 -3.28404 1.22668 5.17659
2247 1 22.8458 -12.3975 8.95849 4.59933 -0.278364 -4.184
2248 1 -2.32712 -7.11092 -13.1984 7.41197 -0.0295618 1.33476
2251 1 -11.5461 -8.9547 -11.6071 3.29042 -2.82025 4.61136
2252 1 23.2951 -12.5383 -1.14206 0.409981 5.43376 5.39778
2253 1 5.83227 -17.9919 -3.40531 -0.0226028 4.69181 -0.0184941
2255 1 2.04757 -3.13896 -16.7354 -0.491498 -0.472315 0.379362
2259 1 -21.3924 -9.0896 22.4997 2.5121 -0.183258 -1.70249
2261 1 14.6576 -4.63733 -7.71894 -1.33562 4.71909 2.69546
2262 1 17.3225 -22.119 -1.33101 -0.193454 -0.909309 0.645945
2263 1 1.86726 -15.4757 -2.37302 0.811736 -1.36473 -1.0874
2267 1 -10.6079 -15.1899 -0.965861 4.8996 4.621 -0.342705
2271 1 21.9283 -16.85 -8.44334 -1.85186 -1.41307 0.248721
2273 1 -23.0992 -20.237 15.3854 7.68708 -3.95055 0.096185
2278 1 -14.6359 -14.7352 -4.75374 5.20533 0.660917 -2.24336
2280 1 11.5191 -10.89 -2.50737 -3.27948 0.748111 1.3803
2283 1 22.0737 -12.0464 6.09444 4.58931 3.76509 -0.16856
2286 1 3.65252 -9.04051 2.87211 0.373673 0.155969 -3.27595
2288 1 23.0628 -7.70653 -6.56176 3.42903 1.90295 -0.773413
2290 1 14.8579 -9.26887 22.2668 3.23837 -2.99457 2.70225
2292 1 -13.9756 -10.8055 -2.68672 3.33842 3.70726 4.80288
2296 1 -22.2695 -9.46143 -17.8021 1.21207 -2.54068 -1.16941
2298 1 -3.32662 -21.3672 -6.10203 -0.295092 3.78555 -0.101716
2299 1 9.14185 -12.1869 -3.06056 3.39171 0.726906 2.48331
2301 1 5.17123 -23.1189 21.7279 -3.81503 2.92124 -0.282172
2306 1 3.35899 -4.42962 22.1198 0.604135 1.90622 2.41784
2310 1 5.0064 -17.9879 8.1068 -0.192393 -2.31556 2.22816
2312 1 -20.7692 -20.515 8.42597 -2.24809 -0.247831 5.44547
2316 1 -18.2364 -12.0023 2.52232 3.18397 -4.98566 2.69918
2317 1 -4.41872 -10.7768 -8.48049 3.45363 -1.92449 -1.21714
2318 1 20.3974 -5.02787 -5.00574 -1.32712 1.91947 -0.418658
2319 1 5.05757 -9.19827 7.80254 -0.0599758 -0.507839 -0.131038
2323 1 3.50227 -3.53749 -4.16699 3.73581 7.01088 -3.4616
2324 1 7.52578 -19.0832 -17.2496 2.44827 0.456839 5.96968
2325 1 14.7299 -20.6925 -15.8933 0.047036 -2.86336 -0.76406
2326 1 22.3851 -10.6158 -13.1405 1.15767 -2.28637 4.23059
2328 1 -9.4842 -8.02255 -4.63123 -4.06002 3.8039 0.739879
2330 1 12.2612 -21.5894 16.6442 0.315151 -1.67844 -3.48329
2331 1 -16.7583 -14.6936 12.4717 -3.31172 -3.13269 4.4398
2332 1 21.2756 -16.2834 12.6784 0.978428 0.410497 -0.418093
2333 1 10.9211 -19.461 -12.7859 0.545129 0.619159 -1.5486
2336 1 16.6924 -13.0537 -20.5626 2.23578 1.02283 -0.834964
2338 1 -0.581819 -4.02444 -21.7083 2.63328 -2.472 -0.717801
2341 1 6.42838 -18.4565 -21.4085 3.05277 4.18537 5.27876
2342 1 8.69633 -13.8862 0.935524 1.39767 0.933461 0.106428
2346 1 -3.87151 -20.3095 8.33348 -0.57852 0.267582 2.67031
2348 1 7.42983 -1.94927 3.51611 -1.89071 -1.44874 -0.937819
2353 1 14.8038 -2.41339 6.29585 0.584877 0.21432 0.552764
2354 1 19.3734 -19.4224 -22.9563 0.193771 2.00047 -4.26488
2356 1 15.0627 -22.4592 -8.74118 -3.0044 6.26936 -1.12898
2357 1 -2.19922 -2.25282 1.80076 -1.73753 0.620009 2.22893
2358 1 2.5515 -11.9871 -11.3438 -0.654134 -2.63958 0.909599
2363 1 17.6699 -11.0828 -0.461901 1.95569 5.41376 -0.537271
2364 1 2.14151 -2.17604 0.474194 -7.62454 -1.36863 -0.321767
2365 1 22.2598 -8.53737 -3.66503 3.63523 -1.24069 -0.910143
2368 1 -7.61464 -19.6185 -7.44299 2.78271 1.31685 4.88282
2370 1 -23.6077 -9.10314 -4.80911 0.076088 1.71072 -5.7193
2371 1 16.9403 -20.0591 0.595033 -2.49693 -3.32692 -3.42582
2377 1 -6.82922 -7.24913 -5.70437 5.78312 -3.71819 -3.61999
2378 1 6.1814 -1.55135 19.5402 -1.661 0.598248 -3.88473
2380 1 9.20839 -13.0262 21.7159 -0.998145 -1.64427 2.24976
2381 1 12.4205 -8.67566 -4.2595 6.04064 -1.55334 0.87703
2383 1 22.8441 -18.317 5.93282 -3.0655 5.16238 -3.14324
2384 1 7.96977 -11.8935 -24.2466 -1.97952 -1.62997 3.30666
2386 1 2.57445 -3.34196 7.39393 -1.30836 0.806209 -1.73348
2387 1 -12.7454 -6.40952 12.9475 -3.53655 -1.21366 -4.17366
2389 1 7.92405 -10.7746 10.9786 1.52047 -0.671476 2.88962
2390 1 -21.3265 -5.5997 -8.02328 -2.8921 3.87765 1.53818
2391 1 -8.0459 -2.51075 7.7647 2.44926 1.26737 0.659545
2392 1 9.39348 -21.8266 -15.2058 -5.29493 3.1144 -2.73729
2393 1 4.44978 -17.6231 20.3746 -0.186254 2.40543 -2.44196
2396 1 -15.7061 -19.8947 -0.943265 1.20268 1.61338 -2.67904
2397 1 -16.0789 -7.84645 19.9363 -2.47542 4.47867 0.707873
2398 1 -8.46639 -2.07225 14.4226 3.63642 -4.5743 -3.44145
2399 1 -13.777 -9.62566 11.3908 1.01427 5.21943 0.810973
2400 1 12.4023 -7.81146 16.0702 1.36712 -4.05763 2.4479
2404 1 -22.0352 -6.78897 -23.4338 -2.6169 -3.59484 0.910527
2405 1 -5.60933 -12.2757 -20.7134 1.3102 -0.0264424 -1.43695
2407 1 -13.281 -13.1919 14.4168 -6.74551 5.9384 3.55051
2408 1 -21.7651 -4.19771 -12.5239 -1.69506 -3.7779 1.99148
2410 1 5.54844 -20.82 -23.2456 2.46732 -0.233092 5.37843
2414 1 13.4573 -7.16095 -6.59019 1.03843 -5.18521 -1.76993
2415 1 22.2649 -24.492 -23.7106 -3.04054 -0.713289 4.64611
2417 1 -3.68232 -4.53285 0.492676 0.946089 -0.432702 9.64028
2420 1 -1.24117 -5.98514 -8.62127 -2.00653 -2.85416 0.571342
2428 1 12.8929 -16.4819 13.8171 -1.55229 -3.70764 -3.0799
2429 1 -9.10729 -9.70729 -13.4564 -1.97139 3.118 2.2393
2430 1 -13.4972 -7.47522 16.7021 -1.18642 -1.64281 -1.55951
2433 1 19.1365 -23.7737 21.7021 -2.08269 -1.42318 3.401
2434 1 -0.369995 -22.3464 -2.34414 1.46062 2.37117 1.86005
2437 1 -14.3333 -5.33329 10.5562 -0.949308 -2.99153 2.13604
2438 1 -5.2147 -22.4099 -22.2093 -4.10383 1.10735 -0.857103
2440 1 6.35476 -4.5467 -15.9326 -5.07634 4.03657 1.27955
2442 1 -2.57047 -10.0541 -17.5406 0.814071 2.18145 1.33715
2446 1 -2.03661 -6.10841 16.0836 -1.99781 -1.78417 -0.864317
2447 1 -1.45216 -13.1078 17.6597 -1.38365 4.50707 -1.95206
2448 1 0.505444 -13.6855 -9.16564 2.55986 4.12463 0.382096
2449 1 17.6026 -22.8605 12.465 -6.36103 0.646811 2.90689
2451 1 8.06246 -22.4927 4.76742 -1.7439 -5.23159 0.455281
2463 1 -14.7222 -20.7371 23.9245 8.20994 -1.53043 1.02617
2465 1 -8.00443 -14.8692 -11.6861 3.31014 1.08876 4.96831
2467 1 1.81529 -18.2872 10.6196 1.90426 2.97682 0.241086
2468 1 -20.2401 -23.4162 -5.36083 -1.4293 -2.45781 2.98864
2469 1 12.5934 -23.2568 -23.8228 1.21349 5.32702 -5.40573
2470 1 12.3569 -19.7071 -8.58186 0.437592 -1.86145 1.22473
2474 1 -5.48612 -9.16515 -17.299 0.78985 0.717282 -1.44486
2476 1 -8.05251 -19.3136 -18.9787 -3.00176 6.85598 0.466903
2478 1 -4.50192 -21.9038 -1.45756 2.5715 1.77644 -5.31683
2479 1 -21.2494 -4.37756 2.49114 -1.64897 0.640816 2.44715
2481 1 -16.3457 -7.77411 -9.71673 -1.30846 2.47366 -3.17584
2482 1 7.08232 -3.62973 -1.23087 2.89182 4.40818 -0.906392
2484 1 1.52612 -15.6008 -7.2727 -2.12718 2.44129 -3.56541
2485 1 -1.48041 -18.6117 4.96115 -2.21732 -0.146731 5.40048
2486 1 -4.08839 -19.3741 5.75953 -3.99306 2.58374 1.98526
2491 1 11.0943 -22.3621 -3.73667 2.38128 1.26836 2.83692
2494 1 -14.1974 -15.517 -23.6428 1.64998 -1.88408 -2.4001
2495 1 14.6369 -12.3752 -9.78665 -1.64355 2.23551 -0.0764188
2499 1 -24.7366 -14.945 8.86737 1.06319 3.52538 2.84767
2502 1 -6.08412 -12.346 10.9976 -0.133644 0.70789 -2.55586
2507 1 8.44591 -2.51264 -16.5744 -2.18375 -2.72767 -0.265221
2509 1 -3.97107 -8.75293 3.81169 -4.54942 5.06873 3.41951
2515 1 2.27898 -20.6094 2.18611 2.65295 -0.55736 -1.37831
2517 1 -10.994 -13.7704 16.2455 -3.24552 1.03506 0.205741
2518 1 -1.93711 -3.70087 -1.57356 1.47184 -2.99614 1.72554
2523 1 -18.9043 -23.877 -20.9211 3.98405 -2.23494 -3.12358
2525 1 -13.3184 -14.5864 -9.11182 -0.96385 2.49689 0.139661
2526 1 -10.6783 -5.09897 -15.5387 -2.46138 -1.56063 -0.525536
2529 1 -20.0361 -8.21242 -3.37902 -5.26219 2.17389 -4.18773
2530 1 4.78421 -13.1134 -16.1047 -0.769398 -2.07607 3.71887
2531 1 -19.605 -9.61688 -16.9585 4.0252 -5.72024 0.858643
2532 1 -13.9439 -16.6473 1.5192 -1.05445 -0.677107 0.236764
2534 1 -18.3667 -10.5011 -2.26796 1.03362 2.31456 4.37803
2535 1 15.1727 -5.71439 15.2274 2.21384 3.35669 3.51074
2536 1 23.3333 -20.5658 23.8807 1.10961 -2.8156 -2.68375
2537 1 -1.83885 -23.0214 13.3947 -2.83333 -3.3306 -3.77829
2539 1 13.1912 -11.0534 17.6123 0.688079 2.11029 0.562718
2540 1 19.783 -9.49653 16.4189 -1.5442 -1.628 -1.08166
2542 1 -12.7026 -7.02928 -21.1845 -3.55913 1.20189 -1.14431
2543 1 -17.114 -6.92301 -7.22554 -0.894954 -1.30043 3.07568
2547 1 -12.5608 -3.04267 6.26287 6.68953 3.17399 -2.0834
2548 1 17.4661 -5.04956 -7.57429 0.632034 2.49958 -2.31946
2550 1 -23.4993 -18.2102 -18.0804 3.80827 0.563836 1.32609
2552 1 -1.71368 -13.5616 7.90786 1.59181 -1.99232 -3.2171
2556 1 -8.48556 -13.749 10.9889 -4.69806 2.92877 5.54325
2557 1 16.899 -21.9235 -12.5104 2.11509 2.35674 0.608849
2560 1 20.6731 -21.4016 9.31275 2.47224 -5.02697 -1.67664
2561 1 -10.1502 -2.46793 12.0143 -3.36296 -2.83438 0.0735631
2562 1 -19.588 -5.21379 -11.1239 0.571197 1.42482 -0.375547
2563 1 19.5448 -3.59067 -21.9519 0.88588 -2.62841 0.423083
2564 1 -10.8601 -14.9608 -10.7833 -0.0498238 3.25308 0.320014
2566 1 23.2132 -11.1389 13.9309 0.85783 0.748075 5.34507
2568 1 19.8978 -9.67765 -20.3873 2.25672 -1.16738 -4.82404
2569 1 -24.0961 -19.5181 -13.0866 -2.71428 2.02178 2.33718
2572 1 -24.3057 -18.0148 -4.94655 3.70054 0.755898 6.44158
2573 1 18.5439 -23.4998 -3.54575 0.910291 -0.625624 1.71465
2574 1 -18.562 -22.672 -7.39098 -1.08965 -0.595938 -5.13247
2578 1 -17.4199 -14.3879 -3.60744 1.41815 -5.73968 -1.64573
2584 1 -11.446 -20.8213 -11.8242 -4.39932 -3.8895 -1.069
2585 1 15.4643 -15.7756 19.256 0.681513 -2.22192 0.50881
2587 1 17.457 -18.3973 7.83664 0.628972 2.80156 2.23409
3998 1 -12.4005 -3.20851 0.870963 1.24363 2.89249 1.10519
2589 1 -1.2854 -8.24069 8.90653 -0.419482 1.49181 2.44209
2591 1 -4.62094 -23.1034 12.8671 2.61412 -1.90487 -3.49273
2592 1 -0.802524 -17.4879 7.50718 5.61689 0.035177 -1.33319
2593 1 -24.5132 -5.37722 -23.1414 -0.645212 0.432737 -1.29323
2594 1 21.7353 -7.65325 17.6225 0.175887 -1.04245 -4.23097
2595 1 -1.84948 -17.0118 -19.355 4.47194 -0.790153 -0.0775911
2597 1 -19.7701 -3.15458 -17.3948 -1.45931 2.76345 0.215666
2602 1 -5.27677 -11.6655 -1.97244 -3.25486 0.418858 2.13386
2604 1 13.2491 -11.8038 -0.611774 4.00504 4.16817 -0.56287
2608 1 12.3802 -18.9874 -22.9106 -2.87077 -3.057 -1.93225
2609 1 -14.6495 -4.6766 -17.8027 -1.13769 -0.527561 -1.12265
2612 1 -16.5415 -20.6598 18.3767 -4.54297 3.71024 -2.72226
2616 1 -24.3706 -2.37644 -9.59392 -4.18726 2.47242 4.39497
2618 1 -8.4251 -17.6596 -12.0091 -0.30614 -2.73886 -5.40171
2621 1 4.35535 -23.1175 6.60297 -0.912445 -5.0188 0.0318813
2622 1 -2.81274 -18.3608 22.3232 -0.448744 -1.68164 -3.73586
2625 1 -7.49965 -5.11103 22.568 1.51212 1.8263 2.51393
2628 1 12.3535 -7.75352 -22.5341 0.0873725 -0.838085 -0.0521022
2629 1 -21.7419 -2.33092 6.62708 0.492556 3.44884 -1.96234
2630 1 -12.559 -9.32776 18.6604 -0.518929 0.29015 -0.927141
2632 1 19.098 -2.14467 -17.5133 5.02306 0.534086 0.95157
2633 1 -4.11623 -15.739 -13.0116 1.104 2.87992 2.4834
2636 1 -13.7631 -20.1076 15.3146 -3.16831 0.184279 -4.99151
2637 1 9.4873 -14.281 -17.5286 -3.84984 -4.33132 -5.21934
2639 1 -0.779924 -8.73463 19.6535 -3.57547 -0.378953 6.85615
2642 1 -5.96739 -19.145 3.31372 2.70092 0.633684 -1.43582
2643 1 -2.34114 -14.6151 -23.847 4.05481 -2.66313 -4.92354
2644 1 20.0517 -19.7526 -12.1388 0.897917 -0.90669 -5.48141
2645 1 5.23458 -22.3726 15.6769 -2.14398 -2.31667 -1.36631
2651 1 -16.3008 -18.8068 16.1038 -0.402996 2.01389 -2.68921
2652 1 -20.9523 -6.03047 -14.4464 -5.34689 -3.39926 2.53023
2654 1 18.9718 -9.49614 -2.5198 -5.99163 -5.10865 -0.430485
2655 1 -6.10161 -9.75657 0.454167 2.04445 2.88712 0.178976
2657 1 -11.0266 -6.94308 6.81767 5.05119 3.93183 -3.1353
2659 1 16.0763 -5.48347 -23.1246 -1.34891 0.830398 -4.65915
2662 1 -22.4709 -22.5615 10.9953 3.35498 -5.4472 -2.89621
2666 1 20.365 -22.7016 1.77024 2.93565 -0.156453 -5.05927
2667 1 -8.45444 -5.18577 -3.97477 0.826906 -3.04182 -3.21139
2668 1 -8.37789 -17.7843 -22.262 -3.14553 2.78508 1.38238
2669 1 1.59039 -8.0704 17.5844 0.24079 -3.92058 -0.553961
2672 1 7.12795 -6.8571 9.62745 2.13554 -3.59023 4.71215
2673 1 -13.8428 -22.1488 -1.55345 5.89487 1.84105 -0.463734
2674 1 -9.02762 -21.3922 -1.27216 -3.50326 3.13772 -3.71194
2677 1 -0.901124 -23.3056 1.92269 -2.89709 4.70246 3.04616
2678 1 3.85285 -18.8438 -14.8786 0.935398 -1.71915 2.71692
2680 1 9.11225 -3.77976 -7.77259 1.93978 -1.72876 -4.11887
2681 1 -14.6093 -7.87466 -17.8694 -0.255117 -4.37014 -5.52571
2684 1 -23.6368 -11.0006 3.83057 2.45072 1.55309 1.14199
2685 1 -2.37286 -9.54193 6.42249 -3.72219 0.64474 -4.41538
2686 1 5.19296 -22.4039 -18.159 -3.78873 2.42584 0.282749
2687 1 18.9601 -15.0865 -13.7183 -1.43721 -2.41532 -0.306567
2688 1 -17.6886 -2.93083 0.0638416 2.99824 1.18122 1.55887
2689 1 -7.3757 -2.78499 -8.20252 -1.97265 -2.2304 -1.79893
2690 1 -14.7301 -13.2835 -18.8195 1.33786 -2.09738 -2.67938
2691 1 -20.2346 -23.8326 19.9273 0.942315 -4.12186 -0.253111
2694 1 -4.98581 -11.6297 20.2026 2.21628 -3.4247 3.56689
2696 1 22.0371 -18.0883 23.6095 -0.241451 2.88816 -1.1652
2698 1 15.026 -13.4982 20.9846 0.295828 2.66678 0.846839
2700 1 -8.9064 -19.8906 2.92124 -3.24351 1.96454 0.80627
2703 1 13.9812 -5.88103 -12.2426 -0.700536 3.81343 -3.32451
2704 1 1.91107 -23.6853 3.16207 2.52631 1.26163 -0.617202
2705 1 -2.82808 -5.36617 5.87158 4.17498 -7.02076 -5.07341
2706 1 2.33438 -22.5017 22.3516 -4.77879 -3.36711 -1.37119
2707 1 -9.49779 -13.0821 0.620179 -4.69296 2.97767 5.13084
2709 1 20.3705 -3.55143 21.0655 -2.88479 2.89638 2.89826
2711 1 -15.1944 -5.92006 23.9445 -4.68835 4.5095 2.9091
2718 1 10.8162 -15.6652 -23.762 1.1796 -0.841018 1.65193
2719 1 22.4488 -10.3555 3.00484 3.82438 -1.05803 -0.254563
2720 1 -13.9458 -9.25035 -20.2675 9.18842 -3.61803 2.82785
2721 1 4.32432 -12.7555 11.9978 -4.77969 4.28556 1.81075
2726 1 -11.2997 -7.81576 -23.3487 -0.395128 1.62359 0.954647
2727 1 -13.017 -19.2039 -2.10643 0.741999 0.0483637 2.13103
2728 1 22.6665 -3.19887 12.743 5.77235 0.698211 3.55366
2729 1 -4.45347 -22.4068 -19.2295 -0.20335 -3.16328 -1.06091
2730 1 -7.76332 -16.5349 10.6327 -3.11467 -1.4332 2.10125
2734 1 17.4634 -10.0947 21.0698 5.78608 -1.75855 -1.71447
2737 1 -21.9212 -18.3255 -0.0144872 -1.40209 4.40068 -7.89245
2739 1 -13.3137 -7.28419 20.583 -2.89635 0.662422 -0.972356
2740 1 -13.3934 -14.6903 -20.8962 2.57864 -0.357464 -3.48598
2743 1 0.652223 -19.112 -7.71107 -0.880193 1.50542 -1.6075
2744 1 -17.0429 -18.3601 -21.0557 -2.06907 4.44926 -2.69222
2746 1 5.36709 -12.3669 -4.01111 -0.882893 0.170745 -0.877302
606 1 4.21056 -1.93535 -22.2171 2.57218 -4.93594 6.29621
2749 1 -13.4745 -8.26023 23.2872 -4.02662 1.99516 7.65259
2751 1 7.72499 -23.833 9.02565 7.41048 5.30275 -0.335421
2753 1 -0.861239 -7.16154 12.7038 -1.38453 -0.0217808 -2.48505
2755 1 1.51283 -13.2656 17.5606 6.41837 -2.85608 -5.25161
2757 1 17.9872 -17.1871 19.7543 -0.293475 2.60875 -0.491869
2758 1 -20.4164 -15.6096 -9.02078 4.17117 5.16627 -5.26627
2759 1 -18.5988 -16.1818 7.90336 3.18043 1.13718 0.999389
2761 1 -6.51766 -14.2272 18.2383 -1.58536 0.293473 2.11572
2763 1 -5.95405 -11.6209 17.4134 -1.55981 1.72226 2.10085
2765 1 8.28949 -17.5613 -19.4284 -5.8717 0.696639 -2.94731
2767 1 -13.2846 -19.0807 -21.4938 0.159338 -2.62604 -1.81295
2771 1 -19.2005 -14.882 -17.3464 1.98227 2.53845 1.65036
2775 1 -4.13556 -19.0247 14.3241 4.20706 2.03318 4.90361
3996 1 4.0659 -13.9584 2.80565 -2.62764 -5.16507 -1.6537
2782 1 7.40403 -9.68481 13.696 -1.85586 0.372016 -1.16977
2783 1 11.4267 -9.29423 -13.8856 1.08287 5.81987 -0.556727
2785 1 22.8487 -3.132 -14.3738 2.82188 -4.40298 0.66718
2786 1 5.84742 -4.19586 2.91991 -4.51176 1.34387 2.6334
2789 1 8.6564 -6.46249 -5.17196 -1.91564 1.65393 0.899109
2790 1 -7.80756 -5.49012 -15.0063 0.627741 0.365473 0.584944
2792 1 -7.21904 -6.15759 3.47416 -4.87673 1.90066 -0.93391
2796 1 18.8277 -15.2777 13.5064 0.260312 0.644431 -2.15668
2797 1 17.8642 -11.9895 -24.1386 0.762359 -1.05311 -0.628255
2799 1 -0.82543 -17.3391 -6.20719 -1.44993 -2.84569 -2.33833
2800 1 -12.4817 -14.5616 -16.5046 -3.59832 0.467258 1.00743
2803 1 23.2049 -5.69418 -15.3214 0.357487 -5.28288 4.9812
2808 1 3.62236 -23.6708 -10.1254 1.47459 4.27932 -0.81065
120 1 3.13566 -1.3212 19.509 1.83802 5.10751 -0.982056
2813 1 0.197651 -9.67243 -17.7689 1.90682 -2.69443 -0.0739881
2814 1 22.5714 -4.04667 -6.67192 -4.55533 7.03363 -4.50208
2816 1 2.38649 -15.8508 18.9418 1.14393 -0.46113 -1.79207
2817 1 5.49588 -16.2609 -23.3358 2.95366 4.32073 -0.0955347
2818 1 0.340907 -2.85569 2.62741 6.57109 2.80929 -0.161442
2821 1 18.0524 -10.4072 -12.3045 1.25804 0.862732 -2.06028
2822 1 -14.9262 -2.67792 4.63816 -0.334769 -3.31098 -3.79649
2823 1 12.3006 -14.3616 5.47514 -0.231792 -3.87374 1.05124
2826 1 7.71194 -19.4789 -1.23457 3.4053 0.233306 -1.27226
2827 1 5.09711 -10.5217 21.4824 -2.79481 -1.53017 -0.24905
2828 1 2.08178 -5.47663 -18.6071 -0.629872 1.14153 -1.60399
2829 1 17.7281 -21.3023 8.48444 1.74714 -3.46022 -1.18082
2832 1 -24.5743 -18.9162 -7.59945 -0.826175 3.29666 -1.60704
2834 1 -9.67222 -17.3955 22.0603 0.565431 -3.82229 -2.13106
2838 1 18.012 -13.0694 21.9032 0.811226 3.58218 -0.434691
2839 1 -17.9459 -3.5001 -22.4474 -4.42014 1.48675 -10.4973
2840 1 2.9702 -19.2871 -23.0909 7.79661 -0.280317 0.61939
2841 1 17.1969 -17.6084 -3.81474 1.87339 -4.75696 2.76818
2842 1 -3.72356 -12.3587 -10.8114 5.56321 3.31722 0.465997
2848 1 -17.4981 -23.5209 -9.98702 3.69941 3.48629 -4.96317
2849 1 -22.4798 -23.9112 13.509 0.196001 -1.64042 -1.84921
2852 1 2.98025 -5.08132 0.478076 -2.21735 0.130077 2.50296
2854 1 5.46188 -6.64799 -6.69308 5.61308 4.61596 -2.43386
2855 1 -18.6376 -6.89012 -20.179 -1.5003 -0.412847 2.28206
2856 1 16.5875 -15.0329 -0.609186 5.36772 1.92689 -0.581187
2858 1 11.5395 -2.39648 -21.154 3.82315 0.346733 3.85372
2859 1 -24.0112 -23.1572 -17.9109 2.93617 -1.43085 0.711564
2862 1 11.407 -2.78111 -16.5306 0.967886 0.61733 -2.41789
2863 1 20.3101 -18.791 -18.4507 -0.48924 4.73848 1.47068
3979 1 -10.8831 -23.8785 3.9479 -1.35404 1.49893 2.42043
2869 1 -20.5342 -17.3796 16.7752 -4.39774 6.99005 -4.72918
2873 1 -10.509 -1.34301 5.29707 -1.09394 -2.51122 -4.43846
2874 1 -0.111744 -10.7188 -11.707 1.49583 -0.018326 0.534259
2875 1 21.907 -3.21824 -11.6077 0.386696 4.49542 3.47579
2876 1 19.9901 -23.1206 -22.1334 -1.49717 0.46392 0.812075
2877 1 11.3396 -6.07008 3.97161 1.18295 1.56903 -1.32046
2882 1 -22.0771 -17.1299 21.1483 1.00092 -0.786622 2.23334
2883 1 11.6848 -14.0545 0.806359 -5.16873 8.89182 2.57177
2884 1 8.6867 -7.12468 23.961 2.67341 -0.0818751 2.45174
2889 1 4.97473 -3.51751 9.17223 4.83242 -1.11494 -4.27266
2890 1 -2.65756 -5.98388 -22.566 3.07195 3.51373 0.458071
2891 1 7.5264 -4.57754 16.1443 -3.72148 -1.11714 -3.6682
2893 1 -11.6109 -15.7735 23.5552 -0.286167 -0.920117 0.164412
2898 1 -9.24537 -10.2633 -20.4305 2.07564 0.7647 3.64577
2899 1 -5.5848 -21.4556 20.0957 -2.00807 0.30986 -0.736031
2901 1 -12.8766 -16.9754 -17.5534 2.05243 -7.16818 -1.54472
2903 1 -15.1723 -14.3478 4.87387 2.87837 -2.08391 -0.978216
2909 1 -9.7522 -3.63785 -23.4256 -1.42562 0.140982 1.08931
2912 1 10.2786 -15.7919 -6.54725 1.8685 2.01224 -0.814397
2915 1 -14.7325 -12.0852 -23.5773 -7.16275 3.45513 1.75846
2919 1 23.3558 -14.4986 -4.07444 0.868049 -3.20609 0.899764
2922 1 -17.5479 -20.7415 23.9676 1.36863 -0.286643 1.24849
2924 1 -0.835322 -16.4615 23.3816 1.23197 0.762862 5.76352
2925 1 19.868 -8.34451 13.792 -1.10207 -7.12037 -2.49635
2928 1 -22.7773 -24.6282 -9.49746 3.34092 3.90811 3.56055
2929 1 5.94554 -13.7035 7.96401 -0.144727 -2.39901 -3.64885
2931 1 0.447202 -8.41054 23.3204 0.239996 -5.80893 4.04987
2933 1 22.846 -6.0989 11.8127 0.52952 3.49816 -3.39986
2938 1 -6.90571 -5.62911 -1.68685 -3.02012 4.78029 2.57019
2944 1 7.54674 -22.2613 14.2047 -1.55459 -1.91054 0.46677
2947 1 18.1403 -14.3714 -22.7547 -2.14941 0.303273 2.29089
2948 1 1.78061 -21.2333 -0.764785 -0.440701 -1.05337 1.29345
2949 1 -11.8563 -20.268 24.1471 1.7752 0.476623 4.06042
2951 1 12.2237 -17.2398 -10.5138 7.67283 -4.33253 -2.60368
2954 1 -16.2093 -2.59352 8.88749 0.34856 -1.74004 7.42459
2955 1 10.5453 -10.0873 17.1933 0.0941703 1.84497 -4.74433
2957 1 0.647013 -18.2973 14.4928 3.60358 0.740537 0.506254
2958 1 8.7684 -8.39674 -11.7249 2.89578 0.563966 -1.15357
3969 1 16.3715 -24.4167 21.1199 5.61922 -5.90143 5.97297
2961 1 -12.2235 -12.2556 -21.9086 -3.26261 1.84298 3.94736
2964 1 -0.289956 -19.3572 -21.6812 -2.72503 0.580355 -1.95357
2965 1 19.6358 -2.52617 -13.8099 1.81764 -1.1902 -0.7641
2966 1 -3.14757 -21.4774 18.4165 3.91764 2.55337 -4.48828
2968 1 -3.31481 -12.6004 1.12378 -0.377964 5.48208 4.19677
2969 1 -4.12921 -2.52509 17.6461 -2.37109 -3.23207 2.75754
2970 1 20.5475 -12.1233 -14.63 -2.42562 2.80746 1.86452
2977 1 3.51357 -9.35339 -2.26276 2.36072 -4.82913 -0.33866
2982 1 -13.4083 -5.85077 6.05989 0.790175 -0.422615 -1.62444
3995 1 4.71485 -23.4956 2.35667 -2.53427 -0.958562 4.79748
2985 1 -13.4063 -12.4297 11.5223 -3.99955 4.88049 0.817035
2987 1 -22.4033 -22.7631 -7.41307 5.03628 7.11063 3.09125
2988 1 1.12133 -23.198 -4.87493 2.08533 -9.33825 -2.63944
2990 1 12.1576 -18.5307 16.1613 0.63679 -4.36733 0.689577
2997 1 -6.29118 -17.6981 6.14543 1.65637 1.30538 -3.93687
2998 1 2.41802 -15.0741 15.6643 -2.33489 -0.321325 0.282803
2999 1 11.9087 -19.1791 -1.74727 -4.83854 -1.79518 -3.79128
3007 1 -7.50561 -20.7706 -22.2324 -4.1377 -4.15112 -1.00112
3008 1 -4.18226 -19.4199 -24.1361 -3.74715 1.21398 -0.669179
3009 1 -14.6044 -21.7942 10.0404 -4.55918 3.24475 2.41516
3010 1 -15.4692 -20.4774 -15.8588 2.23475 5.3463 2.42125
3011 1 -8.56719 -1.77181 -11.8642 -0.0591983 -4.65223 8.85699
3012 1 0.861427 -22.9417 -18.5952 -0.238793 -0.328579 1.18129
3013 1 12.7182 -18.3952 21.5309 0.166246 2.71925 -5.70401
3016 1 19.6759 -13.7046 -20.1752 2.30052 -0.4392 -3.09141
3977 1 -10.2767 -17.5578 -18.4137 -3.13003 -1.74029 -1.98768
3019 1 -21.0123 -20.0843 11.4201 -6.32919 -1.64867 -2.31224
3020 1 -13.8375 -10.8233 7.28969 2.74893 -7.18649 -0.352727
3022 1 15.3752 -11.2021 1.38188 2.75637 -5.09205 -5.31825
3025 1 4.74713 -23.0939 9.28752 0.509829 -1.58312 -3.02704
3026 1 1.11139 -21.4584 7.76474 4.03998 -4.60868 1.35432
3031 1 -24.438 -9.44031 -19.8893 5.31528 -3.31548 5.23627
3032 1 18.1296 -9.36275 -5.97505 3.47701 -3.4902 4.0338
3034 1 -11.5886 -7.27919 -17.0416 -1.38515 2.1289 -0.765305
3037 1 -4.20295 -10.5611 8.52356 -2.99389 -1.12175 6.08812
3038 1 -16.9473 -24.2476 -17.1754 3.6209 -3.07673 -0.969251
3039 1 15.7024 -22.7775 18.9943 -3.95435 -1.16254 1.58508
3040 1 6.02268 -18.9572 14.2485 -0.476329 1.31523 1.20956
3043 1 6.2498 -12.2651 -18.3502 0.839676 2.38043 -3.35469
3045 1 -0.122799 -4.58686 6.35921 -1.73852 3.34146 -1.36771
3046 1 16.4415 -9.9407 -17.5415 -4.97332 1.097 -1.07222
3048 1 5.18224 -13.0367 19.8848 -1.13294 0.275983 3.39238
3049 1 -11.4491 -21.3032 -14.6764 -3.72826 0.981194 -3.49621
3050 1 1.50347 -23.5771 17.5885 0.21994 0.723204 3.59733
3053 1 20.2528 -21.4726 -0.829286 -4.51641 -0.720896 -3.22223
3054 1 21.848 -2.44123 23.4586 -2.06997 0.725406 -2.34626
3058 1 12.8023 -6.23217 8.57473 -1.32489 0.969806 2.1375
3059 1 -10.9569 -23.6252 -5.42586 -4.22108 -1.62999 1.37609
3065 1 6.13694 -12.2854 -11.7287 -0.514765 -3.45837 -0.16394
3069 1 6.52608 -8.20722 -4.60768 -1.1151 1.65575 1.30745
3070 1 22.3219 -6.12162 0.413925 -3.59495 3.18869 -5.64131
3071 1 -3.47703 -3.79922 -5.78578 -0.687264 -1.92488 1.55397
3074 1 -9.96864 -10.4249 9.33286 2.8276 -0.168318 -1.98227
3077 1 -13.7727 -23.0906 -7.26347 2.93848 -5.35407 -0.601484
3079 1 11.7534 -3.36299 -4.2467 0.813291 -2.89882 -1.8622
3083 1 7.27071 -14.0395 -8.2071 -2.75797 -4.86069 -5.18816
3084 1 -16.1304 -23.3139 8.0889 -0.881911 5.70709 0.285059
3085 1 -15.4388 -2.71181 -6.42011 -1.95216 4.727 -0.536242
3087 1 -9.39604 -21.7822 11.1169 1.76822 3.72971 1.83024
3089 1 8.11771 -19.8641 12.2942 6.89824 -0.40062 -3.83255
3090 1 16.091 -2.32606 -5.21363 -0.941185 -4.22577 2.97778
3092 1 -8.8495 -7.73637 20.3916 -0.036634 -4.04427 -0.0954288
3095 1 -16.3146 -12.5716 -1.68394 4.18877 4.10815 0.0480785
3097 1 -8.48224 -12.926 -19.5998 -8.2922 0.07569 0.37042
3098 1 -10.7929 -18.6998 5.1095 -1.81768 -0.915267 3.75617
3100 1 17.0814 -8.63676 -20.4227 2.45407 2.83649 2.45458
3101 1 23.5284 -15.2504 -19.6237 -3.69556 6.10507 1.48773
3103 1 -5.88593 -12.0802 -23.6099 -2.51835 3.41972 0.911221
3104 1 -20.3548 -7.84637 7.17677 -3.51935 6.19482 0.383059
3105 1 23.3835 -6.34409 21.0162 -3.76003 1.07453 -1.47151
3106 1 1.48209 -10.8415 -6.21836 2.16639 0.148816 4.44876
3107 1 21.6055 -14.6175 23.0162 0.97372 2.75956 0.913772
3108 1 8.45253 -17.2712 -4.7294 -4.36901 -0.407786 0.818733
3111 1 9.71886 -19.0303 -15.576 0.545206 -3.52404 -4.71005
3112 1 -0.634037 -13.0092 -22.5295 6.0132 3.00892 -3.95785
3113 1 8.74084 -11.356 -17.4346 2.84343 0.635116 -1.12392
3117 1 15.5554 -11.0737 -2.38694 1.27346 1.83257 -1.26561
3119 1 -9.27663 -9.27355 3.46282 -2.37645 -5.85716 -0.936933
3120 1 -12.2582 -5.13731 -19.0373 0.763726 -0.899183 0.152704
3121 1 -2.94871 -21.3177 15.4951 2.68001 -2.54581 1.21942
3125 1 -1.87278 -15.8742 -1.77515 1.48871 1.25273 3.54256
3129 1 -3.57117 -11.0897 11.4219 -2.53167 -1.51157 0.881361
3130 1 22.2966 -9.58725 10.2831 1.99015 3.07277 -0.34111
3135 1 -19.2772 -12.3244 -4.61554 5.65983 0.868179 -0.798439
3136 1 -18.2669 -21.5389 7.22921 4.30216 -5.32155 4.25213
3137 1 5.82478 -6.66122 -18.1668 -1.18056 -0.0414177 0.122
3138 1 19.4539 -3.77115 23.9513 3.78547 0.196864 2.9801
3141 1 11.4501 -2.19652 -8.29083 1.47024 -0.763024 3.03723
3145 1 18.5291 -18.1895 10.3764 -4.99084 -2.39111 -1.48996
3147 1 -2.28975 -19.3729 1.00582 -4.25158 3.53607 -3.70101
3148 1 7.76335 -6.81724 4.90026 0.0626775 -0.904867 -2.59729
3833 1 19.3572 -1.15861 -11.2017 0.893774 0.0415054 -4.30569
3155 1 -5.80641 -12.0417 1.95526 -0.0754847 1.49665 -2.90911
3156 1 21.4384 -3.98285 7.19194 7.74644 3.34289 3.53093
3158 1 18.6732 -19.8138 -8.23989 -7.15105 -0.0984359 1.84819
79 1 -23.61 -1.78437 -15.3677 5.41687 -2.0486 -0.0817953
3161 1 -9.29447 -18.2708 -4.07366 -3.46578 -0.213116 -0.366964
3162 1 -15.3196 -14.5262 -16.2733 2.7217 -3.99733 -1.29646
3166 1 14.937 -9.55652 14.4199 1.71156 0.0544494 3.7164
3167 1 20.8358 -16.0727 -19.01 -1.85868 -3.53826 -2.57054
3168 1 -19.0033 -19.8117 17.1055 -4.64206 0.935616 4.11138
3169 1 11.969 -21.6558 -19.1302 -7.11133 -3.75182 -0.887074
3177 1 0.51906 -11.3242 23.967 2.53258 -1.63548 2.47666
3181 1 -20.7282 -18.0644 23.4646 0.5911 5.22929 4.1594
686 1 -15.0476 -1.27127 17.6404 -1.33913 2.44028 -4.57309
3184 1 14.3085 -3.13575 3.53117 0.33941 1.37225 -0.758201
3187 1 -21.8019 -14.528 1.76634 -2.48422 4.11537 -1.87398
3191 1 7.28234 -5.79803 -8.41867 -0.147928 -1.76654 1.6614
3194 1 -18.4293 -6.88513 1.6736 3.35347 1.14748 2.34932
3196 1 -0.117963 -1.45276 -1.27555 3.25699 -3.57941 0.292503
3199 1 12.7478 -22.5759 7.10842 -6.67602 -6.92308 -0.0277228
3200 1 -24.2779 -3.61857 -4.56741 3.52775 1.16953 5.11232
3201 1 -15.3538 -3.20375 19.6731 0.621975 1.22205 -0.451297
3202 1 -19.1392 -13.0681 -9.26216 5.10289 0.374637 2.56141
3204 1 -15.557 -10.2348 9.48996 0.286145 2.40229 -5.84857
3207 1 -0.133984 -7.24312 -19.5144 -1.00409 2.2802 0.583321
3208 1 5.91364 -7.02649 2.6741 -5.25356 2.69413 -0.315406
3209 1 11.5366 -15.6594 22.0508 -2.53041 2.95067 -4.41224
3994 1 -17.1375 -21.3572 -21.688 0.104992 -0.823868 2.09709
3219 1 -7.34574 -20.054 -16.2802 -0.152075 0.984575 0.168009
3220 1 -4.57403 -9.08895 17.4412 0.0307804 6.26563 -3.78318
3221 1 -5.42006 -8.15704 -3.39958 0.263176 1.19337 4.41355
3222 1 -15.1713 -19.0786 1.69843 -1.6228 6.0755 2.68313
3224 1 -4.73052 -7.2049 -0.759475 1.30514 3.77004 0.623065
3225 1 -9.24462 -6.63779 14.6805 -3.2339 -0.269907 -8.02056
3231 1 -19.1969 -17.5022 -1.13271 -0.21153 -1.01118 0.751636
3234 1 10.5228 -6.48773 -12.8995 -0.61835 3.73772 4.34026
3237 1 -4.24008 -13.4836 23.1721 1.98178 -0.292857 -0.375978
3239 1 -14.1885 -17.1179 8.68079 -0.815287 -1.93326 1.56916
3240 1 -14.7546 -22.5952 -18.0081 -2.85423 0.947199 1.49535
3241 1 -0.501183 -20.385 16.1784 2.23113 2.86036 -0.366809
3242 1 21.6292 -10.9378 -17.1315 -1.53211 2.07422 1.73687
3249 1 9.66773 -2.62246 13.085 -4.76083 3.43112 -0.954485
3252 1 17.1127 -22.7937 15.2172 -0.142383 0.481007 1.6848
3258 1 -20.3134 -6.69903 19.5179 2.26902 0.481388 -0.718752
1551 1 9.73917 -1.83037 -5.83259 4.75387 -1.07589 4.48693
3261 1 -15.3628 -2.50318 -16.167 0.309095 3.09083 -0.73432
3265 1 6.63655 -7.39316 -14.8174 0.747223 -1.80175 3.22061
931 1 17.5048 -1.33125 -7.58333 3.47524 3.21432 -3.36064
3268 1 6.34346 -20.2632 9.88588 3.06303 2.21017 1.94748
3270 1 18.0073 -16.1764 16.0729 -4.3861 1.303 2.43696
3271 1 7.98727 -10.5136 20.9323 0.422459 -3.7861 -1.05463
3274 1 14.014 -19.3221 4.49682 -2.86532 0.83569 -0.863568
3277 1 -2.50241 -16.9973 2.85499 -1.52206 1.40696 -0.597777
3278 1 0.230432 -7.1038 -22.6158 4.76149 0.0832084 5.061
3973 1 -11.8736 -21.141 -6.81352 3.31297 -2.80889 -4.5076
3281 1 -4.60522 -14.8223 10.9263 1.45359 0.206976 0.342112
3282 1 4.95463 -2.09592 -15.3189 -1.87865 -0.327506 -3.39866
3287 1 -4.05986 -15.6174 17.7299 -0.854789 -1.72074 -0.240367
3289 1 -17.2543 -22.0982 10.6357 -2.3288 6.00696 -1.91722
3295 1 4.83814 -24.3992 -0.350847 -2.75361 1.93371 3.19024
3296 1 -17.496 -13.489 16.7298 -2.99638 0.0552769 3.02881
3298 1 5.89531 -9.62707 -18.7109 -1.48524 0.33177 -1.15093
3302 1 -19.08 -11.4708 20.6582 -5.80105 -4.43496 1.60149
3303 1 23.71 -23.3654 -13.6789 -0.239845 3.25506 -0.645072
448 1 -16.5879 -1.00026 13.1807 -0.255581 -3.96005 -3.78461
3314 1 -0.167673 -3.19455 10.6646 -0.927885 0.337026 -4.34285
3315 1 21.8736 -11.8368 -21.0879 -3.07094 3.33075 -1.19246
3316 1 3.08086 -5.39582 -7.27042 -1.87983 9.63936 -3.55211
3321 1 -9.40757 -17.9439 19.1485 -2.70078 -0.249232 0.171813
3322 1 13.5803 -12.9548 -23.4133 2.58475 3.73243 -1.2606
3324 1 14.8057 -16.7097 -9.28548 0.388799 -2.20911 3.22354
3327 1 6.39203 -22.59 -8.77036 -2.01692 4.66745 -1.20162
3328 1 1.75258 -17.4262 -9.74264 -0.0479827 -1.00362 4.66132
3331 1 -19.7149 -4.57436 -1.35076 -1.33527 0.347229 -0.600257
3333 1 6.26553 -8.13076 22.4955 -1.10311 -2.17343 -2.65322
3336 1 13.1984 -15.7454 2.54049 -1.36264 -3.31167 -2.07129
3343 1 -23.0202 -5.67719 -16.4933 -2.06738 -3.31481 -0.0659691
3344 1 16.9279 -18.8962 17.3421 -1.01527 -0.356722 2.32322
3346 1 9.22004 -22.4503 1.08493 0.355445 0.905908 1.14105
3348 1 -11.5948 -19.6823 2.18587 -1.32557 -7.7126 3.37059
3350 1 -4.43819 -7.25476 15.251 -2.26554 -1.82208 -2.72783
3351 1 -21.0991 -9.61346 16.8802 -3.97828 -1.70322 0.699645
3355 1 -16.7897 -19.1157 -4.82969 -2.34702 -1.36587 -7.92332
3357 1 7.11117 -6.47717 20.4544 -4.09668 -0.469493 -2.77048
3360 1 -8.08205 -16.3577 17.194 -1.01972 -0.0597032 -2.86842
3363 1 13.3765 -4.47322 -14.934 1.62902 -0.112852 2.60848
3364 1 -21.1862 -8.75547 -0.777303 -3.99096 -2.69226 1.19324
3365 1 -1.04133 -9.59415 11.2689 5.45916 2.88024 5.69446
3366 1 -21.2771 -22.4984 -18.5411 1.2412 3.07698 -3.65897
3367 1 1.44697 -20.2754 -19.6666 5.42219 2.87744 -1.47136
3368 1 20.7926 -20.9732 17.4725 -0.283411 2.39551 2.9706
3369 1 -3.09727 -2.51237 -10.6104 3.78408 6.72373 3.62153
3370 1 -19.5021 -15.3762 -14.293 -1.08513 4.19247 -0.156835
3372 1 6.56583 -3.16051 -9.08324 -3.24346 5.39214 0.765762
3373 1 14.3258 -4.98643 19.4728 -0.391672 -4.09734 -3.60245
3374 1 22.9303 -14.2226 -22.2948 1.15238 -7.01816 1.95462
3375 1 20.1357 -9.95036 1.05234 3.7573 -0.786478 5.1841
3377 1 6.01133 -12.2337 14.1476 -2.42057 3.01501 1.12726
3378 1 -6.07842 -18.3464 -1.01432 3.68904 6.11754 -3.39724
3379 1 9.74164 -6.05095 8.57281 -0.338233 1.39809 -2.60159
3381 1 -4.2611 -15.9346 -22.193 3.92129 -3.04443 1.93221
3384 1 16.475 -19.167 -11.9099 1.02197 0.369395 3.01507
3385 1 -4.70418 -19.2434 -7.52253 -0.0790682 -0.878956 -3.31439
3386 1 11.8236 -10.3049 -23.665 3.92881 4.62658 -2.66789
3387 1 -18.9907 -2.93263 2.7995 -1.22905 -1.79715 -0.15587
3388 1 -20.7215 -3.17423 14.7689 1.69213 2.30549 4.87642
3389 1 -13.5245 -11.8263 -12.9513 0.943594 -2.14754 -0.235782
3390 1 23.9239 -22.5372 14.6085 1.39545 -3.79634 -1.46333
3391 1 -9.09083 -13.7636 3.35513 -0.929177 8.26476 -1.47295
2118 1 -12.2264 -0.876534 -3.91668 -1.0224 2.11005 -0.404141
3395 1 14.2152 -15.5211 10.2969 -0.067031 1.93406 2.41175
3398 1 -6.91941 -20.0058 -4.5079 -2.91454 -3.61411 0.160489
3399 1 0.377786 -5.62851 3.83883 2.07997 2.81121 -2.18761
3400 1 15.017 -22.8407 -22.026 2.76088 -2.73964 -2.13942
3401 1 -19.7507 -22.7271 -12.6782 -1.41498 1.44862 1.58379
3402 1 13.5128 -16.3596 -17.7944 1.95077 -0.0301533 1.78478
3403 1 -14.8728 -23.3843 1.04339 3.46194 -1.78398 -1.41765
3404 1 -18.8949 -9.72352 0.467388 -1.96822 5.03278 -2.52625
3406 1 4.29438 -4.45431 5.23737 2.02787 -3.18702 -1.78147
3409 1 -4.50594 -18.828 19.0302 3.90093 5.97604 -0.855274
3410 1 -19.6997 -8.73782 14.3399 -0.487753 6.56803 2.48787
3411 1 -5.16721 -4.88766 20.826 1.65223 -1.14363 2.26434
3412 1 5.58476 -4.08254 -11.5638 -1.28097 1.87618 2.50196
3413 1 -2.72743 -16.4775 -16.366 -3.6923 4.74362 -0.670919
3416 1 20.069 -20.8345 -5.98183 -0.714364 -3.91604 -1.63095
3417 1 -23.7839 -10.2981 8.88196 -3.79459 1.19843 -3.78898
3419 1 -11.5576 -11.125 0.477601 1.33695 4.91974 0.024069
3422 1 6.09976 -15.154 -3.25153 2.15713 -3.54904 -0.95742
3424 1 -0.433656 -9.97498 2.16381 2.68575 -0.536306 -0.0479694
3425 1 -24.6627 -9.53193 18.0085 -3.82017 3.26421 -1.51037
3426 1 -20.2057 -5.8275 4.6034 1.84086 -0.517925 -0.832144
3429 1 2.19538 -17.8849 16.8608 2.65662 -0.00960448 -1.84001
3430 1 -15.3948 -16.1322 20.2991 0.0130306 4.85347 -3.59248
3431 1 -10.1519 -4.4788 -0.287432 0.849408 2.909 -4.44825
3433 1 -6.82092 -2.76463 -20.9729 -0.990975 2.03216 4.35186
3439 1 1.63925 -13.6396 13.1047 -1.49454 -2.03809 -0.0640024
3441 1 6.06529 -15.6554 -6.27478 -1.11206 0.460077 -0.969626
3446 1 -3.88294 -22.0336 -16.5033 -1.48967 -0.708791 -0.475819
3450 1 -2.91288 -14.0169 -14.91 -1.6067 3.82499 0.764686
3451 1 3.49917 -11.8779 -19.8468 0.318891 -1.72906 3.46916
3461 1 -14.1125 -24.1634 19.7322 2.57004 1.95222 -1.19884
3464 1 -17.5987 -20.1044 13.7673 -1.33168 3.66052 -0.32336
3465 1 1.16622 -5.4546 11.7277 1.57296 -1.57704 4.11889
3468 1 -7.58986 -8.14831 23.0303 -1.65008 -3.72068 2.22983
3469 1 -3.22578 -9.03484 1.02039 -4.43885 -1.88903 -0.56614
3470 1 -16.7644 -20.0513 -8.54384 2.82633 -1.694 2.76995
3471 1 -17.5162 -19.3568 -17.6049 2.52851 0.354283 1.49893
3474 1 16.2145 -1.83084 12.1688 2.2914 -5.81186 1.31972
3475 1 -23.2952 -14.1796 18.4136 4.36906 -0.705923 0.643693
3972 1 -5.43071 -8.87902 -11.4557 1.43705 0.626257 2.74008
3478 1 10.3462 -13.4695 3.46703 3.26277 -1.29849 1.21675
3479 1 17.7633 -7.30739 10.4253 2.56945 -4.09724 2.10682
3481 1 1.45165 -21.8781 -23.7635 -1.19098 -4.26638 -0.727911
3487 1 10.324 -10.7434 -11.6024 1.45303 3.63621 3.18388
3967 1 1.64312 -6.11923 -4.96479 -0.986111 -1.35808 0.193828
3495 1 22.7926 -3.68936 17.0385 6.25575 1.81838 -5.61758
3503 1 18.1961 -21.9428 3.39044 -1.9637 2.51316 -0.113471
2962 1 -8.30159 -0.87994 -15.7227 -2.05029 -3.90355 -0.523429
3505 1 0.567355 -13.6519 3.38952 -3.0962 -0.302431 -2.37182
3508 1 -2.56527 -12.0345 -20.612 0.735449 0.314068 -4.52759
3509 1 -23.1204 -20.8118 -22.6961 -1.30197 3.91622 -0.896414
3513 1 -21.1354 -21.763 -15.8444 2.5834 -0.467193 -0.320537
3515 1 14.7559 -17.4028 8.06088 0.644252 0.825929 0.226492
3520 1 -5.49576 -15.1992 20.9963 0.471476 -0.435261 1.23762
3523 1 -13.2326 -19.8833 8.6378 2.46751 2.2155 0.709772
3528 1 -24.1508 -22.9367 0.745761 -1.21725 4.09158 5.09002
3534 1 5.49478 -4.21245 20.2471 1.01004 0.954939 0.214587
3535 1 12.0791 -19.7553 -17.1142 1.22596 2.4119 1.27774
3536 1 21.6549 -16.4013 8.24196 0.80903 -3.78358 0.323141
3538 1 5.55733 -6.85324 15.7674 4.81058 0.215618 1.01201
3547 1 9.53066 -17.6014 -8.86837 -0.766778 1.64159 2.4668
3548 1 9.19907 -12.8574 -20.8433 -2.02308 4.06226 0.337831
3555 1 -24.146 -20.0122 1.02556 3.14582 -0.0735316 -0.145817
3556 1 -9.08625 -14.2961 19.9889 2.29823 -0.0340188 2.9922
3558 1 -20.0361 -15.6228 -3.31473 -0.696352 -1.14026 -4.95991
3559 1 10.4343 -5.00802 11.1793 2.05539 1.48143 0.531235
3563 1 2.24535 -22.5414 -7.70184 2.58705 -6.56351 5.71558
3565 1 15.7443 -16.9862 -6.28371 2.63781 0.550885 1.66462
3566 1 -10.8369 -15.6143 4.464 0.578786 -1.2105 1.24042
3567 1 2.65289 -10.0521 5.30156 0.987479 -4.07591 0.378076
3572 1 -14.7234 -16.9565 -19.801 2.10668 -0.945913 -2.6544
3573 1 18.1109 -3.58325 -1.47444 -5.78602 -5.05556 -0.288638
3574 1 -15.1365 -3.59987 -11.8301 -4.01894 -1.81965 -3.70086
3575 1 -10.959 -11.9218 -11.3435 2.85119 1.1377 3.74503
3579 1 -17.4335 -12.0099 -7.19037 -1.95118 -5.56503 0.911037
3580 1 -0.299466 -11.0746 7.76262 4.75619 -3.08679 2.08478
3582 1 -15.3213 -24.2069 14.8552 3.41151 -5.14644 -1.46088
3585 1 10.8995 -2.18254 9.84662 -1.61552 -4.57816 -0.358326
3587 1 23.0824 -13.4931 -15.9415 3.59314 3.4916 -3.32723
3588 1 -23.0039 -8.11484 -10.1739 -0.310814 -1.56767 0.755337
3591 1 -8.13163 -10.9503 23.7745 -0.744458 0.489794 -0.429972
3592 1 -8.24469 -17.0313 -6.18359 1.89052 -2.21712 -0.420032
3593 1 15.2855 -9.1189 -14.7125 1.35688 -1.98432 -2.9914
3595 1 -3.10566 -15.8425 7.22774 0.538888 1.14765 1.79857
3596 1 -7.01251 -9.84498 -9.35189 1.34829 -2.18604 -6.42682
3598 1 -13.0563 -11.1925 -5.53462 -0.542937 -2.44098 4.49701
3601 1 -23.4242 -12.3698 -4.31209 0.391861 -1.59959 -0.167847
22 1 -11.0818 -0.90845 -16.3366 -4.64585 4.23834 -2.84364
3609 1 8.02892 -11.9176 7.09557 0.596127 -2.02757 -1.22651
3614 1 -1.3434 -4.88546 -4.10466 -0.548421 5.27098 1.90491
3616 1 -11.7887 -10.6139 23.207 -1.81269 -3.90939 3.99425
3618 1 0.389287 -8.36594 -8.95146 0.149458 3.38639 -4.69694
3622 1 6.77581 -13.4249 10.6724 0.0670818 -3.98777 -2.42924
3394 1 -12.7919 -1.46618 12.9288 0.125168 -3.26058 -2.60232
3624 1 22.2976 -7.84354 4.66734 2.98794 2.41623 0.140151
3625 1 8.66669 -15.7973 21.6803 -0.576459 2.63552 0.935113
3629 1 -4.3133 -1.74857 3.5302 -0.113189 -3.72539 -2.06892
3630 1 4.84709 -11.5909 -1.1061 -1.2575 3.97627 2.4671
3632 1 -14.4162 -15.6393 13.7972 1.51153 2.08071 -1.93864
3635 1 0.352105 -15.2613 -20.6097 -0.834775 -0.18226 0.574341
3636 1 3.9671 -17.8696 -12.0019 3.24968 2.64662 -2.72838
3638 1 22.3218 -8.61641 22.1713 0.100771 0.210833 -1.85459
3639 1 6.59809 -18.3195 4.28525 -1.1003 1.00321 3.51837
3640 1 18.3193 -17.2456 -11.9306 0.224205 6.45842 1.99865
3642 1 -3.79722 -14.9744 4.58128 0.230836 -0.144959 -4.28849
3645 1 -16.6962 -15.0866 -6.62828 -7.18014 4.7267 -0.158704
3647 1 18.4441 -19.496 5.28823 -4.93615 1.21208 -0.0921413
3648 1 23.0505 -20.6547 -1.50319 3.61847 -6.3941 -0.0966257
3649 1 -17.3826 -2.07508 -18.3442 -2.0361 -1.41198 -2.41745
3650 1 8.09084 -8.21101 -17.1619 -2.62982 -0.57317 0.952748
3652 1 21.2635 -11.6831 15.7532 -2.57083 -0.776939 -0.683264
3656 1 -12.3112 -18.8638 18.9152 6.45311 0.937407 -1.49053
3663 1 -20.3429 -13.6304 -12.0793 0.491833 3.85792 -0.557552
3665 1 10.8402 -9.64982 -18.3077 -4.53837 -1.28883 -4.06903
3666 1 3.06356 -16.8824 23.7592 -0.349414 2.03246 1.13567
3668 1 -13.8665 -1.61894 21.7067 0.918399 2.24558 4.0066
3673 1 -5.79435 -22.9604 22.5394 -6.03026 5.82425 -1.52342
3982 1 7.70649 -4.03432 -4.29448 0.80136 0.371475 -4.51884
3679 1 9.98665 -19.5815 -6.4784 2.39202 -4.2278 -0.0366489
3682 1 22.8228 -22.955 17.1789 1.85704 -1.67798 -1.19581
3685 1 5.06453 -2.77295 0.565826 0.637255 2.37086 6.10875
3687 1 9.14646 -15.0155 9.97773 1.21598 5.94096 7.34407
3688 1 -11.0643 -23.5049 -0.4949 6.80685 1.90611 5.24427
3993 1 -7.17253 -10.1749 -6.42227 -1.88081 -4.06533 0.294111
3695 1 -8.01993 -6.33957 0.727981 2.53167 0.748617 -0.0521508
3699 1 -9.78512 -5.34201 12.2878 -1.61735 2.55214 2.20574
3700 1 -4.51899 -18.9971 -16.319 1.89091 1.8651 1.89484
3701 1 14.6675 -3.41399 10.6618 -0.988379 -1.37263 0.635734
3740 1 6.32381 -1.4929 -20.2121 3.30129 -0.623448 -1.83385
3704 1 19.8432 -3.24659 11.3338 -2.66645 0.685711 -0.761488
3710 1 -6.91005 -7.42808 18.4132 -0.665214 -5.73309 -0.672198
3722 1 19.3946 -7.87639 7.27757 -0.947863 6.69834 1.4158
3726 1 -8.10334 -13.001 -15.0888 0.417418 4.36116 2.64859
3727 1 6.65138 -11.9257 -21.9352 -0.802064 1.12862 6.47948
3728 1 15.4717 -10.6358 -23.9926 1.35482 -1.73437 2.12974
3729 1 -22.2856 -9.97031 -12.4853 4.86274 -3.81283 2.59276
3730 1 12.9303 -4.64658 12.5889 1.05535 -1.03468 -7.13845
3731 1 3.62237 -18.5546 -20.5611 5.19911 -3.20411 -4.96701
3733 1 4.27234 -14.4905 -1.00933 -3.85582 -4.36871 3.98633
3738 1 -6.77321 -6.13057 15.7558 3.03776 -7.71835 -0.541538
3739 1 0.159096 -5.67586 9.10739 1.68871 -3.42411 4.96425
3971 1 -4.86929 -1.9377 21.3008 -1.7631 4.68681 1.78014
3742 1 -2.76948 -18.186 -13.8539 -1.72806 -0.678358 -3.74949
3743 1 4.76295 -13.578 16.3635 0.388716 -0.50832 3.72801
3745 1 3.44241 -10.1349 12.1046 1.98864 0.657973 0.499854
3746 1 6.00149 -19.8308 -5.53339 -3.00783 1.34977 -1.78261
3748 1 -15.2172 -2.30169 -20.3628 1.27332 -0.313479 4.03994
3749 1 -23.6025 -2.68798 13.8002 -5.26626 -1.33308 2.32676
3751 1 -6.01506 -3.69291 1.91463 1.8424 -2.32803 2.0584
3753 1 5.19785 -4.70416 -22.9345 3.39114 0.7504 -2.07368
3756 1 -12.446 -23.5374 -20.8126 0.583323 -0.90139 -3.01155
3758 1 22.5323 -8.62497 -15.5718 0.1133 -1.59325 1.11601
3761 1 19.0773 -11.4224 -18.3158 -2.19771 -2.25889 -0.876117
3762 1 9.89089 -10.5975 8.79499 -1.39348 -5.14932 2.83902
3764 1 15.6588 -11.2832 19.1796 1.27451 3.13726 -0.717569
3765 1 -24.6006 -24.0056 -1.67824 2.42838 -0.314292 -0.405845
3767 1 -12.1957 -22.6061 1.92986 2.71179 -1.11613 -0.619431
3769 1 -22.3439 -18.2572 9.27449 1.3057 -3.77148 1.81823
3770 1 -7.8475 -5.48717 8.3327 0.296539 3.80834 7.55022
3772 1 14.8482 -13.9569 -2.51939 -3.44308 3.77573 2.04428
3773 1 1.31026 -3.99572 14.5062 -0.889978 -2.48746 -1.23742
3775 1 3.55581 -2.01796 -10.4785 2.60756 -3.86452 1.57184
3776 1 10.2844 -5.85168 16.5965 0.78744 -2.51448 2.38005
3777 1 11.2007 -6.30908 -1.03152 0.168394 -1.69706 2.25733
3781 1 -4.98117 -4.81638 8.44407 -4.91775 3.4698 -3.57456
3782 1 0.142914 -14.248 -17.893 -1.5617 1.50774 4.97691
3785 1 -3.50544 -22.1326 24.1254 -0.900202 -3.10557 2.44386
3790 1 4.81905 -18.9163 -0.632711 -3.08615 -0.57639 -0.932313
3792 1 -11.2741 -8.2047 10.8367 2.03223 -3.75056 4.49154
3794 1 -3.81314 -20.5078 -10.2288 1.07632 2.02826 5.87877
3796 1 -12.5868 -10.6221 -9.24991 -1.00398 -4.30931 0.935707
3797 1 -16.0345 -14.7854 8.64393 1.64267 -2.039 -2.90215
3803 1 -19.4954 -5.5628 -23.8487 -0.116733 3.80446 2.95919
3808 1 10.3956 -13.0407 -23.3406 -3.25637 2.06936 1.4774
3809 1 3.19271 -23.7192 -19.8814 7.97934 -0.49655 -1.23841
3810 1 -19.074 -4.97303 12.964 -5.79937 -0.552246 -1.02555
3811 1 14.1895 -15.1056 23.3436 -1.11541 2.33246 0.815916
3812 1 -3.96194 -14.7297 -0.296693 3.50152 -2.85283 1.35873
3816 1 -14.3993 -8.95138 2.93533 -1.88612 -1.32308 -2.05552
3821 1 10.1688 -12.4267 14.5157 -0.232013 -0.266943 5.52571
3823 1 -6.5797 -19.3955 -10.0522 3.87192 -2.62868 -2.34272
3824 1 -8.70652 -23.6761 -7.30614 3.1385 -2.51077 -0.131285
3825 1 21.0196 -13.5593 11.2367 4.08711 -3.40031 -0.532295
3829 1 -12.7261 -17.2083 -5.59504 1.03758 4.57922 -1.46956
3830 1 15.3031 -11.5435 -12.7401 1.46153 4.97449 2.47475
3981 1 11.6593 -8.64773 4.79901 -1.93132 -4.96947 1.64204
3835 1 21.3815 -23.7713 -2.30022 0.296263 4.23438 2.28251
3840 1 -10.7866 -21.7427 13.8471 -0.278493 -2.21582 0.802842
3843 1 -1.91952 -17.196 14.1181 2.81934 1.03647 -2.41008
3844 1 -22.6485 -14.5047 6.84669 3.32729 1.45151 -0.855866
3847 1 -17.0531 -16.6278 -14.7939 -1.99502 0.345148 -7.10103
3848 1 5.9742 -16.0109 5.99619 -3.24698 0.958574 -1.97782
3850 1 20.0147 -21.0103 21.5771 -1.38672 3.73015 0.678555
3853 1 20.3712 -12.417 2.44294 0.0692673 2.77521 -1.1969
3855 1 -3.76596 -5.29046 23.3242 1.82972 3.83227 5.18955
3856 1 14.2848 -18.4722 -3.39778 0.32953 1.17215 -1.56679
3857 1 -12.9593 -23.4534 -12.0217 -0.923065 -0.314448 2.36999
3860 1 14.0174 -15.5466 -15.1229 3.00084 3.86379 -7.40871
3861 1 -18.3269 -14.1456 21.7551 -3.7214 0.291453 -4.68055
3863 1 -14.069 -3.78736 13.0842 -2.43891 -2.17749 4.47288
3864 1 -3.89056 -3.07311 -15.1306 2.64329 -0.192005 -1.99006
3865 1 0.546217 -22.6514 14.8972 -8.95749 -2.25595 -1.95697
3866 1 10.2887 -13.8761 7.38749 3.25594 0.609444 2.48848
3870 1 15.3 -19.7582 -9.45087 0.603524 4.99457 0.373154
3872 1 21.5302 -22.3913 -7.86213 -3.12579 -0.876017 -1.67541
3874 1 -19.3091 -23.9865 -15.3015 0.177682 -0.450457 3.38597
3876 1 -23.4442 -11.5539 19.7251 -5.4341 -1.2464 -0.493414
3878 1 8.11556 -17.1564 8.2095 0.396854 2.92785 -1.14225
3879 1 18.84 -15.5284 23.422 -5.94374 3.78309 -2.00595
3884 1 13.2675 -19.4724 -6.00972 2.09494 0.721596 -2.99125
3886 1 -11.1651 -14.8138 -6.96404 1.16777 4.64843 -2.45975
3887 1 0.601517 -11.8278 -19.7015 -0.0524067 4.23797 -0.358937
3891 1 5.45295 -15.6416 18.4357 -1.32477 0.571703 1.08964
3895 1 13.7184 -5.67344 -0.0935892 2.95852 0.014885 -2.81069
3896 1 -8.13485 -8.23988 -1.99832 3.745 2.03903 -0.586471
3898 1 17.7792 -2.59994 17.8364 3.37055 2.64611 -2.48529
3900 1 12.5141 -17.2443 -13.3347 -1.95035 -2.45122 0.690733
3903 1 -18.9707 -14.7091 3.17089 3.99061 -0.0620004 -1.08152
3904 1 10.928 -6.30631 -7.27416 -0.625819 -0.400451 -8.37229
3905 1 0.0192825 -10.948 4.81977 4.7605 6.19718 -5.09117
3908 1 23.1213 -15.177 14.6375 0.993277 -1.79599 0.0807593
3909 1 1.27419 -10.2681 20.8683 6.34818 -1.80704 0.443175
3912 1 -9.17623 -9.33466 0.655262 3.53868 1.84959 -7.25429
3914 1 12.0128 -11.2828 -5.3994 1.28726 -2.45781 -1.79248
3915 1 6.28534 -2.39746 6.45804 -4.98216 0.128853 2.24436
3916 1 22.1571 -12.072 -24.2025 -2.63392 0.152633 0.383637
3917 1 1.74555 -5.80693 -9.61378 5.43536 1.02384 -3.23688
3919 1 7.85236 -14.1508 19.452 1.43676 2.01778 -3.57377
3922 1 -16.7201 -16.5712 -17.664 -2.47202 -0.475139 2.99997
3924 1 -10.4988 -5.86098 9.39476 0.810366 2.2388 7.40049
3926 1 8.63602 -4.59066 22.973 -1.04349 -0.960305 -1.60925
3933 1 -3.04164 -9.56102 21.3753 3.61543 0.83652 0.534094
3935 1 11.9583 -16.663 -20.1649 1.92537 3.58533 1.11909
3936 1 -0.615977 -22.6768 23.0166 0.544718 3.43423 2.3211
3937 1 15.975 -15.3408 -18.8753 -4.08678 -3.7944 -2.20815
3939 1 20.8091 -2.5615 15.239 -2.70947 1.48907 0.147689
3942 1 9.70742 -22.5972 15.9652 -3.31124 -1.34131 3.46124
3943 1 -20.5405 -19.3604 2.53113 -0.969839 -0.517149 -0.730668
3944 1 -13.3227 -8.97788 -13.8806 -0.0522533 -1.75368 2.647
3945 1 -21.7362 -12.9643 -15.7601 -4.46865 8.31671 2.22239
3949 1 2.66599 -14.011 -13.2431 3.85569 -1.21121 4.43809
3952 1 -5.28306 -5.59455 -17.9102 -0.582103 3.14117 3.64899
3953 1 19.7599 -18.6642 16.2202 2.34387 -0.347129 -5.28941
3957 1 18.6053 -21.8609 -18.1227 1.7092 -0.669463 3.64284
3959 1 -21.0358 -5.73674 -21.0661 1.59068 3.13166 -4.72793
3960 1 19.3356 -12.0258 -10.3869 1.53603 -0.668596 -0.883138
3961 1 -2.80681 -20.6188 -3.06654 0.592765 -2.90314 -0.617611
3962 1 2.72027 -13.875 5.29805 -3.16815 0.711153 -1.7432
3963 1 -16.6691 -16.3506 -1.6461 -1.93949 -2.9839 -0.132642
2567 1 -13.4796 -1.15735 -18.2311 -1.71077 3.78264 -2.42635
128 1 -18.0128 -0.926528 -9.01903 -0.751688 -1.12097 -4.61341
3477 1 -19.6336 -1.56939 -15.0498 -2.10243 -1.20125 5.29644
1135 1 5.67526 -1.00583 23.9111 1.88998 -2.41051 3.11053
1051 1 1.87386 -1.39958 9.50674 -1.96005 -0.556101 -3.43253
195 1 7.86632 -1.22415 -10.4789 0.97961 2.71979 5.65239
2018 1 -16.8566 -0.940352 5.81575 1.5194 -1.29144 4.26148
689 1 -1.59224 -1.02754 -4.02135 0.421161 -2.40761 -4.47495
525 1 -7.83527 -0.967429 -2.11599 1.58831 -2.17858 -0.112771
2914 1 0.521211 -1.03058 12.3452 -1.82635 -8.00336 -1.19034
3442 1 -7.74293 -0.92871 4.21397 -0.178959 1.45983 2.7032
388 1 -19.3895 -24.9235 23.7926 0.915413 3.62886 -2.78506
2 1 -7.37889 15.1027 2.76576 -0.040239 0.935256 3.88724
6 1 2.36935 17.2109 18.077 7.63172 -0.189225 4.49857
7 1 6.34335 20.8897 6.94006 -6.29622 -2.25343 -2.67649
9 1 -13.4068 4.74877 4.23044 -0.902527 7.27195 -0.203747
14 1 10.3535 1.83801 -7.97995 -1.00481 0.568249 -0.123918
1902 1 21.0069 0.582237 -20.1168 -0.723144 -2.09416 5.03329
16 1 -19.6972 -0.54951 5.97119 1.45081 2.13427 -2.21266
19 1 -13.8058 22.3917 19.2414 1.61727 0.82267 -0.486858
20 1 20.9128 3.61571 19.7018 -4.20262 -7.26034 -2.14284
21 1 -23.9698 0.179865 12.9762 0.987196 -2.44813 4.29932
61 1 -13.1508 -0.528968 0.847501 0.359563 -0.167951 3.92979
24 1 9.58081 19.5259 -3.98132 0.220314 -0.363918 2.14293
26 1 -1.43853 14.6712 10.0841 4.1464 -3.23421 -0.787611
27 1 -18.9989 7.42 -2.16011 0.465095 2.61488 1.85889
28 1 -20.6037 6.83797 4.1743 -1.88018 0.454169 3.99719
32 1 -8.77687 12.8108 -20.5798 -1.21813 -2.61271 1.92457
33 1 2.00202 0.923248 -13.236 -1.00466 4.22771 1.12936
35 1 19.7564 5.68668 12.725 2.08787 -1.79503 -1.28122
36 1 -12.8579 19.9821 -16.7846 2.841 -4.29567 -0.976863
38 1 20.1419 11.0162 8.76051 0.565511 3.0554 2.79495
39 1 1.75084 8.36442 -23.4816 0.548102 -3.46974 1.35773
40 1 -1.28874 0.230423 -18.1919 0.483567 -1.92484 -0.334317
45 1 -9.83199 13.1536 -3.09835 -2.61409 3.01606 0.27935
47 1 -5.55119 3.72982 20.0497 -3.35093 -0.777085 2.2762
48 1 8.09503 5.18071 -8.84742 -4.23376 1.2299 -2.17377
49 1 21.4808 11.9635 4.56748 3.29111 -1.90015 -0.734061
52 1 15.1879 2.65381 -15.5606 3.82097 -0.488605 -0.63501
53 1 -1.92507 20.959 8.4144 -1.97688 4.61533 -4.65442
56 1 -14.8758 6.51875 2.37865 -5.47295 4.42779 -0.408393
59 1 -20.5262 11.6337 18.9768 4.99918 -3.922 -3.29698
60 1 1.53891 16.8615 -22.2205 -0.2944 -3.71047 2.1585
3705 1 4.96543 -0.584636 2.789 -0.712407 2.83201 -3.08348
63 1 0.129484 10.5819 -15.8166 2.60695 -0.49456 -0.568744
15 1 -3.08664 -0.829955 -13.2004 -1.27291 -5.28511 -1.91055
68 1 -0.367837 14.154 -20.5578 0.0285506 1.31501 -1.04659
69 1 -8.15591 13.4251 9.09289 1.17943 2.80769 2.63382
70 1 -15.3675 15.3322 -16.7653 3.73657 -3.62912 1.4328
71 1 -10.0727 4.46056 1.81585 1.97067 1.55779 0.0827799
72 1 23.8956 16.1572 19.9665 -0.899854 2.28077 1.83833
74 1 0.580317 12.6097 -13.7251 -1.97612 -3.06 -3.6481
75 1 -18.3216 3.00623 -12.8766 -4.68047 2.20599 1.92593
78 1 -18.3353 12.9671 -7.76611 0.0997626 -3.91128 1.53255
80 1 -12.3123 13.4626 -12.8236 3.34546 -5.48275 0.16125
83 1 -20.8091 11.3764 -1.34496 -4.42345 -1.36849 1.41634
84 1 22.3625 22.8122 21.3823 0.947093 0.938626 -2.05879
85 1 5.75752 14.1817 -1.97346 -0.27139 0.95132 2.50145
86 1 12.927 7.08926 14.7928 0.829022 1.55934 2.89097
87 1 1.31658 17.2066 -7.32666 1.10306 -1.49529 4.56771
88 1 -9.3975 21.9066 -19.225 1.92104 -1.79276 1.79262
91 1 17.5117 17.5355 -20.919 -1.96429 -2.62821 -0.376357
94 1 22.2938 2.67057 -11.081 5.09407 0.88731 2.33927
98 1 -3.42363 14.4527 12.0733 -0.0836312 -4.40999 2.87308
102 1 4.02928 3.43432 4.4 1.53848 -1.21375 3.48883
105 1 5.30722 18.5053 -19.212 1.76624 1.61973 0.0442996
106 1 14.7843 3.17427 8.35079 0.0701421 -3.02358 -0.0414285
108 1 -10.3329 2.60122 23.9871 0.82673 1.14532 4.47478
109 1 -12.1983 16.1926 -14.2696 -1.31923 -3.1104 1.578
112 1 -17.2269 2.06837 -22.318 1.96658 -0.0441787 -2.75008
115 1 8.19293 11.1687 5.63634 2.68204 2.8252 0.912045
117 1 20.2577 16.9538 -20.1233 -4.18099 0.950636 0.645696
119 1 15.7245 10.3782 -9.6302 -1.23726 6.49247 -0.367971
122 1 -7.64376 4.937 21.816 1.65932 -0.486493 0.152313
123 1 11.4131 14.7023 7.93836 -1.33771 -2.61336 2.59633
125 1 15.677 10.0273 0.493841 -2.34025 -0.235837 0.227632
126 1 -10.2995 -0.0430757 -5.97558 -0.28555 -3.68736 2.86645
127 1 9.77226 0.111635 14.3977 2.21859 -1.09059 -0.240378
3623 1 10.1099 -0.0710226 18.0785 -2.70057 -2.86005 0.369591
130 1 -9.24788 16.4241 -19.1951 -5.5649 -2.57497 2.06232
133 1 -17.7878 3.68372 17.0521 3.03486 -2.80688 -3.59812
136 1 -0.179333 5.02715 -5.98145 -3.063 -2.15714 2.12007
137 1 -10.5149 4.72449 -14.5909 -1.33419 2.59257 -0.265051
138 1 12.4483 16.3453 5.51082 -0.160089 1.40852 -1.40214
142 1 13.5748 2.35371 23.2008 1.89437 1.19179 0.560258
145 1 17.3303 6.1346 20.2277 1.90166 3.77311 0.777272
147 1 9.39792 20.528 4.68258 -0.541814 0.830754 0.313511
148 1 -18.2391 13.2128 11.7419 1.77515 -2.60314 3.35049
150 1 20.6884 10.1568 19.7752 -3.99434 1.40457 2.35731
151 1 19.7703 1.86171 21.5035 0.643557 1.09849 1.46474
154 1 -8.87576 21.3565 -5.02442 -1.02663 -2.66534 1.19847
156 1 15.54 9.84475 18.8728 -1.32341 -5.47893 0.494188
158 1 9.74719 7.02448 3.47542 3.7662 3.99521 0.96363
161 1 18.78 0.444652 -13.6232 -3.09334 -3.57757 -1.25468
163 1 2.68974 0.866859 17.3311 1.55924 -0.286161 1.13224
164 1 18.1052 8.18501 13.3842 0.443037 -4.60192 -2.72849
165 1 -18.8611 10.8262 16.5619 3.50536 1.0912 1.50045
166 1 10.6173 19.7962 -22.6058 4.43287 -0.444316 -3.68574
167 1 -12.8347 1.80715 -3.10429 1.65648 -2.68438 -2.63193
168 1 -24.535 22.4975 -3.5941 0.98103 3.10125 -0.905088
171 1 -15.7139 1.45969 14.5744 -4.46398 1.91593 -2.1483
172 1 -19.8934 20.1545 -19.2614 7.47181 -6.24387 -1.41827
173 1 -21.3803 -0.308483 22.1584 -3.89713 -0.136374 1.14646
174 1 -20.1222 6.07347 -21.6009 0.917651 -0.476719 1.68937
175 1 9.93561 17.5672 5.05628 4.63963 0.665354 0.57171
176 1 -2.66983 22.2422 -3.37422 2.21915 -0.890589 1.20713
178 1 -17.617 9.86817 5.65498 0.137259 4.02661 -3.89632
180 1 -23.9408 19.4689 9.30759 -0.170952 6.01119 -0.148172
183 1 21.2942 12.2291 -2.93845 0.233643 1.63758 -0.175465
185 1 21.3222 22.3762 14.9584 5.05819 -5.07213 -1.4843
187 1 -11.3173 7.8433 -6.75948 -1.07362 -4.35726 -0.957823
190 1 -15.6424 11.4973 -11.8101 1.19623 3.85953 3.05001
192 1 7.32205 5.75715 -3.62493 4.65946 3.25345 -1.41282
193 1 8.72562 1.42131 4.07149 0.711019 -0.35442 -5.09129
3975 1 2.91144 -0.40578 -16.7738 0.131538 -0.347389 -1.36004
3452 1 -11.283 -0.421649 -12.3371 3.76155 -0.153656 1.62847
196 1 -15.6696 22.4152 6.25137 3.97357 -0.621006 4.09317
200 1 15.4928 7.5705 -16.8939 -4.23194 -0.938303 3.81276
201 1 6.87059 3.88917 -22.9822 -0.345346 -2.79101 -1.6443
202 1 11.1713 12.9661 12.9592 -1.10273 -1.69118 0.00777953
203 1 -23.8529 18.0509 6.68481 2.17273 0.453949 -1.28376
207 1 -7.52659 7.08917 -23.8264 -5.05427 4.36307 -1.07879
209 1 -6.08434 16.4897 -15.3954 -1.2031 -2.15334 -0.679487
210 1 -18.4088 12.8305 -0.835672 -0.326838 1.87403 1.39558
2282 1 -5.34296 22.9643 7.27192 -5.08387 3.56339 4.16448
215 1 9.51223 23.0567 16.6417 3.39245 -0.46309 -1.34922
217 1 4.26731 21.5601 9.09539 1.77696 -3.94468 0.743755
218 1 11.7691 3.28551 -4.01805 3.9473 -1.46761 -4.91386
219 1 -5.43628 23.0687 21.5716 -0.0244437 1.19224 1.57744
220 1 6.14774 20.1228 16.8202 -0.682583 5.29263 -1.51869
221 1 -16.4189 3.30142 -2.27003 -2.15767 -1.10357 1.49252
226 1 23.4433 16.1043 -14.3097 -0.741241 -1.4051 0.59407
227 1 16.4079 16.4249 1.43547 2.85525 -0.266419 0.506329
228 1 -9.93966 20.2074 0.786068 2.61821 -5.08619 0.153819
229 1 10.403 11.1967 -9.79779 -5.18601 3.05462 -4.29918
230 1 -8.02691 14.1496 20.1344 -6.58464 1.38097 0.331452
233 1 -12.6611 15.883 11.9716 -3.24863 0.163663 -1.55253
234 1 -6.07273 18.7597 7.68885 1.59981 -2.2768 0.598197
237 1 -16.5165 21.5724 2.21598 3.78414 2.14012 -1.11448
239 1 -19.2496 19.5514 17.1968 0.494574 0.377146 3.87376
240 1 11.1003 2.23421 16.1759 -2.65672 -1.12244 2.71741
244 1 -19.4514 11.7273 22.3711 1.6822 3.2936 1.40271
246 1 9.79119 3.39444 22.0795 -1.81127 0.930458 -2.70081
248 1 -17.9993 6.9242 -14.4853 -6.09295 5.34242 2.82427
252 1 19.865 15.9561 -11.8354 4.44989 -2.24277 3.89817
257 1 -1.1262 4.39179 -21.1378 -0.451493 -4.0581 -0.162149
260 1 14.2883 7.71349 -3.6902 -0.991472 0.767399 2.37292
262 1 18.0287 19.3156 9.87018 0.700488 -4.54889 -2.70504
263 1 -20.431 8.11382 -9.99234 2.36311 -2.02467 0.845133
264 1 22.4375 2.9779 17.1374 -0.168182 -3.678 -0.817842
266 1 23.3027 4.44181 -15.1925 -0.913806 0.757314 2.00489
267 1 -11.1188 20.7292 -10.5933 -2.37647 1.65521 -1.17271
268 1 -20.5612 18.6731 -12.4842 3.14587 1.62466 -6.47952
1795 1 14.6356 -0.662761 -10.8699 -0.73042 5.20823 2.17637
3760 1 15.1946 23.2029 2.11391 -1.06433 2.46209 -3.4654
276 1 21.3235 6.08167 -9.45132 -3.01206 -3.85314 6.85673
278 1 20.1723 9.94504 16.5945 -1.78016 -1.52004 -1.71541
4000 1 -16.6491 10.6354 22.9836 -0.0562922 1.04551 -1.06859
281 1 14.354 19.8374 13.406 1.40131 3.15688 -7.74123
282 1 12.4046 10.241 12.6391 2.51047 -2.7756 0.0975148
284 1 2.01434 14.0578 1.28631 1.87338 3.99342 -3.68576
285 1 -14.1267 18.622 14.6786 -0.404371 -0.831721 1.94732
286 1 -5.03424 18.0878 -1.13711 0.618484 -1.66125 -6.08508
292 1 15.3862 8.30056 2.67791 1.93266 -4.07151 -0.150298
293 1 13.628 4.58725 13.543 -1.94846 -1.97464 6.47101
294 1 -9.08752 1.5617 -0.785037 -2.72744 -0.987715 -5.48781
295 1 0.0352187 7.33368 9.35078 1.23573 -1.97311 0.940091
296 1 1.05746 15.3278 -2.26092 5.26953 -3.38537 -3.1559
301 1 -5.25654 21.39 -21.013 0.938282 -2.62638 4.13466
302 1 0.64223 8.27478 -1.9459 -4.17175 0.69571 -0.79961
306 1 13.0251 20.2843 -12.0577 9.3029 -0.83622 3.04502
307 1 14.291 13.3837 -23.2128 -0.538109 -5.77166 -1.87524
310 1 2.43989 12.0194 13.9241 -0.661808 5.09757 1.62235
312 1 -6.39698 0.630497 -8.67177 -0.500695 3.54057 -3.21776
314 1 -12.8346 5.85077 -8.24696 -4.36372 -1.32423 -1.86928
319 1 -11.9049 2.05349 14.0758 4.86785 -5.54061 1.92822
322 1 -11.9636 13.8743 -1.156 -0.837087 -4.63169 -1.08283
323 1 -14.0328 1.36726 2.75106 -2.93658 0.507216 -3.14785
324 1 21.9345 3.27401 6.05531 2.46575 -1.4814 2.06969
326 1 -18.0942 4.41731 1.21006 -0.234262 0.172478 -2.99345
328 1 13.7583 21.0542 15.9298 -2.03556 2.28308 -1.49358
329 1 -0.333493 0.717585 -10.9761 -2.04955 0.509179 6.27712
331 1 12.7164 7.10666 3.02315 1.81091 0.794933 1.46306
332 1 10.7234 -0.220832 -9.89332 0.456302 -1.25402 2.6307
336 1 19.4171 14.5205 -22.8245 2.60951 -2.05356 2.67094
337 1 -18.6162 19.4726 1.88537 4.03764 -1.03992 2.93937
340 1 -13.6227 1.56985 -18.3645 -3.96624 0.330603 -2.1106
341 1 -10.6499 1.75294 -14.0862 -1.20949 -2.28734 -1.7741
346 1 15.9462 2.26555 5.88759 -4.13868 -3.12818 0.103581
349 1 -5.68333 9.97792 21.8804 -1.0772 1.64785 -2.89482
350 1 -22.3731 18.4972 22.3592 -6.35835 2.72305 2.4822
351 1 -17.1727 3.34802 11.295 1.7151 3.48669 -0.312966
352 1 15.4219 1.51881 1.4107 -3.0952 -3.5102 3.10054
354 1 10.4504 22.8993 -7.09402 -2.34317 3.133 -0.314031
360 1 5.48805 17.0831 0.882695 -4.4722 3.98335 -2.5635
362 1 -21.3456 10.8567 4.80774 -2.47179 2.86135 -2.21454
364 1 -10.8707 2.93626 -5.18065 -0.0557875 1.9427 2.77014
366 1 -19.9485 0.834754 -10.4868 3.30163 -0.861844 -1.90187
367 1 7.37787 18.0844 -17.538 -1.33205 2.99533 1.0199
369 1 13.657 8.51959 -14.5428 1.71501 -2.2617 1.0355
372 1 -8.1483 22.6379 7.84887 2.04949 4.12225 0.470619
373 1 -17.5358 6.55913 23.0284 -1.10866 -0.956548 -2.69984
374 1 -4.83218 18.7746 -11.4592 2.19825 2.10154 2.17054
377 1 14.1721 0.251331 12.6371 -0.302062 -1.4731 -3.1978
380 1 13.778 16.4908 -20.7164 -1.14962 2.81562 -3.23575
382 1 16.5535 15.9731 -3.24448 -0.680939 -2.41617 -3.39596
384 1 -10.3654 10.4467 -7.81087 -3.54258 2.57484 -4.61143
385 1 -7.50991 1.64616 20.4089 -3.53445 0.711285 5.4256
389 1 -13.6556 8.23419 7.87469 -2.47785 2.49233 0.109767
390 1 11.6464 6.95778 7.99677 1.47598 1.59259 -4.31392
391 1 16.693 3.26983 19.3919 1.91207 -1.59288 1.57788
394 1 -9.25447 11.9085 -5.58665 7.2042 -2.2055 -2.53231
399 1 13.0387 15.2837 0.328488 3.9815 4.47451 -0.3286
402 1 -1.68159 7.92342 22.0037 0.119225 -0.780459 0.588823
409 1 0.158925 2.21097 -7.14806 -0.10188 2.96097 1.73141
410 1 -14.7569 11.7217 1.29551 -2.96138 0.780025 -2.00186
2204 1 3.71255 0.686233 -0.899635 0.47339 -1.03349 -4.6471
414 1 5.12331 18.5296 -13.9313 -0.076987 -1.65379 0.666486
415 1 -17.6458 7.12633 -10.4624 -0.346239 3.4231 -4.75692
416 1 21.7607 0.309471 11.7391 1.37333 2.27189 0.448462
417 1 -14.2092 -0.0932634 10.7895 3.13202 6.24454 3.41524
418 1 22.8071 19.6506 5.10234 -5.20477 -2.02397 8.79068
419 1 -24.5335 3.4003 22.4709 -2.96495 0.345494 -1.79948
422 1 -2.42045 15.1034 -23.895 -1.16062 -7.24976 -1.34706
423 1 -9.607 2.42595 3.78365 -0.565209 2.28674 -2.40182
425 1 -20.0852 14.0599 17.9317 1.24134 -1.74983 -6.24731
428 1 8.90224 12.0759 -5.75375 -0.675264 -1.30849 1.24464
429 1 -5.87812 9.662 -13.489 -4.35214 0.695511 -4.76957
433 1 -19.2045 1.63926 -17.9034 4.06247 -3.25243 0.338087
461 1 3.53235 -0.819949 -19.6362 -0.505178 -6.55831 0.044645
437 1 19.6871 17.5728 -9.65198 -1.56965 -0.156361 -0.903495
438 1 -18.5999 6.00697 -4.87113 -2.28827 2.92043 -0.857102
440 1 -9.8761 14.0842 -14.4678 0.285035 -1.39675 -3.54913
441 1 18.2998 2.60238 -4.8651 -2.89956 2.21867 -4.34892
442 1 5.46629 3.30504 15.4382 -1.75036 4.74314 -9.419
444 1 -23.5148 7.5088 -18.5335 -2.08546 0.92463 1.15944
447 1 7.54667 19.1046 14.6527 1.94639 -2.82565 -1.52461
776 1 8.95808 -0.429658 24.2285 -0.831909 4.24888 -2.9777
452 1 22.5044 15.4516 0.542173 -2.15595 1.63564 -2.17605
453 1 -16.5474 13.5617 8.29359 -2.95514 -6.31662 -0.50532
454 1 -4.79881 0.909121 -14.9834 -0.34776 -6.80709 -3.34852
456 1 -3.80806 14.8662 22.462 3.66559 4.21768 1.89416
457 1 7.71443 21.7742 18.2995 -3.87343 -2.1573 -0.18971
458 1 23.1857 19.9455 18.419 -1.47708 -0.517517 -2.11256
459 1 1.12653 6.35529 -13.415 2.95686 4.02906 -6.77888
460 1 6.34372 7.80279 -23.1062 -3.1899 3.33909 1.6843
1277 1 -10.5856 22.5085 -3.18237 -3.7999 -1.86745 5.63541
463 1 7.09572 14.4767 11.8368 2.65062 0.318855 -2.00433
466 1 16.3368 12.5308 -21.3134 0.346989 1.31503 -1.21728
468 1 22.3919 17.0729 -9.05865 3.06981 1.86286 3.06432
470 1 -20.7816 6.90178 -13.3228 1.47683 -4.90383 3.26924
473 1 4.89406 12.7463 12.3689 -4.23855 2.1932 0.559526
475 1 22.7557 10.7679 -21.2521 -4.51112 -4.43269 -1.15814
478 1 2.74206 0.0716411 -23.8347 0.731784 1.85936 -0.544348
481 1 -1.42028 7.35438 -20.2529 -1.08029 0.629292 -1.3458
486 1 15.7511 3.76014 -4.85687 5.34799 -3.91585 2.88752
3504 1 16.7772 -0.786276 0.395019 -1.17593 -0.0301495 2.3782
489 1 -12.1527 22.6734 -12.6786 -4.1758 -3.84513 -1.17443
1387 1 -19.314 -0.458882 -0.029627 1.85087 1.39856 -2.30457
494 1 6.7246 3.20741 5.41228 -1.44849 -0.947427 -5.48911
496 1 4.99462 5.85447 -14.5622 -0.650236 -1.86059 2.46193
497 1 10.419 14.9601 24.0996 -1.16825 -2.34234 3.83174
498 1 22.6252 0.907638 -23.9093 -3.13793 -0.00842037 -1.59522
499 1 -23.2846 2.70648 -10.2962 1.325 3.17333 1.84185
503 1 9.52402 0.173198 -12.6822 1.66787 1.41022 0.0479227
504 1 -1.87927 3.88993 5.74382 2.95964 -3.01051 5.84441
505 1 -0.948421 7.4758 -23.1887 3.50061 0.114274 1.23877
507 1 13.2388 21.0646 -14.8287 0.876257 -1.45256 0.492311
508 1 -0.981678 22.8868 -10.8709 0.0247173 -1.09849 0.312399
509 1 23.4404 14.6047 -19.745 -1.78226 -0.0624662 0.815077
514 1 -12.7819 19.609 19.1491 0.507071 -8.14177 1.77052
515 1 -0.15228 7.46558 17.99 1.55279 2.50543 -0.318532
526 1 -20.1531 15.0539 -4.5929 1.7982 -4.27961 -0.477598
527 1 -2.96959 14.6556 -7.95997 -2.92731 2.00351 -0.381407
528 1 -14.1814 15.5423 -12.0589 -0.30203 -1.21346 -2.29889
530 1 -9.58452 1.8518 10.2593 -6.44058 4.18848 5.38659
534 1 20.3817 8.02507 -11.2071 -2.95139 -1.14224 3.09163
535 1 5.2538 11.0681 10.0437 2.86019 0.628041 -3.26363
539 1 17.6348 10.5088 -7.13773 1.93164 2.53475 3.66594
541 1 -13.3933 0.234355 15.5949 -3.55841 3.72178 -1.59479
542 1 -24.5716 5.40279 -9.48869 -2.82313 -0.438167 -0.442754
548 1 8.78261 1.6471 19.758 0.113065 3.78549 -4.58847
551 1 10.2825 4.87163 -17.7636 -6.91062 -0.590832 -0.933127
553 1 -11.7896 6.29573 0.313941 1.01734 0.394478 0.919334
554 1 3.60127 16.2231 -18.5746 1.05606 3.24252 0.746041
556 1 -11.2915 17.4492 -2.87712 -0.830499 -2.06136 -1.96754
562 1 8.78231 8.54893 -21.3301 4.29181 -1.84492 -3.48505
566 1 19.7661 14.6167 14.2085 7.64415 4.12628 -3.37476
567 1 -20.1156 21.8636 -2.41861 -0.835942 1.7522 0.832215
2984 1 -1.01177 -0.687648 22.6467 -0.376817 2.32703 2.45531
570 1 -24.3712 13.6245 17.3198 1.10824 -2.19871 -2.15686
575 1 -15.9215 5.81701 -3.77604 1.36162 8.09027 6.20928
576 1 20.6269 0.693482 19.0519 1.69345 1.8841 3.28402
577 1 -7.65147 21.8583 0.690865 -1.53829 -2.67248 1.17337
578 1 -24.2492 21.571 -22.1097 1.12685 -5.97381 -1.86613
580 1 -5.64454 2.97834 -21.1822 0.359645 -0.21023 1.10766
583 1 -21.9389 22.1113 11.9304 2.42676 0.47236 -0.298897
584 1 15.7937 5.06477 -7.51625 2.69707 3.75756 2.49836
585 1 -8.21034 10.6955 15.6113 -4.13606 -1.03766 4.51995
586 1 17.34 21.8542 -20.8061 1.84932 3.04217 6.6407
588 1 -18.6049 22.1236 6.15176 -2.24118 2.30802 2.96416
589 1 -2.25908 3.57136 -0.603686 0.126777 0.920392 -0.159911
590 1 -3.9709 17.7319 21.582 3.16275 -2.87187 -0.607848
594 1 -19.7249 -0.262517 3.01744 0.368849 -5.23508 -0.662544
602 1 -10.3512 2.94282 21.1674 -1.89658 -3.23388 -3.51713
603 1 -5.61483 6.58351 -4.26257 0.985737 -0.214103 1.08701
2376 1 -16.288 -0.40268 22.9622 6.53691 0.0264175 3.75704
608 1 3.95409 7.54504 -10.0026 4.87781 -2.98505 -4.088
612 1 -3.32039 12.3453 -13.3424 -0.18988 -0.328861 3.15256
613 1 12.7357 6.79296 -20.5153 -5.32894 0.345711 0.77375
791 1 -2.24757 21.903 14.4783 3.83448 2.60014 -0.33355
618 1 13.1681 6.33134 10.2725 -0.226408 -5.52476 4.72015
619 1 15.7528 1.57041 10.471 -0.124363 4.84742 0.545864
621 1 -7.06065 13.8336 -13.8562 6.17955 -2.06819 -1.04616
624 1 -8.39409 1.45049 -20.247 -2.33652 -3.52872 -0.459079
626 1 -3.09995 2.33124 -19.6898 0.073099 1.60656 3.27861
627 1 20.6329 14.9152 11.2012 -5.77451 -3.1609 -3.37106
629 1 -5.73373 10.1353 -7.02025 -6.44468 -4.0137 -3.46823
630 1 -22.9877 21.9914 9.27472 -1.58071 -1.69685 -2.83906
633 1 8.42047 9.8625 -24.0217 -1.9042 -3.37705 2.02276
635 1 8.03261 12.813 -3.091 -2.51638 -0.748519 -4.05269
636 1 -23.0857 1.58839 -17.3536 -0.648349 5.27045 1.99536
638 1 14.5323 17.5556 -4.83788 -3.63504 0.518346 -1.65677
1547 1 14.0035 0.0916625 -0.848827 -3.7374 1.45956 0.368549
641 1 -14.4951 18.2062 6.22555 2.06418 2.30458 0.106291
644 1 -6.32667 11.5211 -4.34748 -1.05074 -1.17564 -4.41004
439 1 -1.44306 22.6877 -5.98059 3.61635 1.67146 0.517173
647 1 4.09758 2.88076 -4.60728 1.91439 1.36473 2.01779
3674 1 -1.26199 -0.614338 -7.03281 1.15571 2.69055 3.5642
651 1 -22.6601 3.45772 -15.1427 3.90316 0.522357 0.736231
2588 1 17.4211 -0.118417 -16.3514 4.57847 -0.798243 -1.34649
658 1 21.2668 12.1232 12.6562 -2.46321 1.85518 -1.66491
659 1 7.62189 -0.0929503 21.6492 0.0655906 0.418956 -0.300617
660 1 8.34206 4.29994 7.8625 -1.02148 -0.754612 2.12435
668 1 -9.1243 12.2578 17.9345 0.0340133 3.20924 -2.6828
671 1 20.1092 14.5029 3.41762 -0.91327 0.602126 0.200248
672 1 23.5926 5.21731 -12.4639 -1.29714 -0.100072 2.03993
673 1 -0.834179 17.7632 -23.6864 0.0993102 -1.98838 -0.184158
1789 1 -24.5181 -0.719487 -5.24667 4.13819 -4.26356 3.31146
676 1 6.94455 2.45802 17.7799 2.44099 2.85006 -6.31247
679 1 -18.7608 3.36537 -9.20723 1.9936 -0.817256 -2.98792
680 1 8.91857 20.7938 -8.7759 0.0901907 -1.56552 -8.29424
681 1 -2.24656 1.42075 -8.91489 -4.07311 3.49824 0.820472
682 1 -4.09195 17.2466 -7.54526 10.5425 0.33794 5.64349
683 1 2.22679 10.2185 -18.5758 -2.17532 -0.373748 -1.45802
685 1 20.4166 -0.219525 8.38104 -1.55764 -1.47952 1.69746
687 1 -14.0069 6.75598 10.6641 2.29829 4.46383 -0.000963575
211 1 16.8388 -0.42085 6.88965 2.51236 1.14084 -2.76101
690 1 1.28949 23.1439 -6.5887 -3.97332 0.939862 -3.48403
691 1 -0.278861 7.04457 14.4856 2.56148 -0.084323 -5.96454
697 1 -21.3003 16.7416 -19.6715 -0.47105 3.39689 0.175907
700 1 2.9084 5.82788 -22.9438 -2.65003 -1.78411 -2.76081
701 1 17.6864 -0.494965 9.53259 2.11729 5.32093 1.88292
493 1 14.7005 -0.208644 -15.4766 2.55858 1.94013 -0.958088
705 1 6.37904 20.2326 -15.7112 -0.694496 -0.419147 -0.104149
706 1 5.46193 3.10116 20.2627 0.202048 0.556915 -2.26114
707 1 -18.5727 0.0810683 21.1063 0.16127 3.92996 -0.774118
713 1 2.36119 4.81605 2.40265 -0.324016 -2.39227 1.66868
715 1 2.83358 16.1834 10.5591 3.18542 0.57721 -0.491062
723 1 -21.5249 12.8558 -5.80118 -1.47911 -1.87172 0.838301
724 1 -8.16927 21.6122 -10.4982 1.94392 1.96465 -2.19061
725 1 3.97822 17.6647 23.9653 7.23673 -0.214994 2.64351
728 1 -10.702 17.4466 -8.41097 -2.87158 3.09098 -2.06363
729 1 -13.9217 14.5 15.7783 -1.28024 0.999271 0.397442
731 1 -11.392 12.4554 -23.3663 -0.265848 2.54794 2.07546
735 1 16.2108 8.75651 7.33085 -1.42419 -1.22567 -3.54846
736 1 6.55231 20.769 -7.42103 -3.19829 0.650479 -2.96712
738 1 -10.1247 6.43812 15.9218 -3.07527 -1.51236 2.31337
740 1 17.2909 12.2968 19.9028 3.78191 2.13198 -5.31641
743 1 -22.7629 19.3124 1.75448 -4.36555 5.27358 4.11937
745 1 -22.2085 1.95551 19.1319 5.02252 -0.0156532 0.485806
749 1 -0.24693 13.2358 7.88729 7.86765 1.93695 7.32891
751 1 -19.8657 11.3221 -13.2357 -2.26438 1.74907 1.66202
435 1 4.25878 23.1932 6.49816 2.35649 1.50998 2.69664
755 1 11.567 9.107 -22.0397 3.20566 3.43501 0.0124487
757 1 -17.8993 13.4781 -3.59664 -0.770043 0.295963 1.59543
759 1 0.294485 11.6119 -10.3921 -0.679772 2.70316 1.37977
760 1 1.17507 5.04115 13.0482 -2.25613 0.183498 -2.02108
762 1 6.35753 17.3765 22.3311 0.481522 2.14503 -2.74057
763 1 15.8298 5.79834 9.30183 -2.00856 0.763369 -3.87993
764 1 20.1099 4.29073 8.10645 5.21264 -3.45228 -0.935748
765 1 23.8488 10.8196 8.20307 -4.86908 -2.02573 0.105402
766 1 -10.3143 17.843 -16.1226 -4.25948 -1.20187 0.948585
768 1 -7.9155 9.21385 10.1038 -0.495191 5.15185 1.73539
770 1 -4.06345 21.735 -23.6094 -5.42149 -5.06824 4.4758
772 1 5.76104 7.7073 6.24582 3.69102 -0.364067 1.65629
774 1 17.4995 16.0988 13.2825 1.81906 -2.0626 -6.59136
1642 1 -1.89906 22.5331 5.72796 -2.07068 1.54837 -0.0831599
779 1 7.26057 0.923576 -8.79717 2.98361 -4.94774 -0.353925
781 1 -19.886 2.13423 7.226 3.37674 1.36881 0.972894
784 1 12.5464 14.9743 -3.51001 3.41021 -1.36761 -0.951146
785 1 -2.35267 20.8334 20.6859 -1.04963 2.03295 5.50692
786 1 -21.141 21.0629 22.5204 1.86831 -2.9412 -2.12494
787 1 9.87903 14.0364 -12.3842 2.28087 -1.55661 -4.88982
788 1 -20.827 5.0166 6.5341 -3.14978 0.146687 -0.864853
789 1 -12.8539 18.9679 0.75041 -0.996983 0.910572 -3.5943
790 1 3.87633 1.03068 14.6902 0.99915 2.95506 3.03891
792 1 -23.3478 13.6523 -7.93937 -3.24654 3.53446 0.797994
794 1 6.53055 16.325 -23.4454 -2.0723 -0.447562 1.58477
798 1 -14.59 2.2402 -7.317 -2.73843 -0.442531 3.98678
799 1 -10.3606 20.0669 -1.97244 4.62549 -0.594519 6.56793
801 1 20.1841 14.2148 -1.09824 0.651142 0.351629 -2.89652
3518 1 -2.22096 0.0282584 0.22804 0.061502 -1.52681 -0.349169
807 1 16.9944 20.7984 -23.4641 -3.96394 4.73163 -4.79107
1202 1 -15.6316 0.0859145 -5.99292 0.0476739 -0.18656 4.02474
1355 1 -8.46149 22.8856 17.8533 0.730568 -2.67371 -0.294046
815 1 -20.5424 11.0293 -17.5068 -0.930355 -0.371139 6.1709
818 1 -9.78383 6.6566 21.0312 -2.01656 -0.92235 -5.05849
819 1 9.77925 11.25 21.0525 2.14133 -2.80287 3.8175
820 1 2.5468 14.0544 8.54023 0.048659 -1.06947 -3.70252
825 1 -24.4227 4.93391 5.7745 -3.10767 1.81452 -1.83731
826 1 -11.893 7.28636 -4.07562 0.270006 -0.119537 -1.20121
827 1 -2.39445 0.150593 4.54099 -2.79539 -4.96882 0.987684
829 1 20.1808 16.0064 20.5692 -1.98678 0.653283 -1.95023
834 1 0.208451 10.3083 -0.168993 2.75783 -0.94853 -2.22317
835 1 2.73484 5.74589 -20.0504 -2.99247 1.70659 -0.410923
839 1 -22.5548 19.084 -10.4983 -1.94436 4.783 -1.22037
841 1 19.3372 2.11134 10.0021 -5.41409 -1.68952 -0.661261
845 1 18.8882 7.54001 -2.38394 2.12708 2.07672 1.08766
846 1 8.36497 6.94823 -11.4053 2.98097 2.75202 4.30967
848 1 -4.09705 16.3786 -13.1319 -0.0798205 3.29057 -2.86426
851 1 -22.3638 16.7396 -13.9478 -0.258452 -6.18975 -3.48991
853 1 13.0225 11.0254 -15.7595 1.37366 -2.46237 0.786795
855 1 -16.3063 22.4579 -20.493 -2.8683 -0.15464 -7.17848
861 1 -24.0336 21.0222 -12.3454 3.1846 2.14674 -5.63567
862 1 1.25354 13.9619 -8.84742 -0.427951 -7.89934 -2.08254
864 1 -14.8092 2.56592 20.0719 2.64808 -2.65177 -1.64994
867 1 -2.66318 10.8515 21.0144 -1.23005 2.63796 1.28637
868 1 2.11999 17.0692 -4.58117 -1.80475 0.0600972 1.08776
869 1 -0.877449 18.8313 4.44586 0.968418 -1.41625 0.45772
870 1 15.259 19.7276 18.0325 -0.791376 -3.71013 3.02033
871 1 5.35787 9.29112 -17.2524 -2.2279 2.13552 2.00451
3480 1 -23.2122 22.8316 -6.19206 -0.357185 1.85355 -0.314187
874 1 11.6316 1.13012 0.77739 0.70264 -0.764077 -5.39842
875 1 21.227 13.8744 8.72898 3.75057 3.95353 6.36654
878 1 8.81016 12.9513 -23.3782 -1.68209 0.565703 -8.64532
879 1 16.0818 4.62368 -18.9772 -3.46514 4.20859 1.72753
880 1 5.41474 14.0664 20.8135 -0.792414 2.55528 4.14804
883 1 17.9246 16.4764 -6.03779 0.997726 -1.69996 -0.981306
888 1 -7.43962 10.285 -16.8488 -1.632 4.15773 2.29706
894 1 1.82063 12.6373 22.6283 -0.612444 1.1151 1.07251
898 1 18.1613 0.130258 -23.2871 1.31257 4.51619 2.59249
902 1 -8.24963 15.9779 -0.0886334 -0.994731 5.0278 -0.327442
907 1 -16.0579 2.56913 -9.91635 5.86022 0.824516 1.72588
910 1 -9.65663 5.26501 -3.93788 1.88064 2.1133 -2.04081
911 1 0.148802 14.0592 -24.3318 -2.14397 0.870334 5.85925
271 1 2.9691 22.9056 -13.349 -2.33976 -2.24185 -2.20158
914 1 -23.3228 15.4818 9.18186 -2.30959 0.800586 3.38559
917 1 22.7178 2.95738 -21.543 -2.25949 -3.00975 2.74978
918 1 -3.75704 7.53225 2.63234 -1.41102 -1.74514 4.47021
919 1 -9.76752 16.5415 11.7078 1.25778 3.98894 3.42697
920 1 2.00329 13.9185 -22.276 -3.296 0.182021 4.54869
922 1 -11.3161 1.34513 -19.8862 4.37526 -0.261635 2.22567
924 1 -6.8605 16.8272 5.92292 1.85694 -2.97396 2.32281
925 1 0.568892 11.4697 -3.0613 2.41461 -0.362749 0.0148484
927 1 6.95362 13.6783 18.4716 -0.072433 1.1229 1.74672
3226 1 -22.4265 23.1046 -11.0079 -0.998189 -1.31749 -2.81573
932 1 -18.4884 15.7855 14.8829 -0.352706 1.046 0.221919
934 1 -3.05351 17.3048 -21.4939 -7.74251 0.296158 3.59042
936 1 8.50226 12.1518 13.2345 -0.805161 5.72855 -1.44434
937 1 2.41362 14.6314 20.7392 6.8434 4.09323 1.35285
938 1 18.4925 9.14643 5.08918 4.28091 2.135 3.47671
940 1 20.9947 0.17021 -9.36472 -3.544 2.30133 0.262309
941 1 -20.9098 23.0891 7.42603 0.008271 2.56082 0.805905
947 1 -9.06028 16.8047 19.3889 -0.588906 -5.52585 -1.96183
948 1 -22.1903 6.15017 -8.03768 -5.73004 8.42124 0.414902
949 1 -2.85739 13.5158 20.1177 -1.38552 4.81379 3.59737
950 1 -19.9339 6.58975 11.7243 5.71358 3.88369 -2.98034
954 1 15.7642 8.05493 -11.0148 -0.896878 -4.24165 -0.789781
955 1 -10.6696 19.14 -18.75 -0.20343 2.71608 -1.14485
958 1 1.93406 13.4401 18.2292 3.51006 -1.65266 -4.09502
961 1 -5.97841 13.2646 0.877765 -0.552183 3.6655 -2.3639
962 1 -4.26827 7.78595 -6.78594 4.42145 -0.354964 -2.42247
965 1 -13.8884 12.5985 7.51452 2.10001 2.60415 1.14161
2008 1 -9.2308 22.3022 12.3323 5.66173 -4.4519 0.817238
978 1 4.06634 13.535 24.2681 0.90385 5.1023 -0.189047
3361 1 -3.65142 22.9845 9.4975 0.169931 -2.06861 -1.03123
980 1 5.77007 19.955 11.0518 0.788833 3.58893 -2.06846
983 1 -20.6439 7.1229 16.4833 -2.38895 3.37997 -2.50763
984 1 -15.3256 16.8406 -4.53237 4.27684 3.64558 1.17346
985 1 -17.2193 17.9625 11.2888 -1.82928 -1.51092 2.26875
986 1 -1.20968 5.22042 10.886 -1.79946 -1.49858 -1.31017
989 1 7.37731 0.249312 -5.76542 -2.87388 -2.90106 -1.68256
992 1 -23.4018 9.66979 2.76644 -1.11075 0.496358 1.121
993 1 -23.5208 2.20118 -23.9107 1.53203 -0.242407 -0.726281
995 1 9.14201 3.19304 -1.27905 -6.94329 0.706178 0.124285
996 1 20.6648 10.5036 -17.3272 1.79562 0.602337 -1.32247
997 1 -22.7306 22.3875 24.2823 4.76776 -1.27546 3.23837
998 1 -2.42459 10.0463 10.9378 0.192091 -2.06919 1.09066
999 1 -22.4057 9.30987 7.08182 -1.67653 -2.47719 -0.341354
1000 1 16.6116 17.0389 -9.39495 -3.88374 -3.36664 0.173789
813 1 -15.1698 21.8377 -17.5471 -2.31839 -6.33161 -2.38498
1005 1 -14.3247 16.5151 1.44254 -0.466275 -0.642778 0.475871
1006 1 -22.8704 10.7984 17.4891 1.64923 -0.206852 2.22862
1007 1 12.987 -0.172927 19.3976 -1.08318 -3.37242 4.63579
1010 1 -14.4803 4.52512 -11.3002 7.39872 -3.99563 -3.55635
1011 1 -20.3871 2.07916 -0.986338 -1.15883 -2.57709 -0.487007
1012 1 -0.102284 1.58717 -1.07791 2.06272 2.05614 -1.49362
1015 1 0.276372 4.8233 -23.6809 -1.79927 -4.09357 2.78825
1016 1 -22.9753 4.58424 8.38129 -1.81911 -3.19299 1.81431
1017 1 -9.4377 1.9328 15.6121 1.70507 2.9552 -2.67537
1019 1 7.27149 16.7478 3.31713 -1.3436 -2.16968 -2.35886
640 1 1.21069 -0.573996 4.145 -2.63984 0.451893 2.48189
1024 1 -3.42376 6.93198 24.1836 2.62782 2.44443 -3.88561
1025 1 6.24037 3.61361 -19.4464 2.89313 -0.355211 -3.10478
1026 1 3.34103 12.3112 -10.28 2.26706 -3.32417 3.55339
1029 1 11.5631 11.6272 -0.580023 -4.36154 -2.48907 0.990514
1032 1 12.8252 6.34307 19.8857 0.784118 4.05347 -1.40176
1034 1 -13.6909 12.66 -10.0641 -0.25738 6.82418 5.81746
1035 1 12.5754 19.548 -3.82703 -3.02678 5.04604 4.69614
1038 1 -2.96633 7.2559 11.7122 -1.27209 0.621401 -4.69346
1039 1 20.585 20.2482 -10.2612 -0.260264 0.419249 -0.177877
1041 1 -2.95311 7.58756 -14.2724 -0.304598 0.0706727 -0.549529
1043 1 15.3527 9.06933 -5.89154 -0.913987 2.25393 4.70852
1044 1 -3.82232 21.8551 -11.5253 0.406481 -3.71986 1.20446
1046 1 17.8347 14.7095 -15.9873 0.46587 -0.899576 -0.0123267
1047 1 -17.8477 2.66668 19.8905 -0.52606 -1.3365 -2.93767
1048 1 -0.11973 0.100029 17.074 -1.9955 2.01336 0.364722
1049 1 -22.6238 0.308674 -11.5353 -3.07611 0.873184 2.01183
1050 1 17.899 19.5231 17.3089 2.34712 -1.17005 3.07384
1053 1 5.55239 6.46456 -18.557 -0.0749509 -0.54546 2.4507
1054 1 -16.4707 21.5069 -0.644736 -2.39012 -2.08454 2.44613
1055 1 -7.75887 16.4226 15.3978 -0.853888 3.18573 0.26024
1056 1 -9.34851 18.8479 5.16843 -0.700491 -2.07097 2.05926
1061 1 8.04116 8.78291 -13.9896 -0.435374 -0.423482 0.259001
1063 1 1.87942 19.0275 10.9715 0.069687 -1.3428 -1.80077
1065 1 15.4207 20.7924 -18.0606 2.08337 -0.884015 -1.05018
1067 1 -22.0084 7.29461 9.44067 -0.0910789 2.2205 5.80935
1068 1 -3.42606 19.2524 0.725907 0.851209 -0.108431 3.20659
1069 1 -23.0831 16.168 -22.37 5.72475 -0.312173 -2.32392
1070 1 -7.41351 6.44907 10.839 2.15286 4.2714 2.89321
1072 1 14.1196 8.76255 -18.9815 3.28183 -0.0225307 1.0852
1074 1 -9.89756 11.8951 -16.1781 -0.863194 3.2365 -2.6093
1075 1 0.117488 10.715 15.0911 5.06036 -4.59984 -0.234908
1076 1 21.5027 4.30407 23.4289 0.550688 4.87093 -2.98117
1079 1 -17.0673 -0.23142 10.4869 -3.40484 -0.465442 3.15023
1083 1 0.614745 21.0205 -19.7987 0.22886 -0.626788 -2.34336
1086 1 -10.1347 9.76369 -3.79184 0.251274 -1.75804 2.77163
1088 1 -22.3246 22.89 4.50312 -1.94566 2.53815 4.02801
1089 1 -16.2331 6.63244 15.739 -1.0462 -2.3186 -0.478247
1091 1 -15.0067 10.2962 6.20114 -2.67947 -0.713689 -0.0243011
1093 1 22.6762 7.31487 5.25825 1.1659 1.99422 1.04353
1094 1 -21.2231 17.7066 -23.8361 -0.0544626 -2.87851 -2.46602
1095 1 -6.08166 20.9973 -12.7809 -0.71625 -2.18645 1.45676
1096 1 10.2185 19.3114 -11.9218 -3.74717 2.53697 -2.96879
1097 1 17.6882 22.7705 13.7727 2.44984 -1.35975 -2.6767
1099 1 16.4831 9.90863 16.126 2.18012 3.86603 3.38495
1103 1 23.2452 8.19118 16.1145 0.915384 -3.43864 -4.35123
1105 1 19.9245 2.20529 -0.173837 -0.981946 5.51974 -1.86112
1108 1 16.9474 11.868 22.6692 -2.65323 2.64095 2.18902
1113 1 -18.6217 19.5995 22.9312 -1.53442 -1.02038 2.29132
1115 1 23.0007 22.955 24.2105 -2.19607 1.74988 -5.41352
1116 1 -15.443 1.28188 6.88577 3.29472 0.322655 0.0318893
1117 1 -5.64923 13.7869 8.49935 3.15819 -1.13752 1.20452
2232 1 -23.2625 22.8037 -16.589 -2.8499 -1.83144 -4.24437
1124 1 -1.90793 13.6521 -16.8599 -0.0236085 -3.13824 -1.46548
1125 1 -23.1425 7.68305 4.86463 4.0994 0.61535 2.05351
1127 1 14.9697 19.724 -7.07788 2.45163 -1.37561 0.12043
1128 1 -0.203219 13.2962 -0.744403 -5.31526 -4.02531 2.7803
1130 1 -1.87149 14.6634 -14.3478 2.67624 -1.97076 0.166434
1133 1 10.9849 12.1657 18.2123 3.07871 0.462848 -1.15094
1137 1 5.24701 4.55021 1.54424 2.31609 6.11118 0.649138
1139 1 -6.17016 10.6131 4.77279 1.02999 1.33536 -0.0664214
1141 1 -19.1237 9.36847 11.0857 5.0631 1.0167 2.52098
1142 1 8.66399 14.0002 7.21461 -0.33809 -1.064 -2.783
1144 1 16.017 3.05688 -12.7689 -2.41118 -1.06509 -1.63117
1145 1 3.51964 20.3324 22.7431 -5.68648 3.3595 0.466155
1146 1 10.6588 16.4374 19.8416 -3.15478 -2.35271 -0.90399
1147 1 -6.93439 10.7199 1.78264 1.79451 -0.655307 -5.21519
1148 1 -12.1774 8.59243 12.0905 5.64699 -0.904995 4.38771
1150 1 -12.6377 15.0454 9.00653 -2.93538 -0.768239 2.44802
1152 1 -13.2832 14.6853 18.943 2.92237 -2.34944 -1.76458
1154 1 2.23395 11.3889 -21.5142 -1.02188 0.47409 -1.24937
1157 1 4.81966 2.21394 -9.59817 5.65826 1.37278 2.47278
1158 1 -17.4851 0.262302 18.223 -2.53994 0.00939442 4.979
1160 1 -8.11574 4.53817 -10.3159 3.3195 -1.5962 -0.210615
1162 1 9.3519 9.7096 3.54574 1.10941 4.94452 -0.58234
1165 1 18.5211 22.5375 -1.30512 4.87987 1.74783 0.147523
3279 1 7.10964 -0.264202 17.2006 0.346858 -2.85635 -9.85822
1167 1 -0.747502 14.4364 18.6034 -1.62551 -0.793684 2.64707
1170 1 2.15181 13.4965 11.5061 -1.05678 0.117984 -1.12015
1175 1 -10.0576 12.9583 21.7695 -2.92983 1.15302 2.34125
1177 1 10.8998 0.322049 -19.7465 4.15936 5.4933 0.0771414
1178 1 -4.31419 7.32787 7.42336 -3.34062 2.6581 -1.40356
1181 1 9.53483 17.8778 -9.1622 2.05887 2.22717 4.29264
1182 1 17.6855 7.25553 1.11297 -0.909891 -2.85039 -1.52111
1184 1 7.47972 20.1507 22.648 0.722158 -1.26468 8.49627
1185 1 15.41 7.93112 -24.24 2.46764 1.43356 2.18405
1187 1 -13.5417 17.7158 -7.60187 -6.49089 0.266898 -5.59814
1188 1 2.15172 3.15747 0.0489823 -8.47419 1.92559 -2.1149
1189 1 13.7656 12.806 3.60952 1.28783 -1.61084 -1.02412
1192 1 -13.8977 0.37153 -9.30032 2.29847 1.87324 1.10867
1194 1 7.99437 16.2223 -6.41251 -3.69776 -1.77223 3.61404
1196 1 5.43047 15.5758 -13.4308 0.863825 -1.99261 -1.25544
1197 1 -19.0465 17.271 21.0823 -4.50865 2.27991 -2.1837
1199 1 -11.9705 5.68534 -12.477 0.281266 -1.50669 1.97623
1204 1 -2.09611 21.6684 2.19924 -3.24881 -2.32038 2.46897
1210 1 -2.49797 18.8444 -5.32537 -0.649646 2.84247 -1.62928
1212 1 20.5775 5.09014 -11.9785 4.18086 1.35191 1.54996
1214 1 10.2424 0.48604 -1.8344 -0.722626 -4.26517 -1.23615
1215 1 4.63876 10.0358 -8.66638 2.37448 0.95834 -3.95056
1219 1 14.4653 11.3046 10.7028 -2.04057 -1.48523 0.679381
3795 1 14.8797 23.2287 20.9584 4.62759 1.36595 -0.541387
1221 1 2.85448 20.9154 -21.6361 0.655153 -1.17503 0.139868
1222 1 20.1277 19.7717 11.8303 -2.92078 2.05809 -1.20348
1223 1 -23.3814 10.4409 11.818 -1.25986 -1.5749 -0.965098
1226 1 -21.4954 12.9746 1.15449 3.48808 0.414727 0.986743
1232 1 -18.6166 16.2707 -22.7759 -1.85988 -4.66987 -1.0506
1233 1 -2.7478 1.14071 -22.297 0.64356 2.51017 -1.97442
1234 1 15.2318 12.707 6.29033 1.71737 3.56438 -0.255406
1235 1 12.1136 17.9941 1.95525 -1.86387 4.04521 3.78496
1237 1 -18.3075 20.5132 14.864 0.456242 -5.58972 2.94687
1241 1 13.8523 12.6304 -19.4045 -0.799187 -3.58874 -1.83249
1243 1 9.26184 16.4583 -22.1648 -0.563604 2.5243 0.433573
1244 1 -17.3607 2.07036 8.78383 -5.65526 -0.257222 2.08181
1245 1 -19.171 11.3856 -22.5031 -9.07079 0.417283 -1.78668
1247 1 -4.19287 0.976261 -10.9338 0.249308 1.76123 -0.846886
1248 1 7.75267 5.28246 20.7515 3.09504 -0.42272 2.43391
1249 1 7.17525 14.3552 -21.2743 3.41529 -0.23546 0.539766
1250 1 7.13708 2.52322 22.9451 -0.588561 1.60898 3.12151
1251 1 22.1156 0.161979 22.1447 2.84687 3.04682 -1.47443
275 1 13.363 22.9125 -21.1403 -2.81309 2.21035 0.124716
1258 1 -16.1982 8.44159 21.0081 0.124312 -2.49631 0.930793
1265 1 -8.01725 13.0424 -9.74963 -3.24976 2.33051 0.229771
1270 1 -23.6863 15.7683 11.9452 -2.76741 1.89315 0.115808
1271 1 -0.896839 4.50028 17.4045 -0.944807 -4.46415 2.88683
1272 1 -21.5166 9.48585 15.1997 -4.68419 0.397278 -1.21014
1273 1 20.0488 5.8729 21.4295 2.66169 1.74739 -2.22266
1274 1 22.4416 19.6052 -22.0644 -2.59632 -0.316566 0.40083
1275 1 2.83083 3.97814 8.62027 -0.202537 -1.02439 1.08407
1279 1 -18.9756 15.9472 -12.6661 -0.519836 0.507107 -2.74627
1285 1 -11.5671 21.3733 15.7601 2.46853 -4.63601 0.159894
1286 1 -5.45155 5.18032 -16.6246 0.354681 2.58526 -0.527803
1290 1 0.808205 6.97865 6.74587 2.48324 2.24492 -0.804133
1291 1 -19.1094 14.8355 1.56991 -3.48598 0.0870936 -0.831954
1292 1 -4.94451 19.4666 -3.79318 -3.28071 3.33549 0.625808
1295 1 12.6117 6.36127 -1.89466 -3.46634 1.93574 -1.94151
1297 1 15.7318 12.9473 16.3643 5.19668 9.44304 -4.10222
1301 1 11.0508 15.2935 -9.95057 -2.09492 0.408597 -0.22714
1304 1 2.25628 0.728289 -5.01395 -0.0970471 0.741495 4.24277
1305 1 -3.93141 3.36564 9.57718 -3.78467 -0.3742 -2.42633
1311 1 -2.90935 18.9038 -13.8189 3.50377 0.0430053 -0.55464
1313 1 17.6951 18.3449 22.2896 -3.08148 -3.01725 2.57303
1314 1 -15.8354 11.0645 -18.4708 -0.808021 -0.937376 2.83224
1317 1 -10.6568 10.0464 -12.1195 3.44645 3.8073 0.745473
1318 1 -24.6479 19.5887 -0.651884 0.204046 0.928165 2.41593
3910 1 -6.78491 18.2117 -6.71304 1.96315 -0.548106 2.47577
1325 1 -4.32867 15.0324 6.32823 -0.428389 -1.49136 -0.732199
1327 1 -8.0328 22.046 -21.9324 -0.0721407 -2.10009 -3.76479
1328 1 10.8357 12.184 6.62486 -0.826854 -5.28501 1.46643
1330 1 -8.75195 16.0277 -6.74189 -1.23506 2.51003 0.901201
1331 1 -19.2019 3.66246 -3.11125 -4.07388 1.5913 3.93004
1333 1 1.3952 9.89342 6.51767 -1.04194 0.0438867 -0.433138
1336 1 3.53467 19.999 -7.66443 -3.81677 0.289702 -1.13463
1338 1 1.28424 5.65672 -1.26874 3.979 2.36874 -0.809517
1340 1 -19.3918 16.2971 9.85921 3.90758 -0.618983 -2.17768
1341 1 3.83753 9.39213 13.7977 -2.21809 0.397031 0.566311
1345 1 -23.5782 2.44851 -19.9326 2.35257 0.51705 -0.273878
1348 1 5.44655 12.041 -16.2183 -0.0245402 -2.72266 -2.2316
1350 1 -15.681 0.610105 -3.11571 0.473748 -2.01225 1.48921
3974 1 6.50776 23.1256 14.2886 -3.53109 0.217413 -0.702383
1353 1 6.11793 22.436 -0.62828 -5.62815 -2.60069 -2.2645
3345 1 14.7184 22.2338 -23.5604 -0.263991 -1.30446 3.94152
1463 1 6.73194 -0.320591 14.052 -3.10622 -1.80534 -1.06613
1362 1 20.3771 19.09 6.80953 -1.27979 -0.340692 0.829879
1368 1 -17.8384 17.08 0.184172 -0.97716 3.42297 -1.76285
1369 1 23.0963 3.14594 -5.11377 -0.194196 -1.28567 1.84748
1371 1 -20.0201 9.53912 -3.75986 1.20772 -1.59203 -4.03165
1372 1 -10.8721 12.2569 4.21269 0.443333 4.95602 2.3561
3163 1 22.3296 -0.150894 14.7228 0.357298 2.80136 -2.10935
1376 1 5.56044 10.6505 -6.02753 4.39926 0.735837 -1.71642
1377 1 -12.2328 21.5592 23.6712 2.3907 0.545875 0.466976
1380 1 16.7031 21.1698 -9.86452 -0.745496 0.532936 3.24622
1381 1 18.1925 16.3704 10.4453 1.26084 3.38125 2.1404
1384 1 3.58549 20.0381 -12.1654 -4.48328 1.23052 -1.89421
3602 1 1.90323 22.8558 22.4676 -0.214789 0.83731 2.36038
1386 1 -13.1079 8.57343 1.18472 0.40898 -1.45514 -1.85982
67 1 -14.6417 22.7471 -11.12 -1.73651 -4.23548 -2.96777
1391 1 -11.3881 20.0891 21.4038 0.414025 -7.19998 0.71222
1392 1 22.252 3.72824 2.99722 2.88941 3.76826 2.53818
1394 1 3.66951 6.50642 0.0670172 -1.49076 -1.39681 1.93476
1395 1 0.256066 9.69913 -8.1717 -3.78997 0.3112 -5.16977
3999 1 -6.92091 16.9949 12.0619 -1.24426 -0.166684 -1.85831
1398 1 3.40655 21.4321 -5.10361 0.579345 2.01486 0.180238
1400 1 -11.3577 15.179 -23.2127 -1.11619 6.20404 -0.756144
1405 1 20.6455 20.7952 -24.269 -4.45907 -1.90567 4.44405
1406 1 -7.87968 0.991274 -13.4144 -1.65912 2.2544 -3.31886
1407 1 -22.9996 7.68815 -2.61169 -0.964553 -1.1365 -0.26847
1409 1 -0.788789 4.96595 22.2458 -1.9352 -0.863369 -1.44742
1411 1 19.9009 2.08427 -24.2333 -1.67849 2.30893 4.20439
1412 1 -18.9966 10.4728 -10.2756 7.76052 -7.09379 -1.71603
1413 1 -15.0906 3.20469 -20.2538 1.30071 2.14456 3.82206
2327 1 13.0894 -0.693423 -17.8988 -6.50174 -1.93607 1.75888
1417 1 10.5271 5.6979 13.9818 -2.52989 -3.39548 -2.59134
3693 1 4.88809 23.118 -3.07943 3.31487 -2.28104 2.40649
1420 1 -10.6029 19.3247 -21.5642 3.17787 -5.2562 -1.26236
1423 1 8.16044 21.8643 -19.7458 -1.89243 -3.94702 0.197431
1424 1 21.9343 11.0199 -8.67217 1.31237 3.31823 -6.67123
1425 1 -0.773827 4.89051 -11.7054 4.71073 -0.277651 1.65901
1430 1 0.396887 15.5179 5.99898 -1.24622 0.232472 1.83062
1431 1 -8.44849 1.72277 -10.8369 0.819589 1.15743 -0.698462
1432 1 -10.8906 8.81243 22.6864 -0.905729 6.30371 -2.37173
1434 1 -23.144 6.01058 21.6954 -1.58372 -3.8049 -1.34008
1435 1 19.018 21.3608 -4.8401 2.28562 -1.66299 -0.831071
1437 1 4.5215 15.3892 -21.1607 -2.40348 -3.03493 -1.80673
487 1 3.15925 23.2534 18.0473 0.286112 0.103011 2.09492
1439 1 -17.5707 9.24785 -12.581 2.55457 4.23737 3.27263
1440 1 -22.2006 13.3369 -2.9532 0.812896 -2.60531 1.50796
1444 1 12.9989 19.7689 -24.172 3.22232 2.74946 2.85641
1448 1 -15.6333 2.86367 4.67742 -1.7573 0.73397 -3.12687
1451 1 11.7154 20.3656 -9.56973 -3.16778 0.847972 -2.89365
1456 1 -16.4306 15.1075 11.0869 5.0871 -3.32846 4.53136
1457 1 -19.538 1.22379 -20.6924 2.13274 1.47823 -4.01488
1458 1 -20.51 12.4236 7.05435 -0.859438 2.22653 -2.62916
1460 1 -13.1066 8.41566 -12.7768 1.32791 2.36191 1.95218
1461 1 -12.9311 15.3677 23.286 -0.333669 4.06504 -2.97946
1821 1 20.0652 22.5269 11.0703 -1.67088 0.382537 -4.06695
1465 1 -21.9746 22.4266 -13.8074 -1.21506 -4.01288 -0.612315
1469 1 19.268 11.913 6.16229 0.535349 0.970362 -0.667793
1472 1 21.495 4.72916 15.2758 3.11756 1.36671 -0.851881
1474 1 1.07171 21.1141 -23.6321 -1.90967 -1.82608 -0.385697
1476 1 -20.1947 14.3858 -20.9103 -1.05645 0.214677 -5.5534
1477 1 19.3111 -0.234569 -0.967755 -7.07442 -1.89409 1.96507
1478 1 -0.0642377 3.25783 3.63469 -2.24053 2.99856 -0.729682
1480 1 1.54778 14.0171 -4.60225 -0.0970329 -3.73983 4.19407
1481 1 -6.64957 16.0284 -2.4104 3.70787 1.8775 -6.38903
1482 1 4.99448 22.7954 -22.8138 1.24467 0.883791 -2.28018
1484 1 -6.45242 9.44777 7.59693 2.28778 1.12093 -2.08285
1487 1 -2.84918 4.00165 -17.3063 -3.55807 -1.71516 1.28107
1489 1 -23.8184 15.2475 -1.07663 -6.24337 2.35476 -1.79028
1490 1 -22.652 4.77809 -2.65237 -0.976139 2.3591 -4.60349
1491 1 12.1788 7.50245 -5.80935 -0.0958728 3.14151 -1.54935
1492 1 -11.5879 12.2948 9.53107 2.28096 2.67398 1.54076
1494 1 -8.4893 6.58507 -19.489 0.414365 -2.11363 0.0522221
1496 1 -3.53769 9.44459 -9.2317 -0.518647 -2.50037 1.25277
1498 1 -13.2918 5.05275 12.8153 -0.103414 -1.75072 -1.85441
1499 1 17.5176 2.99769 22.9742 -1.99644 5.59351 2.63989
1500 1 -19.1156 18.221 13.4889 2.98893 -2.47666 -1.05344
1501 1 9.34276 17.2355 -15.7766 -7.26071 1.21353 -1.97
1506 1 14.6363 13.0434 -2.23391 1.56039 -7.41434 -5.57178
1507 1 -19.8225 20.0169 -7.20116 2.83351 -1.99901 -1.98834
1509 1 12.1441 20.4704 -6.76808 1.8092 2.70123 -1.35837
1513 1 -21.0428 0.58956 16.9592 4.5105 -1.92182 -4.05211
569 1 -6.90334 23.2837 -16.4066 -0.156236 0.326868 -4.0586
1518 1 -1.43747 11.48 -23.7366 -5.90779 -0.306321 -2.90612
1520 1 10.419 3.94633 -14.8161 0.634528 4.37753 3.93489
1523 1 -6.72178 5.94865 13.8242 -1.78885 -3.13463 -0.940346
3407 1 11.9015 -0.604563 -14.5009 -2.40535 2.4381 1.37487
1527 1 2.10262 0.961401 -8.94181 -0.600155 2.85787 -2.3909
1528 1 11.5691 13.8534 15.8273 -0.517111 5.90264 2.79395
1529 1 -7.20224 1.29249 12.0831 0.168848 0.372093 0.217351
1530 1 16.569 16.2338 4.55087 0.0039418 -1.42736 -0.710616
1533 1 12.2387 21.3886 12.3352 1.09888 -1.96733 3.55445
1536 1 -7.40411 -0.0258275 -24.0931 -0.489512 -1.31089 2.15965
1538 1 6.08748 17.5701 18.1798 1.62253 8.11089 0.168821
1539 1 1.06357 6.52334 -16.2849 0.397405 -1.64091 -0.833324
1540 1 -21.2812 5.14624 -24.0627 -3.69877 6.72803 2.08133
1544 1 -3.96491 21.2997 -18.3888 7.78652 -1.83673 -1.3243
3948 1 10.8854 16.555 -18.1784 6.07272 4.08622 2.30509
1552 1 19.3463 9.67042 -19.8066 -4.72081 0.422924 -0.561532
1553 1 -9.61209 20.373 -15.1474 1.73477 2.32745 -5.37523
1559 1 21.4098 17.0053 2.53988 -6.3542 -1.4598 1.98894
1561 1 21.659 18.0836 -6.53383 0.912141 -2.58634 2.05184
1564 1 10.2399 14.1501 -7.28977 -1.3065 -1.3664 -1.19993
1565 1 -6.38628 15.1787 -11.3346 2.52406 8.065 1.96048
1568 1 18.6875 20.7988 -12.2597 -0.755216 -1.55794 -3.32522
1569 1 7.98612 13.8788 4.37647 0.945023 2.45619 -0.783782
1570 1 -21.101 1.86649 -13.1279 1.16052 0.550714 1.28954
1575 1 -17.479 15.2752 4.09736 -2.86483 -1.37333 -0.580616
1576 1 13.4425 20.1161 -20.2845 -1.38895 -1.60198 3.2339
1578 1 17.0723 0.82044 -11.2423 2.60506 3.59948 -0.352714
1579 1 -5.13641 13.7886 -6.2067 0.785801 1.59182 4.18612
1582 1 -13.6313 6.02647 -1.89919 -5.05624 -4.30133 6.19157
1588 1 4.43746 18.1322 -21.9477 1.54757 4.6464 0.548322
1590 1 20.7599 7.81668 -16.141 -1.44599 2.18057 1.17127
1591 1 14.1288 12.6442 0.576214 3.52469 2.37773 3.53654
1592 1 18.3405 7.5387 16.0888 -1.78084 4.33373 -1.18713
1414 1 6.62783 23.1041 4.9675 -1.4807 2.09092 -1.29811
1594 1 10.1526 5.50643 -2.75746 2.09704 2.93342 -1.22189
1595 1 5.85566 16.2412 -4.37096 3.4168 -0.375016 1.77999
1598 1 3.91754 12.277 2.60655 -1.59445 -4.19068 0.269453
1601 1 7.59673 15.1354 -17.738 -6.16999 5.23284 -2.60819
1606 1 -20.9798 18.543 5.94839 -0.230009 -1.5108 0.51703
1608 1 22.8095 3.9291 8.87879 -3.13032 3.68219 2.4977
1609 1 -23.2173 18.7435 -19.6282 3.87507 4.51049 0.850861
1610 1 -12.5535 20.0636 -14.0726 -0.896468 -3.04924 1.63203
1611 1 4.93506 11.3968 -2.22442 1.55708 -1.88608 4.19466
1618 1 11.0482 16.3933 14.7716 -1.63107 -0.888938 -0.383482
1619 1 14.8532 13.6005 19.0583 -2.92579 -0.238412 1.6498
1621 1 -19.9948 3.68985 11.9864 -0.835784 5.79298 3.20403
1622 1 -15.6229 21.0216 14.9408 -4.15088 3.04312 2.88892
1624 1 6.44058 20.4252 -21.4308 0.0464449 1.55334 4.88798
1625 1 12.9037 14.0796 -11.8084 -0.260053 2.25838 1.85479
1626 1 15.3739 0.67738 17.9005 -1.73114 -4.96161 4.21846
1628 1 17.748 3.35365 1.63281 -5.14469 0.969744 -2.52715
1632 1 -4.9763 8.63284 -22.92 0.667325 -1.49733 -2.99738
1633 1 18.9231 18.4607 -23.5408 1.29924 -2.55447 -2.69001
1637 1 -0.848137 20.2259 -3.06704 0.963656 0.0126616 1.12611
1639 1 13.1844 11.4151 19.8119 -2.64261 3.43786 0.225053
1438 1 -0.515193 -0.616094 -14.5659 1.25252 -0.485158 2.7167
3932 1 22.6215 5.48183 12.6877 0.426772 -4.87216 -1.13495
1647 1 17.4052 11.3542 -18.7504 3.81005 2.27814 -2.50957
1652 1 13.168 4.38935 -18.8353 2.72246 4.24054 0.807907
1655 1 -1.21729 13.2253 13.6605 2.04065 0.427042 -0.669007
1656 1 -4.4372 12.894 17.8559 -1.4865 -3.65676 5.92411
1657 1 17.9199 7.99757 -12.7216 0.829475 0.0332356 0.0629501
1658 1 -18.2162 19.4011 6.93467 2.97917 5.1169 -2.88791
1661 1 23.8602 0.444871 16.9556 0.101116 -3.69902 -1.42209
1665 1 -4.73755 6.09941 18.5121 -1.86655 1.19113 -2.40222
1668 1 -9.78795 18.3118 8.11583 0.38325 1.58834 4.92325
1670 1 3.59291 15.6614 -0.752308 -4.51175 -2.59398 -1.83375
1671 1 -13.5782 7.6565 21.5853 -1.29617 -1.31242 -4.22087
1672 1 4.28222 10.7826 22.9303 5.80105 1.72584 -0.870273
1675 1 1.81122 8.50644 15.9366 2.48143 -3.14091 2.91657
1676 1 -19.7264 1.41089 -4.85692 2.91915 -1.1578 -3.84085
1678 1 4.40723 20.9072 -17.9978 -3.87996 4.5431 1.82105
1679 1 -9.42057 21.7771 20.3843 4.67342 -1.31852 4.366
1682 1 7.17138 10.1057 1.87588 -3.57116 6.28568 -0.342123
1684 1 6.01957 15.4043 16.1639 -2.73878 2.47931 -6.04446
1685 1 -21.1281 15.6199 22.7223 -3.67388 -5.29471 0.496089
1692 1 -0.798508 20.147 -7.20568 0.133416 -1.73811 1.49166
1693 1 23.5032 8.08475 22.3055 2.92561 1.35868 -0.868747
1694 1 -14.5922 3.06952 -13.8877 3.52504 5.13723 2.02445
1698 1 -8.41464 12.0908 -0.554108 0.418896 1.72725 4.25043
1699 1 13.5216 2.04097 14.8794 -3.35984 6.82768 0.671875
1703 1 2.7229 4.01116 -13.5172 0.0249528 3.49413 -2.72936
1706 1 7.59789 10.0355 -19.3386 2.1045 -3.29146 -3.26076
1708 1 -6.37267 22.338 13.7077 -0.664621 -1.41755 -3.57057
1709 1 18.664 18.1975 -2.68325 -4.15614 3.02849 -2.00619
1711 1 -3.42947 4.81625 1.68004 0.765155 1.30658 7.23126
1712 1 12.2232 14.1615 -21.1647 3.15432 1.40361 -4.55061
1713 1 22.4833 16.8516 12.2581 0.158433 3.33176 1.95523
1719 1 21.5273 7.39854 1.1271 1.62163 -3.79389 2.01947
1721 1 5.2465 1.14003 10.776 -1.06572 0.352922 3.22481
1723 1 -24.3111 16.8986 2.41712 -2.25327 1.47242 -1.70778
1725 1 -14.4331 6.09377 -16.7857 0.938784 -4.87406 -2.05256
1726 1 18.4787 20.9244 22.6432 0.242137 -5.8121 -0.895682
1729 1 -13.9384 7.58331 14.2596 -1.84636 -2.94161 0.955243
1731 1 21.209 5.30166 -4.51958 2.91945 3.32405 0.677623
1735 1 1.45746 19.8504 -17.499 -0.0182602 0.842654 -1.66767
1736 1 17.3372 4.0656 11.389 0.481212 1.87218 -3.13981
1737 1 -18.0798 1.18373 -7.19185 0.719077 -3.5713 -2.31707
1738 1 4.37743 9.82591 -23.1423 2.32709 2.88913 0.371556
1740 1 2.98019 20.1963 17.2782 2.12385 2.36169 -0.371643
1741 1 11.4202 12.2912 22.9997 0.657588 1.48185 2.45987
1744 1 15.4494 22.7596 -7.72808 -0.188718 1.3498 0.693123
1745 1 6.40694 13.4186 -5.59595 -2.14893 1.87474 5.46235
1748 1 16.9068 0.265806 -3.92956 -4.41608 -1.1197 -7.02949
1749 1 22.1987 10.6328 14.9193 -4.32135 3.29207 3.30399
1750 1 16.0217 21.6213 11.9592 -3.58375 5.59755 -1.63739
1752 1 23.3633 17.2446 -20.7737 3.75478 3.25082 -4.179
1754 1 -23.6702 10.0194 -22.78 -0.872435 2.97761 1.92945
3992 1 23.1893 8.57568 -2.20101 -0.196532 0.826755 -0.441349
1756 1 -16.1715 4.5911 7.89209 -0.916402 -0.860228 -1.57379
1759 1 22.5978 10.4902 10.6987 1.08923 4.24519 5.94458
1762 1 3.53541 19.8528 4.08807 -1.05648 2.00532 1.09841
1763 1 -2.18288 3.28355 12.9522 -2.61686 -1.11481 2.30756
1764 1 -14.5813 18.1774 -13.6222 -0.570468 2.99776 0.136725
1766 1 -18.5489 1.14636 15.5499 6.36102 0.832893 1.06117
1769 1 -22.7119 16.8057 15.69 -0.0665962 2.72583 5.86494
1771 1 0.193032 22.4391 9.81017 -3.8173 2.61997 -5.28841
1773 1 18.8933 14.6015 7.23683 -0.918215 -3.29762 -2.57436
1775 1 8.62736 13.4955 -9.9384 0.332017 -1.77075 -5.78254
1776 1 10.5096 13.6952 -1.86696 0.114681 5.23361 -2.61871
1779 1 6.12289 3.41496 -7.06446 -0.626595 6.35993 3.84218
1780 1 5.45626 6.02389 -5.89707 -1.83302 0.42382 1.27775
1781 1 7.97345 18.998 -23.3588 0.954625 4.68815 2.11259
1783 1 17.3621 6.9746 -6.10477 -5.83707 -4.02411 0.562739
1784 1 -9.16412 14.5169 13.7493 0.145787 -2.83296 3.12536
1785 1 -7.30025 6.73216 -8.74653 0.671441 -0.252676 -5.17283
1786 1 -4.12065 0.394903 -6.67538 3.60882 1.74153 -0.452135
1787 1 7.42 18.905 -12.0364 -1.03721 -7.20435 -1.7845
1790 1 8.13127 2.69245 -13.1465 0.679447 0.881116 1.24827
1792 1 -15.136 6.71145 5.9205 -3.36505 -4.11997 -0.504002
1793 1 19.167 5.94896 -23.3168 -3.29368 -1.70335 1.09924
1794 1 17.9735 2.78888 -20.2456 3.94912 1.49917 -2.14668
1797 1 3.18948 16.4792 15.4809 1.86657 1.67034 -2.76542
1799 1 -11.6183 10.1411 -14.8874 4.20233 -5.57113 -2.11593
1800 1 -0.542227 1.50647 11.3392 -2.32648 2.4205 -0.239434
1803 1 -15.1158 15.251 -8.99478 1.50828 2.46697 -1.02833
1805 1 10.2475 4.61077 -6.51732 -4.00568 2.54698 -5.99056
1809 1 10.5399 20.1934 0.276006 -3.25548 -2.0096 -0.272128
1811 1 0.337292 4.1288 19.9151 2.4272 -4.16209 4.01677
1813 1 -16.3112 7.75205 18.384 0.0342644 4.39513 -1.37997
1814 1 11.1421 3.86074 -11.5575 -0.669489 0.809759 5.14601
1816 1 1.71349 16.2085 -10.8856 1.10152 0.0952608 3.07394
1817 1 -0.790244 17.8965 -17.7555 -0.0033931 -1.57774 -0.149717
1820 1 15.1136 11.8661 -12.2538 -0.526371 2.00604 2.21047
3539 1 15.0025 22.585 -12.0637 1.74434 0.896049 -1.20996
1826 1 19.448 9.03711 2.52537 2.55555 1.50317 0.0969558
1829 1 4.80552 18.5003 6.23713 -6.29553 3.37557 2.47908
1830 1 -16.2893 2.41871 -17.4519 -2.15306 3.70159 -0.906779
1833 1 -10.7041 2.43203 18.1753 -1.24792 -6.38667 0.27803
734 1 -18.3465 22.6372 19.7256 -0.646789 -1.94915 -2.80787
1838 1 19.343 20.8984 0.962108 1.67099 -0.242257 3.29375
1839 1 20.0512 22.4041 4.55675 -1.62679 -0.0251307 2.20522
1845 1 21.4493 16.822 -22.8552 0.752665 2.23256 -0.513467
1848 1 6.9186 7.09622 -15.9709 0.998977 0.744819 -2.81022
1851 1 -6.80253 3.5943 -0.646079 -2.22283 -0.124352 0.0387356
1852 1 0.857919 0.275826 -19.9336 2.55558 1.07103 -2.62077
1855 1 1.34438 21.8152 -15.4913 -0.155647 1.70562 -0.451792
2866 1 -18.2799 22.8152 -7.22366 4.20482 2.55475 -4.83812
1864 1 -6.41068 11.1355 19.2044 -2.20121 -2.4059 1.39991
1866 1 8.09516 21.2251 12.7297 2.46146 -1.89537 2.51965
1868 1 -7.79733 2.99505 17.9399 -4.30616 -0.694848 -1.34478
1385 1 -16.1212 23.2407 12.9999 -2.7062 3.17324 -1.38609
1870 1 -18.3272 9.28641 14.1316 2.39073 -1.28244 2.50925
1873 1 -9.95553 15.6245 8.77243 1.50437 0.699187 1.26707
1876 1 -22.2955 9.24793 -20.3604 -2.16496 2.4618 -5.3375
1878 1 22.6503 22.3092 -1.10622 3.0947 -1.44116 -3.74189
693 1 -8.46791 23.2658 3.01098 3.20339 6.25663 1.28147
1881 1 10.3318 4.46616 19.3653 -1.16982 -0.0273615 0.0044809
1882 1 -9.20653 7.49793 18.4307 0.0870779 -4.02867 2.74985
1884 1 16.8765 14.3567 9.151 0.625862 0.901405 -1.58085
1885 1 -6.81261 18.1367 22.4059 -2.25387 -3.00071 -3.70773
1886 1 18.9006 21.6946 6.99581 3.10511 -0.509504 -1.05951
1889 1 -12.4859 2.12239 9.75717 -0.248794 -2.8338 -1.24341
1890 1 -23.4192 7.36511 -24.2108 -0.462272 -0.783876 0.0316123
1893 1 4.63189 0.349162 21.5486 -0.194839 -0.182904 4.1656
1896 1 15.7357 21.4814 -1.45216 -0.603341 -0.283162 -0.884389
1898 1 -21.9544 17.7044 13.1788 -6.16976 -3.03052 4.78858
1899 1 -6.19841 20.9794 -6.10135 3.90749 -1.40553 4.16968
1900 1 -11.8909 1.13968 4.52582 1.84454 -2.58025 2.05113
3486 1 17.9133 22.3432 18.1888 -3.50587 -1.64747 -2.49573
1905 1 -13.9154 8.91388 -6.69352 3.78463 2.04545 2.95502
1912 1 -15.3851 4.49513 0.0781453 1.86094 3.90661 -1.68342
1913 1 -0.518111 19.3955 -0.318389 -1.66138 0.624589 -2.90259
1914 1 19.7802 6.38698 5.27128 0.459073 -1.74601 -0.800547
1916 1 -4.92026 16.2719 3.79646 1.75474 0.327718 3.70522
2493 1 20.2279 21.8103 -21.6821 0.36764 3.22914 5.4862
1919 1 -21.7276 10.3935 -15.2484 0.769207 -0.858926 0.772738
1921 1 18.6158 12.9051 -6.03273 -4.67478 3.33128 -1.54145
1922 1 9.43796 13.8508 19.7146 0.987721 0.619644 -2.88389
1923 1 12.298 1.04377 -11.8282 -0.644639 -3.23975 2.49914
1929 1 7.54304 19.2818 1.00654 -1.46542 3.23034 -1.16241
1931 1 -9.27498 6.88273 -1.48873 -0.556264 -0.945016 -5.72633
1932 1 -0.596911 18.8674 7.24186 0.0786616 2.5393 1.31861
1933 1 -2.01904 19.7833 -19.8763 -0.138437 1.95347 -0.270271
1937 1 2.8206 2.73585 19.5667 2.64509 -9.6612 -5.75185
1938 1 1.87842 5.56372 16.9488 2.46666 7.07175 1.97505
1939 1 11.2401 11.4807 2.33311 -0.908298 -2.08387 0.328905
1942 1 -2.31277 8.24231 -2.72195 0.722185 -1.24442 -1.83864
1943 1 4.10898 17.1189 -6.7197 -1.18115 3.34957 -4.4441
1946 1 8.26885 9.42943 -6.27408 -3.12796 -1.16638 2.95025
1947 1 -17.8571 12.3475 -15.1246 1.0881 -1.34703 1.22958
1948 1 12.2243 1.82837 -16.1728 -1.72609 3.61585 2.77471
1950 1 23.1968 21.3043 -6.75539 -2.36508 1.42804 3.43944
1954 1 5.22154 6.43657 10.2161 -1.79704 -2.50946 -3.12614
1956 1 -6.20938 0.603474 5.97764 -0.983988 -3.81567 -2.57405
1957 1 14.4854 14.7964 8.17512 4.55903 1.70934 0.920346
1958 1 13.621 6.02354 17.214 0.898781 1.21562 3.62426
1963 1 -1.07047 17.5949 1.89138 -3.25579 -3.4029 5.56854
1968 1 -22.4334 13.0191 11.9928 -0.166 2.2173 2.39038
1979 1 -0.187 21.0157 12.4487 0.819712 2.09171 0.487615
1980 1 -22.2315 5.19938 -19.902 -0.926278 -3.66583 3.79132
1984 1 3.17181 19.4511 20.0078 -1.09666 -4.72824 -4.65659
1987 1 -21.2554 2.80417 9.63064 -6.29616 -2.5298 0.347103
1988 1 6.76588 18.5638 8.76064 5.2475 2.07836 -3.38549
1992 1 12.2104 19.944 3.99687 -1.2472 -0.738045 -0.0594298
1993 1 4.77113 12.3273 -13.3235 0.451622 -1.47754 -3.16438
1995 1 1.80172 2.29614 13.161 -1.31356 -0.103951 -3.30666
1996 1 -10.6568 6.74379 -24.0427 3.08096 -1.94165 -2.95139
1997 1 21.2318 21.1601 8.74107 -3.77067 -4.4588 0.492747
1998 1 -12.1118 11.0008 -0.36547 -0.282653 -0.781428 0.288354
2000 1 3.91457 2.21527 -20.3683 2.73732 0.0468345 0.659405
2002 1 -22.1811 21.2026 -8.64051 -1.56834 0.180492 0.635478
2007 1 -9.76343 14.5498 -11.468 1.94245 -2.20447 -4.21729
2009 1 -4.60487 1.50975 -0.143133 3.3459 2.76996 -3.4535
2010 1 -7.67813 2.35077 23.3492 -1.16963 2.50206 -0.391581
2011 1 -1.50242 10.146 18.5524 2.83478 -0.970165 -5.29447
1746 1 17.4979 23.2295 -13.1173 -1.19218 1.44651 -3.37996
2017 1 13.1422 8.89933 22.833 -2.31765 -0.635568 1.59699
2019 1 1.02225 22.6593 19.8713 2.74673 -6.71417 -2.17252
2021 1 -4.60429 12.1817 10.9828 0.027404 -7.40086 1.762
2138 1 17.1625 22.5065 -16.156 -0.855826 2.48996 -2.09981
2024 1 9.61989 9.39762 12.671 -1.80939 0.87644 3.80482
2026 1 8.54661 20.4321 9.77692 1.24212 -2.79853 -3.08265
2027 1 5.72895 16.9259 -10.8027 0.578644 2.73465 -0.986689
2032 1 -9.18255 5.14887 6.88507 -3.56104 -0.286874 4.01318
2033 1 9.98297 15.8672 -0.358795 -2.33781 5.81358 -2.0555
2036 1 -13.0731 7.35265 -22.8891 1.50355 -0.539009 0.993255
2037 1 -16.3463 8.61449 10.9715 -1.22999 2.19282 -2.12458
1643 1 -7.16043 22.6954 -8.08757 -1.92364 -0.456079 0.411624
2043 1 18.5702 11.2651 12.8405 5.12336 0.286895 0.194007
2046 1 -7.23515 14.2452 17.2817 0.36428 0.929013 0.260537
2048 1 3.19692 13.8223 -16.8994 -2.59968 -1.91405 0.936998
2049 1 18.0804 19.6305 -19.0527 -0.546694 -1.22156 -1.98934
2050 1 -10.5271 6.09886 -10.0848 -1.182 -6.46696 -0.778334
2051 1 -22.3581 8.71552 -5.19971 5.72253 -0.090515 2.92869
2052 1 -8.88942 4.37369 -21.2399 -1.91516 2.88379 -6.18383
2053 1 -22.7055 11.5928 -18.9809 -4.76043 -1.67364 2.51401
2054 1 14.8547 4.38347 -1.40587 -2.54192 1.57328 -0.785798
2055 1 4.40783 15.4956 7.01864 3.26878 3.82201 -5.69729
2058 1 21.8994 9.5845 -13.0612 -0.436462 2.52446 -1.24756
2062 1 -17.4017 19.484 -8.88621 1.42196 0.0810085 1.92367
2066 1 18.9432 6.16854 9.75872 3.51645 -0.160173 -0.499921
2067 1 -23.401 9.88265 20.9715 -0.44006 -2.67553 -0.38673
2068 1 -15.3129 8.66498 -4.151 -0.439858 1.54952 -3.71552
2070 1 23.7825 0.278406 -1.33245 5.39444 -2.82486 -3.27354
2072 1 -20.5232 6.53658 20.6576 0.496353 0.941038 0.157907
2073 1 -18.8155 7.31473 -17.2224 0.351927 -1.695 0.186053
2074 1 2.38414 10.6298 -12.4993 -4.92271 -0.287594 -4.18129
2078 1 -13.012 2.00083 -22.0782 -2.97155 6.48681 -3.57357
2081 1 -24.1487 18.6373 -15.8899 2.43753 -0.357112 -2.78466
2082 1 -7.37285 17.9479 2.99295 -0.553262 2.09658 -0.208924
2083 1 19.5979 9.14139 -8.70469 3.73299 -1.32187 -1.91249
2084 1 15.5089 18.3532 20.5081 -3.7777 -0.722893 -5.0575
2087 1 -10.0723 6.38492 -17.1096 -0.722604 1.06192 2.00807
2088 1 9.23484 20.6372 20.6686 -1.94958 1.31815 2.35814
2089 1 9.58433 14.6343 -19.7982 3.13507 -2.08665 1.81325
2090 1 15.933 7.28239 17.8162 -1.26963 1.98323 -1.14416
2091 1 -9.7087 8.12244 13.5698 2.95395 -1.83356 -1.93498
2092 1 -18.1327 21.8373 -22.8442 -2.3838 -0.677935 -2.83055
2093 1 -3.03634 13.1746 -1.7075 -2.89159 -0.47932 -1.09922
2094 1 -24.711 12.4793 -1.92103 -1.74429 -0.831169 -0.439336
2097 1 -4.69806 6.13525 9.78547 2.93044 -1.89173 -0.246146
2102 1 6.41489 7.49494 -8.01584 -1.44418 1.24852 -0.312089
2105 1 13.3704 9.48563 -12.0826 -0.893264 2.37237 2.8824
2107 1 -8.07159 5.21307 -12.9496 -2.23244 -4.53107 0.591496
2108 1 -9.92726 10.9869 1.79795 -4.16987 0.56706 2.56759
2109 1 -4.01829 8.23701 20.2338 -5.43159 -4.81064 -1.94877
2110 1 2.58758 8.68315 1.261 -3.65686 1.23023 5.04141
2112 1 -10.9423 3.6338 11.9783 -4.45747 6.35948 1.80741
2117 1 23.7112 22.2831 5.08338 1.16468 0.0221098 -4.3897
2119 1 -10.425 17.7526 2.49098 3.01692 1.92169 2.32455
2122 1 12.213 8.22592 -9.92896 1.72748 -0.385621 -2.25319
2130 1 -22.2856 9.16953 -8.07654 0.493323 -2.78583 -5.08545
2134 1 12.0373 21.5131 7.99301 -2.8807 4.40194 0.320076
2135 1 17.963 9.03688 23.0182 -0.176517 0.935679 -2.83848
2137 1 17.5375 16.0785 24.2962 -6.47664 0.790973 -5.94985
912 1 -15.7435 21.8851 -8.36136 1.08069 -1.92887 7.35707
2139 1 -8.20833 3.78283 -16.5659 -0.647848 -1.30582 1.58142
2143 1 19.4412 4.31435 -15.8667 3.0891 -1.05779 -0.850799
2145 1 20.4425 10.5121 22.7278 -6.14752 2.74569 3.8658
2146 1 3.12112 9.34908 19.3766 5.87216 5.69893 1.68866
2147 1 3.44741 5.13158 14.5759 0.683366 -1.854 2.2895
2151 1 6.4012 5.08469 -12.1393 -0.742026 5.21049 1.32158
2152 1 9.05945 22.1555 -4.66872 -1.38004 -0.45816 4.98846
2154 1 -9.8272 17.4678 -23.6098 -5.54359 -3.04761 -1.93251
2155 1 14.263 3.55939 20.7344 -2.59539 1.42017 -3.3192
2156 1 -21.3214 17.7303 -8.25033 -3.68607 -2.55717 -1.85775
2157 1 -2.4901 16.833 19.3459 -1.29918 -3.05895 3.39108
2158 1 -17.206 13.1774 14.3157 0.086104 4.97651 -2.46049
873 1 -4.72664 -0.586085 -23.0748 2.31895 1.65754 0.850216
2161 1 -0.322966 9.70463 -5.44634 2.14568 1.89939 -2.27054
2162 1 22.1197 9.81661 -4.55076 -5.84554 -3.01227 10.9085
2164 1 16.3816 2.36462 -8.8052 -3.80734 4.4683 5.197
2165 1 18.2973 18.4654 -13.9538 -4.56281 4.60936 -2.616
2166 1 -15.5705 18.9316 -16.407 0.792886 0.507184 -1.10884
2168 1 -20.9186 17.9153 3.16728 -6.34944 -1.92987 -1.1372
2171 1 -3.75561 2.72931 3.90892 -2.07138 2.04809 -0.578946
2172 1 1.04167 19.5732 -5.21688 -6.61215 -0.738966 2.72457
2173 1 21.5965 -0.240725 -13.8272 -0.222596 0.291502 -4.70201
2174 1 5.07026 8.326 -4.20361 1.50004 0.430777 2.26259
2177 1 18.7026 16.8223 18.0872 1.4344 -2.62254 -4.77962
2182 1 -2.69713 -0.528296 10.9214 -2.18066 -1.05477 -1.88501
2184 1 15.8447 16.0822 -18.7289 -3.65218 -2.87752 4.37401
2185 1 6.18652 7.35355 19.1589 0.105234 2.83332 -4.22539
2188 1 -13.3506 4.7237 8.69279 3.09393 5.13215 -2.19313
2189 1 3.4039 18.3069 -10.0588 1.937 -1.96137 2.34237
2190 1 -1.8917 2.35548 -12.7022 1.92682 -1.14021 -2.899
2191 1 13.0597 9.84324 4.21844 -3.12982 -2.31491 -2.2358
2192 1 -0.453849 2.20197 23.6954 2.70904 -2.73855 2.88922
2194 1 -21.0577 2.38028 23.1339 -4.34301 0.974041 1.34553
2196 1 -3.67612 6.30536 -11.8686 -3.62645 -0.36305 -0.346941
3947 1 -21.1813 10.4962 24.2826 1.73962 -2.20473 2.76091
2198 1 3.17263 11.555 -4.5725 0.528198 2.7954 4.42111
2199 1 -17.5543 10.8348 1.15942 0.656884 0.794357 -3.02629
1220 1 -19.6571 23.2583 15.5753 0.413299 1.4488 -3.80401
3987 1 12.716 15.2347 18.1149 0.669224 1.35331 1.0083
2205 1 -23.2958 8.17727 -16.061 2.77196 2.57587 3.02058
2208 1 17.3144 19.2237 -5.03344 0.3622 -2.55742 10.2762
2211 1 -18.0327 4.06554 -20.4498 -0.400162 2.25414 -2.1418
2213 1 19.2338 8.77672 -5.15812 -4.72507 -1.66093 3.45914
2214 1 11.5894 8.823 20.4125 -1.0062 -5.28694 5.07854
2215 1 9.2142 18.5721 -1.43856 1.58597 3.93823 3.07254
2220 1 1.61124 16.9422 -13.5989 -2.16914 4.34281 1.67004
2221 1 19.0624 4.72446 18.1419 -5.32669 -1.53633 2.34959
2222 1 2.13094 7.22068 3.82184 -1.24959 -4.90786 1.92128
2223 1 -20.0699 13.875 -24.0351 -0.111042 1.5107 -0.787543
2224 1 -15.0094 14.0737 -4.05333 3.91135 1.96155 1.13078
3984 1 -4.83885 14.0788 -19.7594 0.405234 1.14317 0.762527
2227 1 8.0703 3.23258 -5.06525 3.44781 3.0734 2.35652
2229 1 17.0002 4.99249 16.1661 3.59303 -1.21263 -0.414957
2230 1 2.19489 20.2054 -2.63833 -1.96039 1.35656 3.5522
2231 1 -12.0681 21.8018 9.55457 1.49103 2.94756 -5.02996
2233 1 -10.7987 1.91822 -17.0946 7.3613 -3.22287 1.08454
2234 1 -4.75375 2.20979 -4.60784 2.92505 0.33232 -6.11434
2236 1 21.5721 4.80097 -17.6119 -3.18725 3.32192 4.46372
2238 1 15.6076 13.3967 -17.3378 -5.10185 1.95405 2.80701
2240 1 14.5993 17.1556 16.9445 1.53035 -2.06578 0.907881
3946 1 -5.28023 15.7975 10.351 1.97332 -2.86853 -0.240715
2244 1 23.4025 21.2487 -15.1155 2.07811 -2.51034 -1.48996
2246 1 3.15072 17.811 -15.9527 3.19914 0.0650861 -0.973144
2249 1 -14.1988 12.8498 -17.1011 0.530701 -0.400574 -1.90241
2250 1 0.223804 0.600705 7.84406 -4.89223 -2.80144 -0.849339
2254 1 5.31773 17.5208 13.955 -4.64846 -0.451913 -0.438906
2256 1 15.1475 18.921 -22.2172 2.55696 -8.54794 -1.18651
2257 1 -1.12219 4.05869 -8.88662 3.7532 6.91628 1.79111
2258 1 -8.77665 15.2629 -21.786 1.44487 -0.778296 -5.02712
2260 1 20.6824 17.3485 -17.3081 2.71573 2.17157 2.51694
2264 1 -3.59613 18.7756 3.80274 2.53799 -0.412078 0.598722
2265 1 -1.43169 1.74977 19.0767 -0.763331 -1.66243 -1.6388
2266 1 -22.2163 8.09223 12.9072 -2.25128 -2.74597 4.60523
2268 1 13.1232 0.29701 -5.50034 2.12829 -2.28912 -1.50555
2269 1 19.0443 9.49528 -22.9303 1.50336 0.0606566 8.83403
2270 1 -5.72785 20.3515 2.01907 1.45943 2.05929 -2.22281
2272 1 -0.241405 12.1436 10.8123 -1.67926 -2.20024 -0.42146
2274 1 -5.80815 -0.571739 19.1887 0.14981 3.43177 -4.08506
3907 1 -22.1713 0.374803 10.4722 -7.81988 -2.64727 1.16702
2276 1 0.566434 11.2599 3.81238 0.810204 -0.706592 3.14971
2277 1 -14.287 3.56597 22.8352 1.64427 2.14032 0.838516
2279 1 -12.7598 0.968238 7.33744 0.973534 2.37917 0.676149
2281 1 20.214 13.3231 23.278 -1.3913 0.819107 -1.50661
2284 1 -20.7809 22.7995 -22.1747 2.49464 0.871371 -1.27304
2285 1 -21.7909 16.0063 0.749963 0.934455 1.68429 3.37815
2287 1 21.0265 16.145 16.3356 -2.11364 -0.13124 0.982462
2289 1 -2.93755 12.8552 -21.713 2.68303 -1.55047 -0.188112
2291 1 0.188134 19.7683 20.0058 0.452683 0.676444 1.54765
2293 1 2.54895 6.189 10.7244 0.404149 2.58313 -1.6231
2294 1 -18.3983 9.68542 -18.5712 5.0178 2.08876 0.428123
2295 1 -12.9637 10.7952 23.8047 -0.287046 -2.342 2.18928
2297 1 9.8956 5.70718 -20.5679 0.447894 -1.07999 -4.49345
2300 1 6.6342 12.836 2.09708 -0.234188 1.90221 -1.07075
2302 1 15.8919 10.4268 -16.2635 2.09691 -1.72443 -0.399932
2303 1 -11.0867 18.0621 -12.2774 2.58716 -0.908524 -0.302302
2304 1 9.228 16.8688 7.48271 -1.18166 1.48062 3.04522
2305 1 -14.3477 18.1066 11.7363 -2.63418 0.318016 0.673754
2307 1 -14.7089 13.1386 22.8033 -0.531998 -6.81743 -0.182869
2308 1 5.84753 2.74803 -16.8842 -3.36177 -1.14814 1.05383
2309 1 21.7261 17.1289 22.9006 -3.85436 6.20672 0.125235
2311 1 6.47 1.9265 2.37569 -2.58763 1.97919 -0.50765
2313 1 -7.1561 13.2474 -17.9437 0.91201 4.43673 -0.349481
2314 1 -17.2885 5.99452 10.2147 0.0554522 -4.00694 2.12695
2315 1 -10.8888 13.8147 15.9972 -1.74965 1.17977 -1.03661
2320 1 22.801 2.21461 -18.3922 2.94171 -1.79758 2.41022
3991 1 -17.987 9.0182 -23.7768 -0.0930982 0.805169 1.55655
2322 1 -5.18309 19.8617 19.5544 1.34138 1.54044 2.55578
1004 1 23.2734 22.7585 7.78516 -0.482759 1.90454 0.82759
2329 1 6.64516 5.43675 12.4609 -2.17854 3.66152 0.761185
2334 1 -9.76422 18.3802 14.2486 -1.1778 -2.22231 2.733
2335 1 -2.56217 19.596 23.1542 0.31356 -1.78447 2.41825
2337 1 8.70974 6.32693 0.660716 -2.56546 1.9962 -0.220341
2339 1 7.43344 10 -3.02428 1.84914 -5.84115 -1.32432
2340 1 7.64004 8.84267 14.9303 0.415779 0.874647 4.10582
2343 1 9.46537 22.0689 2.10035 -0.923727 -0.37733 -0.075831
2345 1 7.98435 14.8736 -14.5755 2.80663 -4.65257 -1.37804
2347 1 -14.0014 11.717 -14.3919 1.10667 -2.80994 -1.57228
2349 1 -8.80658 21.9136 15.2448 1.19553 -6.35298 0.206014
2350 1 11.1012 6.70389 -12.0402 5.081 3.28642 0.0236978
2351 1 17.371 10.5596 -13.7394 1.97635 4.31389 -0.903634
2352 1 -1.6937 20.4047 -22.5603 3.40233 2.33819 0.368459
2355 1 -8.53312 0.47129 1.8448 3.07793 2.69429 2.94539
2359 1 9.18677 9.61288 7.96328 1.04443 1.5848 1.41558
2360 1 13.9783 15.7259 3.22458 1.02752 -1.54518 2.38567
2361 1 -21.7058 9.0935 -12.3971 0.832228 0.107539 -4.99492
2362 1 -20.132 11.4325 13.0894 3.05734 -3.30258 -5.70517
2366 1 10.7329 4.2123 0.761369 2.68301 1.653 4.16726
2367 1 5.57274 16.8441 10.9007 -0.435481 -2.77396 0.0840318
2369 1 18.9671 3.53345 14.4004 2.15866 4.41284 4.63541
2372 1 23.705 4.63978 -0.992408 7.41127 2.02015 0.622562
2373 1 13.3313 10.6152 16.7462 1.6453 -4.28718 0.89616
2374 1 -5.16493 8.47472 -1.99479 0.8339 0.395672 -4.79164
2375 1 10.353 23.3476 13.7433 -0.960596 0.461762 -2.32644
3970 1 -5.45775 20.5481 23.1385 -0.933054 1.59699 3.35465
2379 1 -22.828 12.6859 9.03522 -0.183796 -2.32769 -2.77855
2382 1 -13.1381 17.0662 -16.9443 0.383939 -6.20132 6.25487
2385 1 -0.793855 7.15532 3.12748 -0.29033 0.288145 0.445031
3941 1 -18.2794 1.6779 23.6218 -1.81256 -0.342197 -2.56755
2394 1 16.4476 14.5859 -7.43593 -2.88571 -6.992 -0.712457
2395 1 4.3194 16.7813 20.2768 1.35148 -1.49366 1.06672
2401 1 -17.6504 20.4951 -3.12555 -0.891655 3.71015 1.96507
2402 1 18.1401 14.725 -20.1616 -2.81173 1.12888 -3.26004
2403 1 -11.0122 0.0900054 -23.9409 -2.96019 3.7704 5.1405
2406 1 -24.618 8.39484 -12.0032 1.45607 2.38224 -0.0817719
2409 1 6.02793 11.0997 14.4575 -0.722704 7.5347 1.21221
2411 1 9.57282 11.8503 -18.7307 0.181927 -0.491954 0.0903397
2412 1 10.0734 18.661 16.2455 -3.22505 -1.68849 -2.11139
2413 1 -6.08048 21.9942 4.41811 0.0161402 -0.485605 0.808877
2416 1 7.55765 12.5329 9.57496 -0.503931 2.86526 2.74877
2418 1 13.3457 2.14895 -7.92321 -2.58882 2.34861 -0.827012
2419 1 22.3843 7.47018 -18.6796 -1.18714 -5.81393 6.72739
2421 1 -24.0083 16.2815 -7.57637 -0.213382 -5.52812 -1.17212
2422 1 -14.9955 4.08203 15.9564 0.0416297 -4.63414 -1.53131
2423 1 13.8586 20.01 6.25451 -4.82607 -3.35409 -2.85498
2424 1 -24.5832 15.3637 6.75635 4.79321 2.51391 0.0212193
2425 1 -14.9022 9.61986 -23.2213 0.658282 0.762236 3.47044
2426 1 0.286573 16.8153 20.0689 3.03735 -3.57211 3.13492
2427 1 13.3939 3.09962 4.89357 0.829138 -1.55558 0.127802
2431 1 -19.3271 17.6292 -10.2625 3.01332 0.0696565 4.53252
2432 1 19.4241 13.329 -17.9309 2.47875 1.97333 0.142144
2435 1 -14.669 22.3707 10.7663 -1.59845 -4.21219 7.30151
2436 1 -6.76064 9.04705 17.3532 -1.62156 -3.88609 3.74225
2439 1 -14.4641 19.0054 9.0743 -3.85733 0.744204 -4.08987
2441 1 -22.5202 14.7859 19.199 -2.90061 1.52708 -0.839661
2443 1 6.36352 11.7066 -21.8895 -1.02667 -1.81601 -0.131645
2444 1 13.3375 21.795 18.7566 -3.87952 0.54811 -2.82237
2445 1 2.10614 1.42718 22.2965 -3.20154 -1.92784 2.4481
2450 1 7.24735 11.1443 22.616 -1.15737 -0.408832 -1.62188
2452 1 13.4657 15.997 -14.0113 -3.20891 0.426755 0.961936
2453 1 -2.01156 9.21199 13.799 -2.53863 1.50095 -0.236496
2454 1 -4.3892 8.9329 -18.0901 -0.0135791 -1.54444 2.87654
2455 1 11.1526 9.21674 15.3362 0.939948 -3.47813 2.3321
2456 1 21.2394 20.108 21.7052 3.13376 0.719667 2.01545
2457 1 -4.37923 1.73572 11.9702 -1.99174 -2.67282 2.06498
2458 1 -22.6591 20.678 -2.18959 -2.85222 -2.79671 -1.53873
2459 1 -19.0862 15.7226 -7.12631 0.113985 2.40381 -1.41425
2460 1 10.2719 10.8766 -14.8667 2.78881 1.33171 1.74157
2461 1 -20.3967 17.5201 -3.65827 0.595951 -0.0277607 -1.41767
2464 1 8.92598 19.7926 -14.4238 -0.310709 0.590615 0.330221
2466 1 1.39092 4.09511 -3.61727 3.60278 -3.70145 0.608578
3906 1 -16.4835 8.44543 -8.17401 0.213106 1.15155 -5.7439
2473 1 13.5486 9.41315 -7.99387 -5.74898 3.23888 2.38773
2475 1 -17.4018 11.3297 9.62104 -4.16917 1.4313 0.698242
2477 1 11.0704 8.99369 -1.84659 -1.87261 0.228826 2.64112
2480 1 1.23042 21.5891 -9.02517 -0.000591752 1.39846 -1.47499
2483 1 0.0262097 8.99419 -11.8628 -2.16202 -5.35569 -2.34151
2487 1 2.28521 19.1357 0.233958 0.108377 -1.53514 3.01537
2488 1 -7.94257 19.5488 19.9488 -2.5389 -1.64355 0.11951
2489 1 6.97572 21.4468 -10.7727 1.79236 3.53359 -1.29427
2490 1 -11.3011 22.826 18.3035 0.306673 0.623166 3.06777
2492 1 22.8634 13.4748 2.54098 -2.43718 -1.64649 -0.0112972
3956 1 -12.646 12.2241 -4.23933 3.01329 -1.41826 2.40137
2496 1 4.83799 2.00114 -23.002 5.39922 -1.81416 4.24126
2497 1 3.87347 6.90474 20.8617 -4.0369 0.20245 0.812155
2498 1 -5.54349 7.66736 4.75404 1.23455 -2.5356 -1.80695
2500 1 9.20945 21.9897 7.2879 0.504764 0.827011 -3.1624
2501 1 5.15503 13.5048 4.90306 -5.13207 -2.85842 -7.48123
2503 1 17.2416 14.0316 -1.4564 -3.44511 -0.592871 0.690823
2504 1 9.73504 11.0342 10.4891 4.55579 -0.0393086 -0.754785
2505 1 -9.94964 17.6 22.129 1.21598 1.61682 2.75467
2506 1 -23.238 10.7073 -10.3121 4.75419 3.5249 -3.12024
2508 1 13.1834 22.8095 -5.72571 -0.0727203 3.00011 0.19448
2510 1 -22.7063 1.70741 -2.75478 1.94193 -2.14719 -0.545149
2511 1 4.07586 5.06931 18.5778 -0.219794 0.492601 -1.2213
2512 1 -10.7585 10.8955 13.5618 -0.81315 1.77753 -1.7645
2513 1 19.3961 8.22652 7.79775 2.84303 -0.492145 7.61171
2514 1 23.1539 10.5982 23.7289 1.45174 -1.04258 1.97983
2516 1 4.80144 10.9309 -19.7626 -2.753 -0.670873 -2.05121
2519 1 -22.9135 20.2526 14.1302 0.482524 5.20562 -1.03116
2520 1 -21.9922 0.581 -6.75012 2.39336 -4.10369 -3.26978
2521 1 9.21489 7.08967 16.2612 -4.78043 -1.59746 1.89788
2522 1 -4.74151 9.14384 0.819738 4.22614 -0.356939 -6.66733
2524 1 10.424 22.3475 -21.32 2.8185 -0.828751 2.37145
2527 1 5.54593 4.63725 8.13778 -2.99717 -1.10424 0.80681
2528 1 -8.2975 11.5196 7.1086 -1.48401 2.61341 -1.82245
913 1 -4.52678 22.5178 16.2672 2.37607 -0.136194 0.257129
2538 1 -6.97675 4.31997 -23.4918 4.95091 2.7227 -0.288663
2541 1 5.44244 7.10765 14.5408 -0.456461 -6.69918 1.37088
2544 1 12.3499 1.73855 7.36434 -1.73233 -2.27373 -3.66864
2545 1 -11.3425 11.4854 -20.708 -2.27678 -2.74838 4.43138
2546 1 -14.499 2.49711 12.2594 -5.15162 3.50502 -2.44039
2549 1 8.20156 12.4482 -16.2403 -0.744239 0.195098 2.49237
2551 1 -5.48298 12.0462 -15.3343 -2.33799 -3.80512 -5.36409
2555 1 3.50228 14.0244 -6.38051 0.138648 -1.02393 1.7944
2558 1 -19.5585 8.83625 -21.1104 -2.31929 -0.471719 2.55632
2559 1 -18.0047 6.96432 5.65784 -2.9798 0.68872 -8.40067
2565 1 13.7862 17.1675 14.3702 -3.60518 4.0771 0.625859
3931 1 -1.17073 9.96672 2.15561 1.99333 -1.65556 -1.79168
2570 1 -20.806 16.3769 -16.5276 5.76418 -4.35966 0.393129
2571 1 12.6913 -0.182434 22.3542 4.69564 -0.653093 0.904008
2575 1 2.83729 16.8299 1.84197 0.936204 -2.04173 -1.65581
2576 1 23.2732 20.2785 15.3269 1.43499 -3.02637 -4.53136
2577 1 14.9924 21.135 -4.25151 -4.32683 -5.88385 -1.4897
2579 1 -10.7588 8.65467 3.14446 1.47057 -4.89713 -1.86364
2580 1 -22.8299 13.4585 -21.1186 3.0214 1.90093 -2.72511
2581 1 -6.6585 15.2353 22.4852 -1.82577 1.09398 1.37046
3983 1 -21.6096 10.2122 9.81249 -7.5655 -1.82628 0.199808
2583 1 5.20531 19.6908 -0.687109 2.04778 1.81831 2.36791
2586 1 -14.3244 13.839 13.0757 0.513818 -0.847645 0.247104
2590 1 14.0085 3.18652 -10.7166 -2.01128 -0.896828 -6.01242
2596 1 -14.274 10.8176 -20.7437 0.424485 -1.4509 0.842024
2598 1 19.8391 0.0477641 -3.72746 -0.212916 0.972583 0.664499
2599 1 -5.75592 3.29528 7.33761 2.53473 4.86679 -2.43597
3968 1 -2.26472 3.73822 -4.53977 3.27522 0.527962 -3.36472
2601 1 -1.97875 7.04567 5.7168 -3.00849 0.559662 1.0306
2603 1 -23.4322 19.1976 -6.80653 1.10322 0.547665 -5.03441
2605 1 -17.7314 8.8703 -5.59351 -0.948854 1.41262 -0.289621
2606 1 16.3162 15.8931 19.9064 -2.00338 -3.26467 2.35564
2607 1 10.8583 1.55212 23.9747 -1.48062 0.839179 -3.5199
2610 1 0.258319 3.90163 -17.3033 -0.220053 -3.2 -1.43865
2613 1 -22.2461 4.65008 15.7182 1.68417 -0.706269 4.31958
2614 1 -11.713 12.4569 -18.1379 0.180268 -2.06574 1.31778
2615 1 -2.99869 2.33642 16.7577 -2.79937 1.78262 -0.69572
2617 1 -3.88104 11.8173 -17.9511 0.676103 -0.178919 -0.639773
2619 1 -0.0766997 9.96393 -21.7735 -2.04434 1.19273 -0.640334
2620 1 -9.18615 15.0132 6.01534 1.99324 -0.292547 -4.40164
2623 1 -19.0201 19.1701 -22.824 1.89695 -2.7488 2.85694
2624 1 -18.3489 18.6605 -5.22359 0.245998 -0.763358 -4.3119
2626 1 -3.70331 4.63679 22.0634 1.75991 1.22354 -0.349641
2631 1 18.2629 14.2516 1.43106 -0.82151 5.0213 -2.71964
2634 1 -5.18485 11.3725 -22.5826 3.05817 -2.47267 3.05459
2635 1 -0.293949 10.3127 22.6438 -0.278465 2.47738 1.63426
2638 1 13.1018 4.70242 -6.30668 4.29329 -0.36736 -1.5752
2640 1 5.44588 13.7766 -18.9539 -3.41655 -1.80323 4.24263
2641 1 23.0769 7.56715 -14.7635 -1.77334 -1.7444 -4.55265
2646 1 -3.77399 10.7273 -3.22396 -3.21793 0.375591 -0.638966
2647 1 -10.8634 5.82653 4.20078 -3.30759 0.775609 -3.74228
2648 1 17.2397 1.04512 3.63882 -3.08673 6.80503 -2.11587
2649 1 -18.504 20.7435 -11.3519 -2.56397 -0.771566 -4.32839
2650 1 -4.43773 10.0036 14.7792 -1.28526 1.10665 1.22205
2653 1 -8.09127 9.36257 -1.81665 5.88801 3.66033 0.457294
2656 1 -4.21809 7.34382 -20.5877 1.53203 -4.94189 0.806953
2658 1 -5.63419 1.25757 16.9623 -1.4529 -0.0610824 -0.933929
2660 1 -12.2668 22.4763 12.3324 -0.69354 -0.188798 -1.62717
2661 1 7.74718 5.88639 23.6233 0.129115 -3.51501 -2.18502
2663 1 -8.18084 9.44446 23.4521 3.02042 -0.370479 1.36626
2664 1 -14.6214 17.6898 22.7199 -1.08632 -0.819368 2.83707
2665 1 -21.0737 2.14733 1.93125 0.106016 2.69285 1.65203
3902 1 12.3609 12.1861 -7.74194 1.73404 -1.70679 -0.267049
2671 1 11.9382 20.4508 20.7565 2.16232 -4.09174 -0.978939
2675 1 18.0054 4.52437 -10.2865 1.62334 1.02635 3.89825
2676 1 21.8668 21.1987 -19.2951 -1.43619 -0.566326 -0.234556
2679 1 9.46622 -0.29129 1.85557 -2.92167 -1.25787 3.85431
2682 1 -21.183 1.43532 12.9872 -2.86204 -2.31152 3.16257
2683 1 -16.8445 5.25729 -17.9681 -3.7888 -0.332865 -3.25959
2692 1 4.37513 0.48902 -11.7494 -3.49481 1.54687 -0.810017
2693 1 9.38523 19.6672 -18.7844 -0.969351 1.2534 -1.35268
2695 1 14.3144 7.91729 12.5555 0.234143 -0.298141 -0.41143
2697 1 5.09405 0.10012 -4.17962 6.20121 -3.73605 7.3026
2699 1 -16.4008 15.1128 -1.5219 -2.127 -1.5179 -0.290585
3978 1 -1.35039 19.8833 -11.3919 -1.21787 1.38159 -3.65681
2702 1 -7.00981 18.3062 -19.0867 0.672057 -0.0466715 -0.630548
2708 1 -14.0203 0.992418 23.9925 -1.68238 0.924359 -3.62564
2710 1 -4.53963 15.7316 17.4935 3.1507 -6.7048 4.02858
2712 1 17.5225 13.4843 4.76991 2.11216 2.07495 1.28829
2713 1 23.0668 2.80697 -7.99559 -0.55896 0.173227 5.87679
2714 1 -19.551 5.15131 -11.4662 -4.14285 -1.22889 -3.48144
2715 1 -11.9358 10.8386 20.7836 1.53872 3.56465 0.679947
2716 1 16.704 12.0091 2.35499 -1.82491 0.957711 -2.74491
2717 1 11.2516 19.9376 10.1185 -0.324813 1.11892 -4.06214
2722 1 -10.411 19.2776 -6.14287 2.5829 0.512526 2.98858
2723 1 -5.23571 15.541 14.1616 -0.22588 2.43681 1.3529
2724 1 -4.69298 4.95355 5.58044 -0.0790581 -0.52883 -1.6619
2725 1 -1.42622 9.03447 -17.8185 2.15927 -2.44086 4.73157
2750 1 -13.176 22.7521 -20.9025 -1.05951 -3.63399 -0.305269
2732 1 1.76061 1.92713 5.3307 -5.85545 -5.60995 4.38951
2733 1 -6.83388 9.28068 -19.3445 -3.26011 -1.70344 1.91136
2735 1 -5.55 7.93128 -15.7634 4.10692 -2.38793 -2.64595
2736 1 18.0424 14.4468 21.96 2.35461 1.43871 -0.332504
2738 1 -6.97546 8.92332 13.7255 5.07676 -2.11225 2.41874
2741 1 -8.02314 8.12393 2.96309 0.640191 -5.07241 -3.73747
2742 1 -15.0067 13.9778 4.94878 -6.14041 1.19846 -2.04115
2745 1 -11.1726 22.2718 2.5644 -0.867472 -1.92417 2.31774
2747 1 -0.493167 2.27868 14.9143 1.70739 -3.35842 -4.88572
3966 1 -20.4646 20.1961 8.46834 -0.36847 3.04143 -1.88501
2752 1 -8.98345 18.7916 -10.3038 2.68988 4.19832 1.31905
2756 1 23.2105 11.6571 19.1975 0.294841 0.815775 1.49585
2760 1 0.570633 12.7908 -18.017 4.31671 3.96627 1.4823
2762 1 -10.7518 9.59265 9.53125 -3.7073 3.05109 2.13766
2764 1 9.57179 22.3963 -12.0031 -1.84719 2.16467 0.259341
2766 1 9.32735 7.4755 19.0913 0.422408 -6.42467 -4.72817
2769 1 -15.6466 16.5426 15.774 0.146556 3.33175 1.70156
2770 1 22.3196 9.54771 3.2515 -0.12829 -1.7086 1.87807
2772 1 -12.9328 18.1179 -20.1022 -2.11254 -1.46433 -1.38262
2774 1 23.2548 0.385052 -16.2082 -5.60386 -6.98815 -3.10101
2776 1 10.0374 7.35829 -7.79761 0.786006 -0.598617 -0.146166
2777 1 -13.504 16.2274 4.11913 0.649582 1.42658 -2.44255
2778 1 -21.5152 17.3956 19.625 -1.63701 2.61483 2.97558
2779 1 21.6446 14.3561 18.7225 -1.17667 0.0953252 -0.879978
1118 1 23.1624 -0.192833 -11.4344 0.902402 1.51756 1.30793
2784 1 -11.8151 1.74952 -0.589355 -1.20261 -1.98073 -0.959076
2787 1 -14.3822 14.2293 -0.00789326 -4.1602 -4.67421 5.79887
2788 1 -20.4147 14.9786 12.4358 -0.553166 -1.34457 -6.32693
2791 1 21.4902 13.8104 -5.39048 -3.03182 -0.00825246 -0.046162
2793 1 -3.33309 1.57438 7.08293 -3.29739 1.48543 -1.38948
2794 1 6.53783 17.8772 -8.14328 1.81487 3.41404 5.14193
2795 1 20.894 13.2037 -20.5146 -0.0342719 -3.08216 -1.97725
2798 1 -21.8633 -0.677428 -3.91369 1.94571 2.9773 -1.71295
2801 1 2.16546 17.3856 7.64443 5.22711 -2.76062 -4.52885
2802 1 6.71148 11.1724 -10.0736 1.23069 -2.19747 2.807
2804 1 -17.8888 15.0753 -9.75518 4.93114 3.24575 -3.1202
2805 1 -14.5449 7.22918 -10.3325 0.436528 -0.664178 2.06144
2806 1 -3.43658 18.9182 -16.765 -0.157193 4.21235 1.02477
2807 1 -20.4102 17.9539 -0.727614 0.818519 0.944148 -2.49064
2809 1 -11.1865 16.1367 17.6723 -3.10193 3.13291 5.07838
2810 1 7.60383 22.6339 -14.2495 -1.91677 -1.36647 -2.03194
2811 1 -13.5478 11.6975 3.88538 2.63949 1.31763 -0.583817
2815 1 22.3133 8.09136 8.0434 -5.75536 1.92458 -1.15667
2819 1 18.5234 12.2931 15.5448 -0.96925 0.818865 -3.64136
2820 1 -16.2703 20.9708 8.81877 -1.48346 -6.98999 0.518922
2824 1 8.45106 13.6742 15.9686 -2.49585 -5.60612 4.14664
2825 1 14.5762 19.045 -9.74258 0.557874 0.915026 6.05626
2830 1 -22.9319 6.08093 0.610726 -5.02523 -0.848608 -0.46728
2831 1 17.8477 5.09993 -13.2832 -7.38424 0.610015 2.16309
2833 1 -22.3572 2.96381 5.26183 3.33327 -0.164493 -6.31985
2835 1 -5.12257 5.85629 -0.607907 -3.36407 -4.28188 0.0044616
2836 1 -12.9417 18.663 -4.71993 4.32699 0.0259861 0.306892
2837 1 -16.2165 11.2742 -9.01401 3.0124 6.29197 -0.0185399
2843 1 15.4539 3.2929 -21.4622 2.26264 -0.102019 -1.21993
2844 1 21.8695 16.6163 8.01483 4.04183 2.08917 4.1909
2845 1 20.0116 3.7445 -21.7441 4.1268 2.07937 4.77009
2846 1 -22.7287 0.502402 3.76636 -2.55984 -2.53588 -5.43752
2847 1 7.45375 14.7812 0.242597 -1.63813 6.03628 -0.274965
2850 1 1.55804 4.77341 -9.43099 4.37999 0.362316 -0.974866
2851 1 -5.97717 22.3956 18.6853 2.14054 3.20402 -1.90257
2857 1 18.9436 9.1581 10.6721 -0.685402 -2.87074 1.62233
2860 1 -22.6407 6.817 18.6954 0.693734 -8.20498 -1.11524
2861 1 14.2357 11.6079 22.6567 -0.261557 0.0793909 2.78054
2864 1 -14.9547 11.7773 15.7588 3.11363 1.33418 -0.406739
2865 1 4.78332 10.2342 0.44603 -2.29137 -2.02181 0.189794
3923 1 -22.2728 4.39556 -12.4902 1.68267 -0.156225 -2.75648
2867 1 -16.6495 16.5774 -14.5088 -0.101811 1.43302 4.96408
2870 1 -12.0667 15.9361 -10.3185 -1.76096 -2.8162 -1.07815
2871 1 -14.4648 19.9861 -24.2146 0.697543 6.80977 -2.45974
2872 1 6.59506 8.34994 8.77729 -2.69522 4.70596 -0.147999
2878 1 -18.2773 22.2034 -13.7316 0.0957607 -2.7202 -3.04741
2879 1 1.74891 17.5011 4.45732 2.06599 1.85179 3.0489
2880 1 -1.1185 -0.61076 14.5055 -1.06368 -0.829355 0.521142
2881 1 -16.0824 15.2012 -21.4309 -2.93639 -4.53092 -3.39855
2885 1 -6.94739 2.66499 -6.29176 1.84078 3.96682 0.307697
3986 1 16.1597 19.7837 -15.326 -0.290093 -3.75198 0.366041
2887 1 23.7702 18.7878 21.0784 2.90019 3.93068 0.431013
2888 1 -11.2519 4.09796 -22.5883 -0.994581 1.19842 3.824
2892 1 22.9656 18.9859 -11.1829 -1.61499 -0.531265 -5.64618
2894 1 -7.28193 5.5262 16.8685 -2.14715 -1.38338 0.747351
2895 1 -18.1229 19.6578 19.76 -0.034347 2.58968 -1.80532
2896 1 -13.0909 4.12181 18.2118 -2.18633 2.76582 1.83342
2897 1 -3.19574 15.9663 -0.815124 -0.947921 -0.525862 -0.659968
2900 1 15.7923 1.46865 -23.9022 -0.455292 -2.99439 -4.65321
2902 1 -22.1552 0.903716 -21.6759 -0.754678 -7.08765 -0.451911
2904 1 -6.07707 13.4332 -2.06469 0.958993 1.53431 5.03511
2905 1 -16.1514 22.521 21.0588 -0.683225 6.44977 -0.0377781
2906 1 12.4272 2.54879 18.7443 -2.83939 0.627119 4.69773
2907 1 -16.6363 22.3546 -4.90142 -2.43282 3.22081 1.48745
2908 1 1.21218 10.8397 17.9322 -2.10837 -8.43102 1.66597
2910 1 -13.6143 7.03541 18.7706 1.7334 0.342945 2.6153
2911 1 1.23359 3.28269 -19.8707 4.66418 3.45815 0.570827
2913 1 16.5291 6.15946 -3.51967 -1.64804 -1.50789 -0.738075
3965 1 -5.56364 0.73206 2.64055 0.214539 -5.65817 2.23246
2916 1 17.8941 19.0971 -7.81545 -0.377587 2.52232 -5.5229
2917 1 -8.38178 7.86799 5.97639 -2.06519 1.09773 -0.997458
2918 1 20.861 7.26571 -6.81072 0.427433 -2.6688 -1.70423
2920 1 22.8844 12.8545 6.74451 1.1115 0.670677 6.87456
2921 1 -18.3188 20.4169 10.6897 -8.30667 0.631985 1.05662
2923 1 -13.6073 -0.0568207 19.6075 -2.86351 3.03569 -1.66888
2926 1 -8.38451 8.03002 -12.712 3.24521 0.652873 1.5674
2927 1 13.2487 5.5279 0.811652 -2.36407 -0.935932 2.32597
2930 1 -20.3673 5.09945 -0.686207 -5.17198 -0.874144 -1.22292
2932 1 8.94063 18.3685 18.9031 -5.26583 -2.3652 0.414388
2934 1 8.53688 2.12062 -20.2778 1.14517 2.31863 1.57366
2936 1 23.7488 7.92064 -6.05329 -0.465735 2.07368 -1.50228
2937 1 -17.0245 4.2797 -15.2783 3.1513 2.80675 -0.0364744
2939 1 -12.3096 19.0645 4.43279 -0.094131 -5.24201 0.556549
2940 1 15.1621 17.1456 -0.935835 1.38194 4.81087 -2.31981
2941 1 -5.45307 3.4747 -9.59158 -1.31028 -3.79835 4.68728
2942 1 -21.5199 13.2017 21.2422 4.23328 -0.426379 -7.37493
2943 1 23.9091 6.32604 9.83274 -3.06528 1.24041 -2.21383
2945 1 -6.75346 10.415 -9.64408 3.76179 0.575524 0.137287
2946 1 11.6766 -0.551527 12.1664 -0.674193 -5.2786 -0.31838
2950 1 -20.3392 15.7017 4.94842 -4.46559 1.64929 4.50168
2952 1 -10.9455 21.9224 -22.505 2.02357 -2.40756 -1.41325
2953 1 14.8837 3.91517 2.65882 0.725865 0.294596 1.03528
2956 1 -14.3485 19.6353 -1.32047 -2.78347 0.438705 2.82262
2959 1 -16.6671 18.0906 -21.2433 3.03903 -3.87457 3.26394
3990 1 9.70232 3.65605 -22.5192 -3.00763 2.42977 -0.906449
2963 1 -23.5537 11.1711 -4.49627 0.235726 -3.0737 -0.643869
2967 1 1.32948 9.7474 9.46571 -1.44161 4.51838 -1.45017
2971 1 -2.43488 19.6114 10.9555 -2.36808 0.72085 0.168043
2972 1 -9.19382 8.80749 -9.97471 -2.17966 4.42624 2.70059
2973 1 -11.3488 15.2575 21.1293 3.42806 -2.40557 2.27643
3988 1 -22.6729 19.8849 18.6848 -3.28733 -0.952696 -4.08479
2975 1 17.9299 9.95987 -1.23665 -3.06947 -0.241353 -2.43682
2976 1 -20.0967 20.2228 -14.8222 1.81975 -1.57495 -1.62139
2978 1 12.7457 19.6038 -17.4084 -0.532748 -3.37978 0.320631
2979 1 6.59961 5.71142 16.7878 -1.84931 0.294378 1.97245
2980 1 -3.33361 11.5175 0.84279 1.52465 1.70802 1.25833
2981 1 -12.3878 8.16166 16.5546 1.86117 0.602438 -2.04961
2983 1 -6.78341 14.0726 -23.7008 -4.71 -6.30262 -2.40387
2986 1 -5.86288 18.5346 -21.5664 -0.965353 -2.52981 -0.958725
2989 1 21.5689 17.751 -13.2532 4.70466 4.39236 1.08538
2991 1 2.1368 1.70211 10.3571 -4.07367 -4.32778 1.36901
2992 1 22.9241 11.7621 -11.1334 -0.585872 -2.04671 -4.2991
2993 1 23.658 17.2864 17.368 -2.89699 -0.237291 -3.2201
2994 1 17.4321 1.78886 13.1103 0.558163 0.239155 0.83095
2995 1 -2.9898 11.4253 -6.09174 -0.0729014 -1.20044 0.507345
2996 1 12.9232 5.85043 5.65639 0.366291 -2.18187 -2.42435
3000 1 -1.63931 12.3991 16.5464 -0.806538 -2.63852 -0.14625
3001 1 11.9338 12.7379 10.1391 0.00213629 3.98887 3.59824
3002 1 -20.3052 16.7999 17.0284 -3.20998 -2.71278 0.134378
3003 1 16.5532 13.0746 11.5658 -0.249898 -3.40806 -1.0227
3004 1 17.6742 17.6016 -16.949 -1.03085 -1.59117 4.13361
3005 1 3.07744 3.29899 -7.55553 -3.3057 1.36379 1.20127
3006 1 21.3297 8.25126 -21.4096 0.318114 -0.0349245 -0.0861066
3014 1 -24.3108 12.4441 22.052 -1.10112 -2.56651 4.45485
3015 1 -4.18887 11.0717 8.37261 2.54085 -6.10291 4.79852
3017 1 -14.7624 6.34508 23.9339 4.95047 -3.89363 4.35617
3023 1 4.08776 17.816 -2.61719 0.973753 0.414273 1.19149
3024 1 23.7448 6.05974 2.62366 -0.835859 2.07492 -2.11947
3027 1 13.0416 3.76679 10.963 -1.48337 3.61044 2.10068
3028 1 -14.3147 12.3044 20.0808 3.02264 0.479064 -1.50096
3029 1 6.44077 2.50744 12.8795 -8.65286 -2.08115 -1.77989
3030 1 -15.5489 19.9806 -11.4267 0.324635 4.02083 4.79981
3033 1 -11.8503 3.6066 6.45793 -5.3491 2.64736 9.02439
3035 1 20.408 16.6229 5.43077 -1.79531 -2.78395 -5.18884
3036 1 12.7905 17.9241 21.2188 2.29537 2.93569 2.06624
3041 1 -20.6835 20.5014 0.116059 1.62772 4.67497 0.873315
3042 1 -7.28113 19.4402 14.6287 1.56565 2.469 -4.50523
3044 1 -5.13528 16.5083 -4.79423 0.149176 -1.33835 1.74907
3047 1 6.51926 19.5025 4.10923 2.15234 3.57639 3.60633
3051 1 -17.1759 0.706105 -11.6457 -0.596437 1.33867 -1.5914
3052 1 -20.7344 14.066 -14.4576 -1.71659 2.02486 0.156329
3055 1 19.5699 2.85532 3.97716 -2.56157 1.44141 0.43911
3056 1 -23.2133 14.2027 14.706 -3.27221 -0.418836 2.98393
3057 1 17.5511 5.86628 23.0346 3.28773 3.39875 -6.13929
3060 1 -20.5522 22.0087 -5.39834 1.77311 -1.47718 1.83447
3061 1 -9.78986 22.8255 -16.5625 -8.39198 0.415294 -0.0675446
3062 1 -8.43516 15.6768 -16.5219 -1.35315 1.39203 -0.763953
3064 1 -1.32975 11.3727 -19.4621 1.43873 4.98834 -0.229076
3921 1 17.6412 7.07369 -18.8887 -0.407122 -4.7515 -2.22529
3067 1 17.1606 16.3502 -12.3983 -0.490928 2.02095 4.3191
3068 1 21.0067 16.9952 -1.65616 -0.153935 -3.32051 1.68534
3072 1 2.23914 8.90766 22.264 -4.50759 -0.629477 -0.927632
3073 1 2.51183 22.9184 -1.57372 4.62934 2.05643 -2.3927
3075 1 20.7428 7.87685 23.4329 -0.448755 -1.20567 -1.68814
3076 1 -10.2712 19.7216 10.7086 0.355975 -1.95874 1.96922
3078 1 -21.4691 5.90694 -16.0283 -0.722232 2.93934 3.03577
3080 1 -21.0094 11.8897 -8.61062 1.93245 -4.88623 4.47525
3081 1 -19.2215 6.65138 8.07935 0.297139 5.00289 -3.59202
3082 1 -3.33323 2.63884 24.0519 0.550499 0.776875 1.94913
3086 1 14.3461 20.5298 2.12769 -0.966705 1.82987 -3.12502
3088 1 8.9296 3.89559 16.7064 -1.036 -1.73318 3.26163
3091 1 -3.81172 0.145908 22.9705 -4.12289 -2.80062 -0.392433
3093 1 -13.3216 5.31271 -20.7918 -0.870634 -0.69064 3.35864
3094 1 14.9388 6.5598 21.9192 -0.193325 4.78211 -1.10503
3096 1 5.45714 5.71175 -21.3396 -0.193 -0.748191 -3.60847
3099 1 -20.4677 7.78312 23.405 -1.50301 1.81595 -5.20766
3102 1 4.36916 3.35074 23.1606 -5.98125 5.01227 -2.29816
3109 1 2.53742 0.53342 1.66944 0.4878 4.31039 2.08486
3110 1 6.26564 7.14835 2.45075 2.88821 -4.07551 -3.03252
3114 1 3.48401 4.81038 -17.1085 -2.29956 0.27517 -1.1773
3115 1 -18.6428 18.1869 -16.2199 -0.548811 2.78988 2.48162
3116 1 -10.9589 16.568 -0.168926 -1.20792 -0.117459 -0.7483
3118 1 3.5489 5.66069 6.24648 3.28501 -2.99853 -1.89177
3938 1 19.5794 12.4346 18.3684 3.01608 1.20697 0.63755
3123 1 14.9529 14.8206 13.1805 -2.45324 4.96749 -1.58241
3124 1 -12.8811 11.6502 -6.97912 -1.17767 -0.0551771 -1.95834
3126 1 1.75685 7.1529 -8.18982 -1.02257 1.1378 1.70397
3127 1 16.9735 5.80934 3.5654 0.0402066 1.67525 -3.12915
3128 1 2.80635 8.88771 -16.001 1.68592 -3.76792 1.2953
3131 1 -9.86137 13.8573 1.15596 -1.20586 -2.86503 2.98847
3132 1 3.15239 9.95186 4.17201 0.520703 -2.54117 4.15419
3133 1 -0.487968 14.2612 -11.5149 -5.03689 -0.122969 0.028845
3134 1 21.4707 6.31775 -1.67269 -1.8158 5.0352 -1.01516
3139 1 5.99328 9.74659 -12.5053 -5.77816 6.60555 -2.46226
3140 1 0.959866 16.6071 -19.4816 1.64987 -1.40205 0.390798
3920 1 -10.6782 9.85502 18.39 7.16918 -1.27372 -0.844107
3930 1 13.4281 19.5557 -0.397916 -1.20058 4.53679 -2.61121
3144 1 -1.43267 14.9041 1.25796 0.206685 -1.6442 -1.31229
3146 1 -1.01637 7.40643 -9.79831 -2.12396 2.35606 -0.045576
3149 1 10.4358 8.48959 -16.533 -2.4634 -5.3638 -4.35581
3150 1 -23.3252 12.4931 3.45896 1.18989 1.18004 3.16449
3152 1 -13.3158 15.4956 -21.0326 0.487385 -10.347 -2.96061
3153 1 17.0752 7.38518 -21.805 5.19304 -2.33729 1.73079
3154 1 6.4027 21.9648 2.33686 0.606846 0.249377 1.3392
3157 1 10.9507 3.01406 3.33482 -5.98207 2.92899 -2.10659
3159 1 19.198 4.79605 -6.68181 -7.57396 2.43418 2.25214
3918 1 12.0122 10.5003 -18.2854 -1.22335 -4.11499 4.73913
3164 1 -20.3463 3.66294 20.7296 -1.6336 2.35971 -3.55326
3165 1 -5.2947 20.7973 -15.7473 -1.82066 -2.11955 1.00208
3170 1 5.54913 22.0923 23.1065 2.28645 5.30434 2.69039
3171 1 -5.73646 15.7634 -21.6895 -0.972078 -1.47695 -2.06324
3172 1 -8.57705 2.29159 6.28394 -0.557429 -0.999355 1.39156
3173 1 10.9954 16.9615 9.73963 -1.17564 -0.806237 -3.3599
3174 1 -24.4933 14.0837 -12.4166 1.64523 2.57016 3.05767
3175 1 19.805 3.79038 -2.42393 0.634148 1.96009 -0.148328
3176 1 20.1057 1.66262 16.1264 -3.49389 -0.0220819 1.79327
3178 1 17.466 18.9833 12.6516 -2.64623 0.392529 -2.91592
3179 1 0.557639 0.033348 20.3894 0.474534 1.767 -0.34261
3180 1 0.366496 14.0392 3.39558 4.2514 -0.237898 -2.54734
3183 1 23.2671 15.9945 -5.1926 0.258474 2.16517 -0.289259
3185 1 -14.7359 20.0259 -21.3021 3.28678 1.25549 0.795377
3186 1 -4.11601 20.366 6.16719 4.21165 3.65392 1.86193
3188 1 -19.6899 13.4774 -11.2472 2.47671 0.334834 3.83354
3189 1 14.1329 10.786 8.02137 -0.244697 2.1435 -2.93421
3190 1 -22.1286 20.2081 -17.3116 -2.02627 4.69079 -0.390094
3192 1 23.3641 9.56172 0.400648 -0.74345 -2.04469 -2.18882
3195 1 -16.8508 0.756763 3.17621 0.77695 1.74646 1.15535
3197 1 -3.07523 9.65877 4.47474 -0.188197 -0.140133 1.85646
3198 1 9.52125 2.07207 -17.5743 5.53678 -0.788086 0.600155
3203 1 17.9295 9.15444 20.1704 3.42554 -1.48299 2.03286
3205 1 -13.2448 4.61889 -4.41566 -0.0860443 -2.41331 -0.691106
3206 1 16.1035 11.8216 -4.71806 -5.824 -0.961388 -3.64933
3210 1 -12.9441 9.76271 -2.71844 -2.72681 1.4663 -4.52481
3211 1 -2.36012 17.1646 12.4869 2.59297 -2.33432 2.28409
3212 1 -12.3495 6.8327 -18.5805 -0.559429 -1.98984 3.04881
3213 1 -2.26329 1.82656 -15.5535 2.38488 -1.95439 0.723783
3214 1 -1.06814 15.2418 15.5925 -3.37621 -3.16711 -7.38092
3215 1 10.8482 2.03569 11.3762 3.74772 1.57251 -1.74841
3217 1 10.073 2.17249 8.77439 1.00057 -0.27508 1.36228
3218 1 -4.60716 21.6743 -8.8267 -6.32586 2.45763 -0.252981
3223 1 -24.5381 8.81057 18.607 -0.394335 0.191396 -0.969253
3964 1 9.04915 10.6926 16.5468 -0.453866 -4.94331 -0.0760563
3227 1 6.2901 21.2066 -4.53884 -0.32179 0.997452 3.80728
3228 1 -10.9026 12.0613 -10.1721 -4.25644 3.41235 2.70045
3229 1 -8.60753 1.48327 -3.90841 3.54593 -2.43426 0.318792
3230 1 -22.8301 12.8941 -24.1135 -2.05646 0.921189 -3.86408
3232 1 -23.0795 15.1389 4.1615 1.49023 -3.27801 -0.238141
3233 1 -1.98467 16.3297 7.55693 -1.98079 -2.7236 1.12448
3235 1 -5.86498 12.1123 -11.7209 -0.580099 -0.293074 -3.88026
3236 1 17.2812 19.1285 7.0518 -1.72737 -0.271403 -1.02881
3238 1 22.6751 20.0687 -4.36444 3.23906 -2.46635 0.184357
3243 1 8.8249 15.8039 22.0509 1.71619 -6.40309 2.46046
3244 1 20.2133 13.736 -13.7693 -0.789356 2.61132 1.64011
3245 1 -7.83389 20.2543 9.31632 -1.00509 3.35282 0.693633
3246 1 18.0626 4.17982 6.15563 -4.4655 -3.68758 -2.29877
3247 1 -5.65697 8.15246 -11.0563 -0.0987045 1.07642 -0.429889
3248 1 7.55144 0.983809 -0.211224 -2.44054 -0.753334 -5.33932
3250 1 14.0047 5.23972 -16.1967 0.359176 2.30488 0.0707582
3251 1 0.202258 16.6866 11.5567 -0.13688 0.51609 -0.882799
3253 1 10.0976 16.2109 2.50296 -2.25738 2.47362 -0.762901
3254 1 20.3818 3.24625 -8.9074 -2.13508 -3.16845 0.613577
3255 1 -18.2773 12.2954 -19.8287 -0.640793 0.0517274 -3.30479
3256 1 -6.60543 17.6308 -9.59486 0.706751 -6.22346 -1.36239
3257 1 -12.3418 4.9646 20.9327 -1.11251 -2.01852 0.791556
3259 1 16.9693 19.1439 2.15972 -0.81524 3.22614 -1.32955
3262 1 9.18297 6.73624 11.9399 0.30932 3.92538 3.07912
3263 1 23.2513 4.89575 19.9276 -0.465363 -3.18688 3.34735
3264 1 10.6268 8.01022 24.1437 0.873479 3.3125 -3.99206
3267 1 -17.525 8.23133 -0.00253472 1.10996 -0.641349 -5.84331
3269 1 6.82271 18.7729 -3.08026 -1.75952 0.75664 4.98242
3272 1 2.47938 11.576 -7.5143 2.45408 -0.445998 -1.64893
3273 1 -16.1097 10.1155 -15.6247 -3.59721 -1.99913 4.04607
3275 1 21.4411 7.64034 10.919 2.62069 -2.46026 -3.01613
3276 1 9.26889 2.92098 13.8113 -1.50449 1.43994 -1.10806
3280 1 10.0845 15.4979 11.9793 -2.68467 -1.26866 -2.22116
3283 1 -4.09718 0.379604 14.578 -3.93026 2.22892 -0.550275
3285 1 1.00204 19.8172 -13.2324 4.03499 4.22959 2.51444
3286 1 -16.1893 19.9028 4.67591 -3.81868 -2.28046 -6.77256
3288 1 1.01696 7.83403 -19.1633 -0.180067 -4.01172 -1.23835
3290 1 -11.9446 18.6091 16.5237 2.89148 0.991171 0.772443
3291 1 20.9576 22.2502 -13.3842 4.66002 -0.715803 -6.06673
3292 1 -20.87 22.9119 1.86675 -1.94652 5.8458 -1.69537
3293 1 -8.89733 12.0426 24.267 -1.74763 -0.445152 6.25441
3294 1 -20.7871 1.04076 -15.6445 3.92836 -0.896052 3.69525
3297 1 -16.6192 21.3699 23.5867 -1.71881 -0.691032 -0.873919
3299 1 -13.8175 22.5944 -6.0324 -3.23568 0.826236 -2.76555
3300 1 -3.26976 5.8201 -8.87681 -1.69294 -1.82333 0.169523
3301 1 23.4919 8.32917 -8.85733 -1.32516 -1.54384 -0.333276
3304 1 1.23178 15.2956 13.738 1.30629 -3.00952 1.4046
3305 1 2.519 5.95888 -5.74937 -1.33256 -0.774554 0.904338
3306 1 -7.86483 10.7116 -21.8861 4.16442 1.91222 -0.571472
3307 1 -17.2492 12.2786 20.4951 -0.63839 1.07102 4.24476
3308 1 -16.4801 17.8812 -2.28932 2.2052 1.97824 5.04819
3310 1 16.2121 21.712 5.75018 0.32142 1.117 5.36352
3311 1 8.83653 2.82134 -10.3842 -0.960346 9.04792 -1.67083
3312 1 -23.9843 6.51471 14.3858 -4.8338 -0.772214 0.710483
3313 1 15.7434 10.6165 13.3957 1.18109 -2.04813 -2.67149
3317 1 3.05392 0.133678 7.25702 -1.49913 1.75951 -6.17195
3318 1 -11.42 -0.435842 17.8797 2.36408 -1.75767 1.04428
3319 1 0.668167 1.25247 -16.4907 -1.02498 2.62557 -1.19569
3320 1 3.85755 4.65166 -11.1175 1.7483 -1.1126 -0.966165
3323 1 -3.09572 17.296 15.4825 -0.139251 -1.54964 -1.2439
3325 1 -11.0369 15.0812 3.68765 2.55279 0.644651 -0.0803978
3326 1 -23.7932 4.84276 -22.5022 1.35102 2.34041 -1.77134
3329 1 11.8891 6.43146 -14.8811 -1.41095 1.50376 -1.52506
3330 1 -7.20007 18.92 -14.5627 -0.767417 3.32648 2.40385
3332 1 -5.60399 6.99757 22.4506 0.642667 -1.42717 -2.28263
3334 1 -21.4375 21.0548 16.5221 -2.56698 0.976751 -1.70705
3335 1 22.4174 0.873518 -3.69091 -2.72051 2.34668 -1.51152
3337 1 -14.5698 10.5229 9.64648 -0.308631 -0.382692 0.686649
3338 1 11.0866 20.9766 15.1791 1.18857 0.747313 2.88147
3339 1 11.254 18.0533 -20.524 4.53664 3.25456 -5.19256
3340 1 18.2292 0.0161503 -20.4042 1.26169 -4.5493 -3.99995
3341 1 20.6482 19.7067 -15.1187 -2.82097 -2.27799 -2.65779
3342 1 -0.420771 0.910644 2.35652 5.36321 1.56321 -1.29769
3600 1 -19.8931 22.7376 -9.78172 -2.53637 -0.944413 -4.33812
3347 1 -23.3192 12.5641 -14.8709 0.88664 -0.548435 2.06826
3349 1 14.9352 18.2965 -13.2273 -3.42823 -3.23403 -0.342443
3352 1 4.54075 16.2754 4.32923 2.85026 2.52557 -1.94725
3353 1 -23.7383 4.09401 17.9882 0.0304808 -2.25188 -2.30753
3354 1 -15.0995 8.23726 -1.09059 0.856527 -0.291123 1.50653
3356 1 -8.75784 21.6041 5.43127 -7.50372 -3.6705 2.42428
3358 1 -1.13151 19.285 14.5164 3.60295 0.0187627 4.42374
3359 1 -4.12311 21.7729 12.1284 -1.91168 -2.05273 -1.49947
3362 1 -6.25533 3.31585 -14.4571 1.0051 5.86345 0.940479
3371 1 -8.36576 3.67274 13.2695 -0.223717 0.327365 0.0797798
3376 1 -15.4679 9.86352 13.6551 -0.389482 -1.70758 -0.449519
3380 1 1.27654 16.3488 22.9362 -0.68444 -0.0516091 -3.92918
3382 1 -20.1779 13.4285 15.1409 5.13367 -1.58993 -3.17862
3449 1 6.92238 22.734 -17.2617 -5.84092 -1.39609 -3.60569
3392 1 -8.12202 1.17832 -17.4613 -2.68156 2.0231 -6.74087
3393 1 -11.6943 15.1756 -18.659 -2.47505 -1.49086 1.28735
3396 1 -21.3097 5.80564 -5.25843 -0.64535 -2.34706 -0.851739
3397 1 -3.84656 1.41458 20.3203 1.44347 2.50142 4.69248
3405 1 16.2311 5.76269 13.372 -4.8218 -4.51027 0.050204
3929 1 -2.24129 12.0113 -8.82305 -0.950224 -1.61787 -3.0819
3408 1 -16.8937 14.1111 -24.278 3.20195 3.31209 -1.0451
3414 1 -17.5535 5.71772 -7.81943 0.105991 1.81781 -1.63165
3415 1 -17.2881 0.0660919 -16.1442 -1.2243 0.498398 -3.76397
3418 1 21.2314 18.4441 14.2529 -0.99889 -3.12586 2.77728
3420 1 -19.2389 9.70148 7.93593 -8.72642 0.0121231 -2.31216
3421 1 10.8485 16.696 -13.4441 -0.309955 4.84992 1.53649
3423 1 -12.7805 3.64098 1.37375 -2.00761 -0.867851 2.46828
3427 1 23.7796 13.1481 -17.2275 -2.46658 -1.29208 2.33424
3428 1 -4.07308 12.9611 14.7014 0.205445 1.27695 -0.427122
3432 1 -1.94764 8.95387 8.04123 -2.38594 -0.295776 0.669393
3434 1 13.655 16.3082 -8.97973 4.19328 1.83214 5.14677
3435 1 -2.95824 21.6755 -14.3318 -1.53167 -5.22812 -1.11626
3436 1 -3.90339 8.91762 17.5194 0.429228 -1.38145 -1.93136
3437 1 12.493 16.1461 -6.27887 -0.761891 -0.331669 -1.75758
3438 1 -19.1674 9.36873 3.3769 5.86458 -1.67294 -6.19741
3440 1 4.16277 21.8723 -10.0804 -3.04732 -6.17346 1.06074
3142 1 3.73918 23.191 -19.7267 1.98824 5.64988 0.434287
3443 1 22.7245 2.46194 0.323634 5.50022 -0.0893718 -1.42772
3444 1 -19.3554 12.3627 3.2473 -3.6953 1.4547 0.0034188
3445 1 -11.2676 1.19864 -9.68063 2.36658 5.46911 -0.273431
3447 1 -5.56147 5.1483 -7.14663 -2.10569 -4.84199 -0.670088
3448 1 -19.6455 3.83104 14.9181 -2.52363 1.77301 4.0288
3617 1 15.7337 0.1298 -18.8266 -0.179057 1.29332 -0.0176879
3928 1 -17.3863 16.9413 23.3894 -0.753612 1.70859 -3.19624
3453 1 15.8182 9.76072 -21.0355 3.21823 4.64838 4.78826
3454 1 -21.7045 17.8989 9.86625 -0.0099367 -3.06075 2.20947
3455 1 -17.6578 15.0422 19.8573 -1.41105 5.1976 -1.11134
3927 1 12.1221 17.3587 -1.8238 -0.91441 -5.48443 -1.70193
3457 1 22.4585 14.5438 21.9413 0.462923 1.28379 -0.156332
3458 1 14.6119 5.82694 -22.3342 -6.14438 -1.1752 2.3727
3459 1 -2.7235 19.4252 17.9936 -5.17259 4.2598 -3.76723
3460 1 -0.0989626 20.1953 17.1907 -2.72843 0.984408 0.0343831
3462 1 -11.7578 21.3901 -7.95938 0.422381 6.99823 2.95198
3463 1 22.6103 6.46117 -23.2527 -0.385019 0.428823 -0.462058
3466 1 -9.08647 4.07343 -7.42561 -3.80249 -0.536441 -0.988173
3467 1 13.6432 12.3359 14.5148 4.00852 -5.68416 -1.20239
3472 1 -15.1336 7.82532 -14.5526 4.28471 -2.92324 5.3205
3934 1 20.966 2.67572 -13.9416 -1.756 5.01724 1.22908
3476 1 3.54741 13.7007 16.0348 -4.08062 2.21694 4.24026
1869 1 -0.70353 22.7768 16.6827 0.0262399 3.94512 1.13944
3482 1 17.2841 19.2573 -0.621158 -1.29613 0.21891 -4.26326
3483 1 11.964 21.6349 -1.86139 0.298761 4.54581 0.460554
3484 1 3.56474 11.1228 7.84405 -4.49508 2.37855 3.03693
3485 1 2.2401 8.68821 -4.23933 -0.640614 -0.0522238 0.595838
3925 1 -22.039 4.64358 2.96727 0.122411 -3.21729 1.29963
3488 1 17.3553 13.6112 -13.2431 4.46144 1.23258 -2.32361
3489 1 18.8595 1.32992 -7.47571 2.2688 0.885232 3.64929
3490 1 -18.1259 3.97499 5.93253 -4.2159 0.690214 -1.02748
3491 1 -9.64696 8.30549 -21.7462 -0.0448719 -4.07105 2.2391
3493 1 5.5229 11.5119 17.3651 -2.21182 -1.349 -0.448818
3494 1 -17.1825 3.93984 22.3868 -5.13205 0.0820974 -1.09952
3496 1 -9.30018 8.49139 -15.419 -1.27708 0.778292 -2.45508
3497 1 -16.471 10.5436 18.0913 -2.05855 -2.04538 -2.15776
3498 1 -17.8449 12.9496 5.71327 3.02739 1.10415 -1.09644
3499 1 -21.5368 19.9982 -21.6739 -0.342163 -1.29174 -1.63785
3500 1 20.2705 15.5272 -7.39337 1.10418 -0.677866 1.66059
3501 1 -16.5536 17.2497 -7.02474 2.04241 2.68362 3.11271
3502 1 -5.43978 23.0072 -4.30166 -2.63668 0.169962 -2.21924
3506 1 -22.9505 18.5756 -4.0588 2.2518 -2.00416 -6.12424
3507 1 8.45969 9.06874 -9.49421 0.612964 2.53892 2.43715
3510 1 -12.265 4.59987 15.3898 0.452507 1.95066 -5.42582
3511 1 13.8456 10.1525 -1.89853 3.33106 -0.280459 3.41626
3512 1 -18.861 2.7294 3.44077 1.29609 -1.47226 2.1097
3514 1 -3.05074 19.1843 -9.15729 -0.779309 -1.60437 1.02148
3516 1 -19.9315 4.44841 -18.1721 -0.0373604 5.29756 1.71589
3517 1 -6.51279 17.6379 17.9778 -1.03977 0.894655 6.13259
3955 1 -6.74783 20.1215 11.7462 -2.97341 -0.512066 4.74189
3519 1 -2.68869 6.55031 16.4183 0.0327944 -2.69484 2.91047
3521 1 2.89093 14.4163 -14.2176 -2.11966 4.64557 0.707206
3522 1 23.7414 14.883 -23.8791 -1.91986 -1.80773 7.92656
3525 1 -16.4646 12.2135 -22.0565 -0.602354 2.94926 -4.47717
3526 1 10.1289 18.1648 -6.34652 -1.76552 -5.3664 -1.30623
3527 1 -1.31519 11.2021 6.34185 7.1756 1.95825 0.902982
3529 1 -20.7161 9.49583 20.9013 2.06725 2.29049 1.72257
3530 1 -11.1537 11.2383 6.89123 -0.307856 -0.857319 5.43863
3531 1 4.74969 6.21028 23.4944 2.57788 0.511855 -3.24045
3532 1 -7.71433 13.5484 -7.05914 8.20372 -0.904844 -1.20676
3533 1 15.9524 10.2025 4.79099 1.08389 1.7976 0.430495
3537 1 23.1754 22.7551 18.6584 -0.959762 -1.66781 -1.47809
3913 1 -7.85683 6.08519 0.824328 -3.11469 -2.76749 -2.79918
3540 1 -1.47047 13.2961 -4.30413 2.74363 -1.28978 1.16378
3541 1 12.46 0.225669 -22.5075 -5.49109 -0.239408 2.17908
3542 1 20.2951 0.691964 5.65601 2.56845 1.13987 -3.7087
3543 1 -15.3628 12.9384 -6.82283 -9.00373 -3.37125 1.72478
3544 1 -7.54914 20.5314 -2.5576 2.73044 -1.07066 -1.3727
3545 1 3.7409 19.5947 13.0991 0.698243 -2.01951 11.4292
3546 1 19.7765 13.1998 -9.0365 -5.89488 4.0616 -1.93223
3549 1 -11.1611 8.39332 6.12078 0.48165 -2.93127 -6.66205
3550 1 -15.2493 16.1363 8.81279 -4.68283 2.1617 -1.92512
3551 1 13.4929 1.6919 -20.1427 2.36639 4.51374 -1.9958
3552 1 14.8866 17.4296 6.85432 1.93026 -1.65756 0.0664224
3553 1 -9.06805 15.8135 -3.78834 4.40459 1.64743 -2.87564
3554 1 14.6875 13.5266 -14.7565 4.8807 -4.29372 -2.36662
3557 1 8.58679 7.32094 -18.5374 -1.86384 -2.57202 3.8982
3560 1 -17.2937 15.2224 -18.8497 -3.50129 1.66529 -3.87792
3561 1 -20.2109 20.739 4.13967 4.18712 1.21829 4.63329
3562 1 19.3048 11.2177 0.879362 -2.70331 4.68539 1.51088
3564 1 20.0421 11.0011 -14.4796 2.23244 -4.99958 -2.23229
3568 1 15.7059 0.132532 15.0513 -1.97323 1.95368 1.05348
3569 1 -4.48165 3.64971 -12.33 3.80615 -0.870121 -0.592589
3570 1 13.0328 22.1523 22.6766 -7.08463 -0.932776 -5.06243
3576 1 14.5485 3.44998 17.1978 3.19145 3.79835 -3.7021
3577 1 -7.33321 8.73814 -4.90008 -1.59767 2.80893 -0.517057
3578 1 21.8507 7.33704 19.7666 -3.11389 -5.59362 -2.06575
3581 1 -13.6274 8.66192 4.19054 2.23197 2.69374 -1.03674
3583 1 -16.9218 16.7686 6.4457 2.7859 0.0217389 -2.14419
3584 1 10.697 5.27074 23.9318 1.26641 -2.0819 2.00496
3586 1 14.8808 -0.254147 -8.02153 -4.83139 2.09425 -1.82383
3589 1 -11.8346 3.11171 -7.73838 0.979089 1.22163 1.29372
3590 1 10.3109 1.06483 -5.03755 -0.0924284 0.035439 -0.186627
3594 1 12.5993 -0.719349 5.93266 0.401929 -4.3057 -1.52894
3597 1 -4.05467 12.2878 5.353 -1.50251 1.94187 -4.57969
3599 1 13.9495 13.6507 -5.95256 1.31376 -2.74429 -0.0535672
3954 1 3.11896 2.30493 -15.7303 -0.164904 0.0343719 -0.410686
3911 1 21.5258 19.0522 0.273747 0.824503 -8.27399 0.777514
3604 1 11.5136 11.9342 -22.8688 1.8022 0.625258 -5.86904
3605 1 18.9151 20.5428 14.7676 1.47537 0.664322 -4.48525
3606 1 3.55017 8.06858 -13.008 -4.89976 -1.31364 1.46646
3607 1 -18.7819 6.04103 18.558 -6.54861 -0.843328 -1.15808
3608 1 19.5018 21.4287 -17.1914 0.208882 0.950255 1.6857
3610 1 14.0997 10.3598 -23.4076 0.581205 -2.7475 -2.72547
3611 1 -17.7556 20.9889 -16.4391 0.362454 -3.1388 -2.11613
3612 1 -2.32655 16.0206 -4.66566 1.41607 2.83125 1.99839
3613 1 2.36135 22.352 12.9291 -1.92384 5.95395 -0.87818
3615 1 2.09202 21.5129 2.07748 -2.09619 -5.54536 4.18087
3958 1 -1.77447 7.2701 -5.31831 -1.97785 -0.267902 -2.00643
3619 1 1.79864 20.3859 8.25935 -8.79632 -4.1531 -1.86916
3620 1 -3.42683 14.0759 -10.8257 -0.922503 -0.708425 2.34667
3621 1 -9.39702 12.6742 11.6198 3.26845 -1.85683 0.331857
3626 1 -15.2015 5.03059 -6.60361 1.70977 -0.238888 1.85636
3627 1 -3.84361 17.9269 9.08339 2.82327 -0.372953 -2.60904
3628 1 9.41983 -0.425339 8.262 3.59148 -1.426 -1.50744
3631 1 7.76057 9.81084 19.0255 -6.62519 0.775196 0.117368
3633 1 9.64486 8.05502 -4.18148 -1.24137 1.85381 2.61144
3634 1 -1.22926 2.90426 8.9576 -1.60059 -0.165583 2.35477
3637 1 -4.06906 11.9358 23.4229 -2.28452 -2.29615 3.27709
3641 1 5.30414 11.0853 20.2778 -3.04774 1.90822 -1.19463
3643 1 0.612353 4.08513 7.07898 -0.545502 -2.62499 -1.59984
3644 1 20.5386 20.4867 -2.53117 -5.7093 0.905614 -6.14092
3646 1 17.7952 2.7594 -17.3571 5.13306 -1.52939 -0.76186
3651 1 -10.2841 6.3364 11.2227 -0.0920929 1.86173 -1.41058
3653 1 -1.2289 17.4306 -2.45025 3.44472 1.97965 5.74579
3654 1 -19.0794 22.451 12.8471 4.23937 1.65523 -2.76812
3655 1 -8.23649 22.834 -13.8834 -6.18132 -2.50122 -2.51063
3657 1 22.613 22.2643 -10.7561 -1.40441 1.51642 2.52055
3658 1 22.4981 13.5997 15.0348 1.74979 7.43121 -0.6492
3659 1 20.0989 6.10237 -19.7365 -4.92258 -2.03226 1.96239
3660 1 16.0139 8.59822 10.4081 1.87235 -0.880892 -0.115738
3661 1 23.2118 10.497 -18.3815 1.69652 0.312385 -0.684685
3662 1 0.133335 0.148058 -22.7066 1.55795 -0.93619 -4.94617
3664 1 8.02126 16.1156 14.0704 0.996864 -1.24018 4.96214
3667 1 13.4078 16.7936 -17.0065 5.75448 1.39039 3.44701
3669 1 0.016963 21.4798 4.03525 -4.03703 -1.49209 4.1851
3670 1 14.1562 5.97115 -9.59093 6.40598 0.852864 2.23646
3671 1 -1.86941 10.091 -13.9435 -0.175773 4.97725 2.17512
3672 1 -13.4079 11.4018 12.0309 0.938982 3.03636 0.235199
3675 1 -13.7503 19.8744 -9.15587 3.6049 -4.47026 -5.75816
3676 1 17.2042 14.0419 -10.2216 1.53914 2.03135 0.0291339
3677 1 -6.92645 12.888 14.4301 3.35749 -0.589434 0.302422
3678 1 -18.5648 6.3313 14.1631 0.469078 -4.86721 -0.208047
3680 1 13.3668 5.09928 23.9939 1.54011 -0.17145 -0.581387
3681 1 -7.22091 0.346392 14.8692 0.984918 -5.54271 0.20342
3683 1 5.24653 10.5603 5.89069 4.32779 -3.89902 4.6001
3684 1 14.9997 16.4157 -23.5232 -1.906 2.9802 1.87477
3686 1 -22.5486 9.17519 -0.042946 -2.89191 0.885274 -2.94949
3689 1 21.4537 14.7086 -16.2585 0.807152 0.0225286 -1.28425
3690 1 -8.74464 6.78882 -6.22312 2.71252 -1.57352 -5.02198
3692 1 5.79449 -0.144146 -17.5077 2.01971 3.2094 1.81035
3985 1 -12.0714 19.6616 7.48625 0.29375 1.88854 4.48395
3694 1 -21.4992 3.25966 -8.11576 3.02957 0.0951882 1.35259
3696 1 8.14387 0.27677 -15.5586 0.444261 0.372693 -3.80791
3697 1 10.0834 4.76955 5.50875 -0.327777 -4.61349 -6.8996
3698 1 -22.9242 1.88139 15.2704 -0.94924 4.41969 1.62016
3703 1 21.9658 12.7423 -23.2831 2.15563 2.50937 2.34517
3976 1 -3.74149 13.6448 2.84073 -1.3537 -4.1076 0.0814378
3706 1 -12.7105 3.95249 -16.1567 -0.304631 -3.63395 0.314305
3707 1 18.1041 7.05537 -15.6704 1.1117 -1.25905 2.92071
3708 1 5.44325 1.51707 7.74513 -1.92064 1.74569 1.30533
3709 1 -19.0827 14.92 7.52312 -2.22187 5.65001 1.74494
3711 1 -12.1912 11.2441 15.9848 1.85632 -0.615729 -3.11138
3951 1 5.72754 1.26151 -14.2492 -0.380969 -8.45644 -1.66741
3713 1 2.1093 21.6143 5.97124 -1.20804 0.505228 -3.52528
3714 1 -11.918 0.765786 22.011 7.93278 -0.698752 1.17078
3715 1 20.3474 19.35 19.0433 1.16194 1.48764 0.678575
3716 1 6.72395 4.80459 -0.856989 -2.09698 2.50857 -5.51532
3717 1 -2.51548 15.6099 -18.9793 0.844163 0.890397 2.32903
3718 1 -17.9263 6.85128 2.54207 -3.16447 -5.91466 -0.641039
3719 1 -0.410893 15.0259 -6.66717 3.04073 -0.23265 -3.06202
3720 1 16.8655 15.6709 16.1135 -0.0270476 0.15876 -1.25766
3721 1 0.593387 18.8014 -9.57083 -0.412211 -0.212929 -6.83214
3723 1 7.60971 4.31031 -15.4529 1.73935 -0.352694 2.01676
3724 1 -5.41573 0.460892 -2.52963 1.10952 -5.75025 -4.23978
3725 1 -13.0898 21.3246 -3.60503 3.71349 -2.76956 4.39077
3732 1 18.4148 18.508 4.65139 -0.674565 0.873932 2.17482
3734 1 14.4693 13.2177 -9.46422 -2.04823 3.96896 -2.55137
3735 1 -7.46335 18.779 0.207683 1.73957 1.63141 -1.68747
3736 1 -22.4269 13.6447 -10.6377 -1.58925 2.05841 -4.04022
3737 1 -0.318214 4.9293 1.04842 -3.9124 -0.311203 2.71346
3741 1 -19.0427 11.5479 -5.4346 -1.00101 -2.81356 3.68065
3744 1 -16.5717 17.7107 2.73448 1.78895 -0.564231 3.73039
3747 1 -18.6067 22.4003 -18.5262 -1.78041 7.08985 -3.46213
2022 1 17.5764 22.2081 9.75603 -4.90764 -4.96931 -1.10811
3752 1 -19.3901 13.8621 -17.1259 2.26715 -2.73924 5.14815
3754 1 -11.0182 6.54215 8.39539 -1.79582 -0.0101893 0.585582
3755 1 17.496 7.06008 -8.97998 -3.73777 -0.443308 -3.06687
3757 1 -0.190907 22.2171 -0.0748573 -1.44689 3.69233 -3.44015
3759 1 -12.1448 8.75558 -20.7169 -0.393972 0.6857 -5.02452
3763 1 11.9841 9.61856 6.84769 -3.23761 7.45795 3.71693
3766 1 -12.0093 19.7079 13.1163 3.5621 -2.52091 -5.05998
3768 1 -1.88751 6.53845 -16.5136 -2.7064 2.91743 -4.02782
3771 1 -15.3318 18.7758 20.1266 6.88334 2.60696 -3.19737
3774 1 -8.07333 12.9177 4.45218 1.51596 -0.931113 3.78186
3778 1 5.89017 13.8616 -10.9241 0.580387 -4.64051 0.651187
3779 1 -9.90182 0.169648 7.73512 3.65943 -3.30589 -2.87795
3780 1 23.0769 18.803 -18.2802 -1.8605 -0.542405 2.75323
3783 1 20.692 19.8931 3.31031 -2.41614 -2.23154 -0.0760714
3784 1 12.9989 0.645407 3.19065 2.95185 -1.24537 -0.260813
3786 1 20.9371 6.89504 17.174 2.26486 -1.2327 0.788551
3787 1 10.5916 21.076 -16.4546 6.04982 -1.64169 1.08441
3788 1 6.73922 15.5914 8.72676 -2.80692 -5.54537 -3.91316
3791 1 -8.30017 17.0573 -12.7662 3.564 1.0631 1.24309
3793 1 -13.8084 20.9279 2.81736 -0.416073 -0.820167 3.48971
3950 1 -5.73112 0.00137445 -20.4994 -0.427687 -2.70174 0.245104
3798 1 4.47144 3.18094 -1.90317 -0.733654 2.51985 1.48264
3799 1 20.4508 20.7856 -7.18212 0.971822 5.663 0.148641
3800 1 14.2879 1.75954 -3.22355 -2.99988 1.75706 0.452338
3801 1 4.0008 15.0689 -9.12696 -1.61154 0.651366 -1.7833
3802 1 6.97941 0.377785 -22.4322 2.0344 -1.6349 5.63801
3804 1 13.5892 15.2207 10.7429 -2.43781 -5.06509 -1.81684
3805 1 -4.94734 16.6134 -17.898 -3.44165 -5.33114 4.69343
3806 1 -0.384645 1.74553 -3.94386 0.147013 0.653653 -3.03243
3807 1 -6.87875 20.9847 -18.4319 -3.89121 5.22297 0.159941
3813 1 17.6079 5.17087 -0.840576 2.32163 -0.292239 -0.285017
3814 1 3.79128 8.92599 11.0194 1.88374 -3.88393 8.98291
3815 1 0.555413 19.5095 22.8943 4.5741 0.877791 -0.369973
3817 1 8.36979 8.96771 -0.466486 3.28327 3.23076 0.223632
3818 1 12.3962 16.9562 23.8115 -2.98105 -1.43176 -5.17011
3819 1 4.31294 21.6108 15.1332 -2.57373 -2.13307 -2.13104
3820 1 23.1339 12.1892 -6.34496 3.14182 -1.86915 3.47021
3822 1 9.06546 6.71499 9.12779 1.5643 3.34765 -0.68134
3826 1 -0.879413 17.1422 -14.8998 -6.64297 3.91298 2.4091
3827 1 1.00507 6.7298 20.5436 6.27786 2.09818 4.94888
3828 1 -18.4902 17.759 -18.9112 -1.46758 0.892358 -0.0713155
3831 1 -3.08434 22.1898 -0.430065 -3.33972 0.492216 -1.03655
288 1 17.5827 21.9137 3.07155 0.343532 0.15893 -0.679129
3834 1 7.32748 5.85458 4.65065 -2.53567 0.0522753 -1.99007
3836 1 21.9948 12.009 0.0952948 -0.716911 -2.62319 2.27618
3837 1 10.9579 13.897 4.21004 3.29828 0.652113 -0.877253
3838 1 -6.99229 4.08316 -3.53437 -0.123887 6.38176 3.11924
3839 1 19.8226 5.49743 2.5169 -1.17058 -2.12998 2.35883
3841 1 21.8423 2.9049 11.4231 2.66159 -0.973544 2.93605
3842 1 -23.6974 0.693788 21.1562 -2.48613 0.147121 0.930239
3845 1 -3.61467 4.73191 -22.6662 2.07996 2.24183 -3.59476
3846 1 -21.1606 22.109 19.8662 -1.99085 -0.5818 3.38933
3849 1 18.2253 11.9983 -23.4628 -1.20722 -1.39484 -0.459892
3851 1 -3.32026 5.38402 -2.63829 -3.17227 3.1248 -1.22652
3852 1 -5.01941 19.6022 16.3283 -2.61738 2.50714 1.5986
3854 1 18.4295 11.9897 -3.03887 -3.47194 0.318193 -0.30663
3858 1 15.6992 5.86013 6.27552 0.986359 -0.0549192 2.92674
3859 1 22.1983 18.8223 10.2487 5.38326 -5.88618 2.66716
3862 1 -5.33785 0.946404 -17.7515 1.30245 0.243099 -3.65404
3867 1 23.151 0.932651 2.8767 3.66489 -5.73695 0.869318
3868 1 5.95576 7.72703 -1.51666 -2.07281 -2.5748 3.65627
3869 1 -7.96559 4.03027 9.37863 -2.40053 -4.86964 5.25438
3871 1 17.5735 0.535768 20.0623 2.30183 1.02927 -5.55084
3873 1 -3.64413 5.6555 13.8938 7.95696 -3.9189 1.70492
3875 1 23.8038 1.0725 5.74052 3.52508 -1.68334 -4.36096
3877 1 -22.7058 3.2364 -5.19284 -0.428534 5.14432 -2.92017
3880 1 -7.56354 19.6378 -23.7103 -1.77317 -6.95579 0.350543
3881 1 -15.4893 0.297597 -13.9024 -0.406316 -4.12886 -3.20864
3882 1 23.6372 17.3301 -2.58829 0.557295 -6.61864 0.717449
3883 1 22.0686 14.5759 -10.4664 1.49056 -2.1447 1.28402
3888 1 -5.80824 5.26104 -19.4505 0.268231 0.972962 3.25681
3889 1 -15.554 16.4293 18.7268 4.91928 -3.69011 1.63957
3890 1 1.66279 18.9192 15.1059 1.45961 0.313749 1.877
3892 1 -11.5472 22.0585 5.57471 -2.09346 6.26126 3.15344
3893 1 -7.0891 11.272 11.9618 -0.584763 0.918043 -3.27406
3894 1 11.622 11.659 -12.3346 -3.31163 -5.12537 -5.39245
3897 1 6.75835 14.0041 23.4644 -2.00276 -3.18527 -1.2631
3899 1 4.63169 8.67823 17.1587 0.25987 -1.42573 -3.1174
3901 1 -16.493 14.1749 -13.1815 -0.876191 -1.50947 2.51653
617 1 -12.3855 22.7084 -18.1822 3.87462 0.535173 1.4109
1981 1 16.9179 23.1747 -3.51218 3.98812 -1.09369 0.811749
2553 1 1.74536 23.297 15.5205 -2.59674 -2.62755 -2.05006
646 1 15.5321 23.206 15.3219 0.00615172 -1.7674 0.865697
2533 1 -14.2767 23.0864 -1.59823 1.85824 -4.01327 0.945273
1319 1 13.7318 23.3279 -0.47089 1.03253 -3.52728 5.20595
1122 1 -7.21452 23.3097 -2.01404 -4.29589 0.845233 -1.98319
2197 1 17.7647 23.0366 20.9428 2.97109 -2.71438 -4.5406
1526 1 20.8221 23.276 0.737478 -1.96378 -0.696136 -2.47463
1860 1 6.89135 -0.745363 8.97968 0.724405 2.34083 -2.84399
1755 1 -9.21104 -0.67241 -8.96221 5.37034 1.93508 4.25851
2038 1 18.9781 -0.786214 12.4053 -0.78907 7.01599 -3.63455
2472 1 -19.2174 -0.823995 13.7258 0.106206 4.11883 0.408736
650 1 -8.94725 -0.791586 19.6845 0.836467 -2.03002 -3.03511
517 1 -16.5066 -0.766052 -22.5801 0.0179181 2.14841 0.501503
1062 1 -8.74412 -0.80365 10.3279 -3.50231 -1.34464 -0.8305
2226 1 18.5671 -0.670665 15.4852 -2.84659 -0.0904194 0.237102
2974 1 23.1153 -0.807859 19.5226 2.35304 6.39975 2.37205
1023 1 9.42331 -0.81046 5.56101 3.6822 -3.9076 -4.81317
1593 1 1.88054 23.6798 -17.6872 -5.25048 3.26881 0.600574
600 1 -21.8413 24.5633 16.9704 5.86044 -6.32028 0.944719
103 1 20.3032 24.4882 20.3653 -6.56665 0.443466 0.911322
169 1 5.75006 23.4661 -12.1657 -0.874263 -1.3467 -2.21107
2627 1 15.8371 23.6846 7.85964 6.04168 -1.84528 1.31746
194 1 2.01525 24.7935 -21.5286 3.65474 -2.08541 3.01762
4358 1 7.67665 46.1287 6.16867 2.8757 -3.27228 -1.61471
4357 1 5.72577 44.176 5.2162 -0.598467 -4.20467 -1.60558
805 1 10.8203 23.8396 23.1772 -1.64555 0.521779 2.74305
2321 1 -1.98193 25.1125 23.3292 -4.25444 -3.08849 -5.38213
3750 1 13.6689 23.9064 -14.4102 2.22872 8.0637 2.76337
1683 1 15.3214 24.486 -16.628 1.166 -3.9291 -0.542432
4356 1 11.6226 43.6376 8.6225 -3.49159 -6.59301 -0.416912
4355 1 10.7348 46.0875 9.88563 -0.402208 0.768929 5.60322
2209 1 -23.7382 24.0345 22.1566 0.0330536 3.05978 -1.61343
769 1 15.5285 23.705 18.0969 1.71839 2.25166 -0.674606
4354 1 7.8008 45.6199 9.18574 4.35426 1.86532 -6.23529
1715 1 13.0819 25.297 17.0355 -1.0082 -1.83442 -3.70177
1468 1 20.4247 23.5606 17.4946 -0.338134 1.80734 0.703217
4353 1 5.9011 43.6844 10.473 -0.120111 2.79264 -2.81965
963 1 -15.9316 23.5674 -13.4485 -1.99456 -3.92106 -3.42284
974 1 0.344802 24.3297 -12.8594 -2.34515 -5.27072 0.643518
4360 1 11.3034 43.8315 5.91023 3.77275 3.0344 -3.12286
754 1 -13.2976 23.5042 14.6319 -2.66823 0.55603 -0.908331
3456 1 9.59065 23.5855 -16.0248 -3.31848 0.451176 -1.79791
4359 1 10.1704 46.5261 5.77836 2.99198 -0.807437 1.8894
443 1 20.0734 24.1771 13.3955 -1.80898 6.85566 -1.62806
3122 1 -12.6179 23.6787 21.5259 4.15983 -1.71786 2.89195
1503 1 9.33663 24.033 -23.2579 5.82718 1.87636 7.5732
1537 1 -1.89813 24.4049 -17.6305 2.07377 -1.16708 2.65932
1335 1 -14.8124 24.2014 -15.8423 2.74249 2.15923 -1.80906
903 1 -4.35802 24.1643 -20.8225 0.194848 4.61997 4.498
1701 1 12.6034 25.1639 -4.04875 0.301355 -0.880129 -2.04835
1705 1 -0.961796 24.3591 19.1147 0.183324 2.36302 -0.0059977
379 1 -23.8084 23.6633 2.08898 2.16071 -0.0652478 -2.16621
1734 1 -6.48026 24.4874 -22.6725 2.97584 2.23565 0.330882
703 1 6.83897 25.0023 -22.6192 3.86322 -1.95289 3.47602
1110 1 -11.106 23.9317 7.90533 0.361999 -0.52455 -3.16476
1964 1 20.6696 23.8538 -16.5713 -2.59443 -3.1564 3.47806
3021 1 -18.2802 23.7665 -1.07969 -4.70153 0.132557 1.30992
186 1 13.9705 24.1002 -9.92671 -1.63108 0.0251426 0.8166
2056 1 -4.58341 24.2221 24.1945 4.73659 -5.54528 -0.80151
2076 1 -13.2955 23.855 -8.62763 -0.32744 3.72982 4.74114
4352 1 10.0594 44.355 -2.17854 2.38714 -3.90235 -2.24163
2462 1 -12.2622 24.885 2.25108 -6.60296 0.560985 2.37203
3143 1 21.7351 24.0934 -21.9259 1.19417 -3.9395 0.330399
1917 1 -23.0351 24.2438 19.4767 0.226108 -1.19729 -2.79441
212 1 -16.3707 24.3573 -3.11108 -2.01854 3.50787 0.577721
4351 1 8.56237 46.321 -3.51648 -4.13685 -3.19365 5.35695
1253 1 15.0224 25.0335 -2.4488 0.378235 -1.50266 -2.42075
4350 1 6.07281 46.0928 -1.90299 1.42927 0.0596318 1.6492
4348 1 10.0852 44.749 0.597784 -1.88882 -0.862747 -1.86178
245 1 -9.8259 23.8924 -11.585 -3.74279 4.17834 -1.59594
2754 1 -12.4562 24.8828 -0.387737 -2.64892 -6.26471 -2.63057
2768 1 -5.35687 23.5975 0.3164 3.22953 -0.738269 -2.93825
2554 1 19.9543 23.5508 -8.17113 -2.75668 -4.65463 2.8426
4346 1 6.10044 46.4621 1.93956 -3.11612 1.64848 -5.01892
2344 1 12.9423 24.1562 3.73408 2.03146 3.18041 0.712785
1352 1 6.66724 23.5509 21.1732 3.00949 -0.918478 -1.22331
3063 1 11.0671 24.2582 -13.5857 2.56407 -2.21796 -3.08899
3712 1 17.8553 23.5702 -6.27169 0.633982 3.6821 0.840005
4349 1 4.65595 44.0954 -2.78041 -3.81146 0.0524247 3.84598
656 1 2.14393 23.8563 -10.7507 0.874313 0.771305 -0.822966
3524 1 0.480918 24.8602 -1.21168 -0.939424 1.02888 3.65477
2582 1 13.2203 23.87 9.04053 2.50311 -2.67231 -0.0762177
1516 1 -9.3751 24.3231 -23.5141 4.95935 0.408538 0.150729
3789 1 19.826 24.7632 -13.9046 0.779426 1.31995 4.88963
3885 1 13.1774 24.5595 14.0987 -2.10713 -2.33983 5.11937
4347 1 8.75889 47.2688 1.66263 1.80158 1.72546 3.87892
4001 1 -10.6395 25.0388 -4.72385 -3.42358 2.12288 3.64267
4002 1 -9.66985 27.8136 -5.51269 1.23154 -2.1144 1.92357
4003 1 -6.75408 27.5165 -4.70972 0.315173 -4.05104 -0.194523
4004 1 -5.4546 25.2788 -5.95879 -2.2835 2.41764 0.838558
4005 1 -10.53 25.0614 -9.09522 0.127481 -1.42281 1.03925
4006 1 -9.55543 27.4374 -8.31719 -0.0942771 -4.44805 2.31506
4007 1 -6.96703 27.9773 -9.25141 3.24238 -3.41851 -2.6302
4008 1 -6.17837 25.4899 -8.71518 -9.31439 -3.57877 -0.536428
4009 1 -9.96025 25.8116 3.39213 -2.2202 -4.03563 -3.69341
4010 1 -8.65011 27.6609 1.98663 0.184537 1.85548 1.45143
4011 1 -6.07101 28.1478 3.25515 0.798854 -1.1196 -1.27096
4012 1 -4.70582 25.8722 2.21781 -0.357546 -0.826351 0.118625
4013 1 -9.80395 25.0199 -1.88169 -0.639613 -3.4984 -0.902292
4014 1 -8.88672 27.4837 -0.631536 5.71794 -3.3182 -4.33105
4015 1 -6.4225 27.6551 -1.9606 -0.113245 2.30672 4.77732
4016 1 -4.28171 26.2046 -0.795746 -4.00264 4.38855 0.464548
4017 1 -9.09307 24.4913 10.1587 3.96069 0.203291 -0.406172
4018 1 -8.15436 27.2448 9.87192 -4.92774 0.351133 -0.853315
4019 1 -5.51477 27.8232 10.361 -1.19897 0.648871 0.175508
4020 1 -3.82643 25.7724 9.9228 2.22097 -0.192576 -5.0031
4021 1 -10.2174 26.0666 6.00113 6.19961 0.0233634 -2.84179
4022 1 -8.24223 27.4602 7.16619 2.1822 2.9135 1.07984
4023 1 -5.71603 27.823 5.86864 -2.41846 -1.61109 -1.50692
4024 1 -4.51704 25.7084 7.0183 1.52302 2.64786 3.90294
4025 1 -10.3635 30.0504 -4.18133 -1.42361 0.256487 -3.8984
4026 1 -9.58629 32.4886 -5.5342 -0.118928 0.923446 -0.560614
4027 1 -6.99678 32.1143 -4.8705 -2.51975 1.92419 -0.80796
4028 1 -5.61144 29.8849 -5.71437 0.76597 2.54269 -1.92584
4029 1 -11.1576 29.7615 -8.93248 -0.076213 1.61419 2.29416
4030 1 -10.0962 32.2107 -8.18445 -3.15471 2.60432 -1.83228
4031 1 -7.35977 32.2762 -9.0045 -4.34594 -0.0486841 0.162809
4032 1 -5.67077 30.1831 -8.46178 0.00458606 5.35949 -1.2054
4033 1 -9.12619 29.9507 3.59165 1.95728 -3.1054 2.14564
4034 1 -9.03689 32.3356 2.28012 2.43088 6.04597 -0.725979
4035 1 -6.22988 32.6867 2.80207 -1.14831 -2.81536 0.950157
4036 1 -5.16075 30.3492 1.78031 -0.387494 0.359046 3.59305
4037 1 -10.3618 29.8071 -1.42617 0.867927 0.144593 1.26078
4038 1 -9.14323 32.3191 -0.439672 -0.674929 6.10481 0.848678
4039 1 -6.96113 32.3509 -1.96194 0.415605 -0.900922 -2.33242
4040 1 -5.3881 30.1028 -1.05504 -0.111154 -1.15476 -2.17416
4041 1 -9.65972 29.6562 10.4235 2.66535 2.88928 4.82045
4042 1 -8.55691 32.0274 9.55822 0.800736 1.02062 -0.99371
4043 1 -5.99757 32.218 10.0125 -1.56078 -1.24125 -1.14187
4044 1 -4.37971 29.9988 9.09201 -2.92352 -4.28437 2.67495
4045 1 -9.77034 29.5682 6.32227 -1.3432 2.80381 -5.32943
4046 1 -8.66738 32.2613 6.79078 5.52685 -2.58646 -1.99321
4047 1 -6.23054 32.2742 5.4303 0.0626378 -1.99577 -2.4322
4048 1 -4.46254 30.2386 6.25939 -1.97337 -3.57727 0.458499
4049 1 -10.874 34.518 -4.13128 -3.13056 -0.299513 0.697686
4050 1 -9.88019 36.6802 -5.4021 -2.93047 1.21833 -0.468552
4051 1 -7.23725 36.7116 -4.4547 0.695334 -5.59017 2.72663
4052 1 -5.68867 34.3732 -5.8144 -0.842086 1.33029 -1.11366
4053 1 -11.5472 34.3668 -8.55337 -3.46338 8.68958 2.57547
4054 1 -10.3502 36.7132 -8.15182 0.164356 2.79024 -0.610409
4055 1 -7.60181 36.8333 -8.98776 8.47151 -1.91108 -1.68405
4056 1 -5.94945 34.6415 -8.44827 -5.49489 0.207862 -1.99415
4057 1 -9.70751 34.6955 3.2783 0.699946 -1.82175 1.09956
4058 1 -9.21882 37.1054 2.31432 -3.66711 -2.39598 3.25179
4059 1 -6.50373 37.1123 3.15548 0.726838 -5.82179 1.07109
4060 1 -5.19108 35.1434 1.73197 0.558309 -1.2748 0.862549
4061 1 -10.1377 34.651 -1.66915 -0.779909 1.8771 -1.3222
4062 1 -9.23633 37.0076 -0.497558 -0.661093 -0.104237 1.96558
4063 1 -6.54689 37.1346 -1.73201 -0.354997 2.90451 -0.811778
4064 1 -5.51774 34.6378 -0.940509 -3.2027 -1.76873 -6.20305
4065 1 -9.7776 34.3062 10.7922 -1.00153 4.05764 -0.794583
4066 1 -8.58222 36.7064 10.011 3.3363 1.20953 -1.81243
4067 1 -5.82725 37.1956 10.2909 1.2151 1.18296 -3.37747
4068 1 -4.81446 34.6162 9.44895 -0.794683 -2.56853 1.75526
4069 1 -9.7592 34.6936 5.93857 1.0376 -0.613183 0.214056
4070 1 -8.77886 37.2311 7.09071 0.823314 -1.6118 -1.12578
4071 1 -6.29208 37.1447 5.86151 5.71805 1.67345 2.61449
4072 1 -4.86201 34.8605 6.41249 0.350499 -2.92691 0.242216
4073 1 -11.0178 38.9254 -4.16383 1.89532 -0.674564 2.22005
4074 1 -10.1083 41.3863 -4.99337 -2.27351 1.50092 1.29955
4075 1 -7.35089 41.2771 -3.96065 1.34031 0.130908 -2.09112
4076 1 -6.17186 39.1402 -5.30766 0.596587 0.906813 -0.0404524
4077 1 -11.7486 39.1537 -8.49253 4.40639 -1.79627 -0.914085
4078 1 -10.7981 41.6788 -7.79389 -5.35227 3.61095 3.66043
4079 1 -8.21761 41.3902 -8.64812 -1.62542 -4.105 -0.232066
4080 1 -6.27492 39.0864 -8.01859 -3.13862 -1.05774 3.08179
4081 1 -10.8515 39.2001 3.35781 4.48389 1.21308 2.89426
4082 1 -9.72718 41.6805 2.68922 4.70773 -4.33464 4.04935
4083 1 -7.00464 41.5082 3.36052 3.11446 -1.64095 -3.46938
4084 1 -5.3707 39.5151 2.43597 1.65591 -0.979306 -3.87238
4085 1 -10.6565 39.2093 -1.36533 -2.45646 0.974941 2.21167
4086 1 -9.70798 41.4611 -0.117949 -2.07131 0.733052 -5.02144
4087 1 -7.005 41.5891 -0.987653 0.984093 -1.50387 -0.864963
4088 1 -5.53951 39.4017 -0.291603 1.01712 -1.78075 -1.01001
4089 1 -9.43841 39.172 11.4886 -1.45092 -0.908898 -2.29891
4090 1 -8.82609 41.4331 10.1453 0.11401 1.70586 1.97082
4091 1 -6.05221 41.7903 10.5802 -0.853918 6.06052 -3.67356
4092 1 -4.60912 39.4636 9.31875 -1.95517 -0.538825 0.955855
4093 1 -10.1568 39.2079 6.00645 -2.75068 0.634244 6.67286
4094 1 -9.15183 41.5254 7.30946 0.0805218 -6.30737 0.0400348
4095 1 -6.49338 41.9295 6.21284 0.609311 4.68869 2.39898
4096 1 -4.97803 39.4515 6.43284 -1.17306 2.82762 -0.548115
4097 1 -10.7723 43.7512 -3.80537 -1.76576 3.43097 0.625968
4098 1 -10.3658 45.8598 -5.35978 3.95743 0.129123 0.683052
4099 1 -7.94115 46.0888 -4.04927 3.71758 -1.23454 0.549628
4100 1 -6.28262 43.7219 -4.79569 4.93514 -7.05939 3.5436
4101 1 -11.7439 44.4905 -7.47513 -0.726082 -0.190302 -3.61943
4102 1 -8.95031 45.3292 -7.76455 -6.68593 3.16553 2.73276
4345 1 5.11434 43.8888 2.30834 -1.71313 2.39676 4.75479
4104 1 -6.76482 43.6365 -7.61854 -1.61391 -2.87344 -0.327767
4105 1 -10.9928 44.1008 4.04676 4.56077 -5.92688 0.487494
4106 1 -9.99528 46.348 3.05499 -2.47335 3.91571 4.67342
4107 1 -7.15952 46.4374 3.66977 3.62505 -7.04624 0.526123
4108 1 -5.61779 44.056 2.62711 -0.349133 1.93088 1.3485
4109 1 -10.2684 44.2042 -1.05863 4.39873 0.45645 -2.96858
4110 1 -9.90731 46.5589 0.370572 -0.216868 -6.62289 0.588693
4111 1 -7.56748 45.6099 -1.10561 3.7747 -1.13979 -0.0769852
4112 1 -5.77952 43.7796 -0.194266 2.53663 4.73543 0.0683594
4113 1 -9.8734 43.8494 11.19 -3.44097 0.847618 -5.20293
4114 1 -9.04735 46.6072 10.1966 -2.2123 -2.76169 -4.77659
4115 1 -4.71098 47 10.9636 -2.20903 -2.19176 2.29135
4116 1 -5.06052 44.4125 10.0015 -1.73587 2.06465 -3.29256
4117 1 -10.8126 43.549 6.8294 -0.0459602 -0.216294 -4.67672
4118 1 -9.26454 45.9217 7.31255 -0.902929 0.812764 0.815722
4119 1 -6.73881 46.4496 6.37785 -1.38013 -4.63635 0.196037
4120 1 -5.09779 44.0715 6.99464 3.39311 -0.485342 -0.414669
4121 1 -2.8039 25.5384 -4.9315 -2.70664 1.98906 -4.65109
4122 1 -1.72481 27.7814 -6.11266 -3.57614 1.37092 -5.69657
4123 1 0.92069 28.0807 -5.40861 -4.44361 1.45625 -6.56538
4124 1 2.40457 25.8946 -6.58758 -2.65759 -0.98769 -0.478192
4125 1 -3.55335 25.8156 -9.52818 1.25667 -4.86389 -1.08809
4126 1 -1.78336 27.9017 -8.85971 0.260465 0.143975 -1.73413
4127 1 0.973194 28.029 -9.79099 4.14479 1.50345 2.76698
4128 1 3.13153 26.0768 -9.39958 1.72224 -3.77998 5.34936
4129 1 -2.00502 25.7908 3.44952 -0.419706 -1.38197 0.602618
4130 1 -1.08991 27.8726 1.63064 7.97472 -2.78263 0.264441
4131 1 1.6833 28.3769 2.46134 1.44778 -1.90071 3.50787
4132 1 2.40221 26.1272 0.695725 -2.55771 3.4467 1.07395
4133 1 -2.12908 24.9491 -2.38367 -2.63879 3.2084 1.20925
4134 1 -1.51035 27.9585 -1.13507 0.820057 -0.745226 0.741857
4135 1 0.822105 28.7007 -2.76012 -5.37735 -2.30004 0.0607845
4136 1 2.60782 26.7447 -2.08375 2.08477 -2.3426 1.46475
4137 1 -1.34764 24.7892 9.07433 -1.95442 -0.63081 6.49992
4138 1 -0.437687 27.4534 9.00726 4.2917 0.305966 2.43225
4139 1 2.26394 28.0575 10.1353 -3.13846 2.00823 2.49855
4140 1 3.94974 25.9923 9.28111 1.20262 2.66594 -1.21383
4141 1 -1.86101 25.4835 6.38389 -5.42045 3.92245 0.325639
4142 1 -0.46056 27.9692 6.23036 -1.9168 1.72899 -4.76981
4143 1 2.07853 27.9307 5.1449 3.4965 -4.5385 2.50717
4144 1 3.48287 25.9518 6.43928 4.8408 0.355274 0.932454
4145 1 -2.85426 30.0271 -4.83141 -3.32585 0.369688 -3.19676
4146 1 -1.88281 32.3421 -6.1486 -5.39846 6.01632 1.63434
4147 1 0.857385 32.5529 -5.13118 -2.48614 -1.18423 -0.682186
4148 1 2.23442 30.3164 -6.2693 -3.83292 -0.00413863 0.0668177
4149 1 -3.14426 30.2915 -9.39755 1.57252 2.02651 0.133593
4150 1 -1.93185 32.487 -8.75633 2.67278 0.275493 0.375549
4151 1 0.66988 32.8526 -9.66363 -6.29511 4.26463 1.77998
4152 1 2.02453 30.4689 -9.01845 2.05652 2.73587 1.60723
4153 1 -2.44235 30.2799 2.42599 -1.34924 -0.53078 -4.01476
4154 1 -1.48696 32.6632 1.44477 -3.02169 -3.4405 2.77985
4155 1 1.50759 32.8568 2.37691 -5.41763 2.29507 1.60076
4156 1 2.71354 30.5603 1.35076 -2.62251 5.43034 -0.329473
4157 1 -2.88278 30.2931 -2.07611 -6.36241 -4.13527 -1.25513
4158 1 -1.614 32.6931 -1.28563 0.754151 3.81279 -1.07262
4159 1 0.915045 32.7332 -2.42167 -1.34263 -0.437531 0.934011
4160 1 2.65633 30.6158 -1.32735 -1.52689 -1.19674 5.5261
4161 1 -1.56078 29.8843 9.43203 -3.65334 2.35419 -2.4119
4162 1 -0.636704 32.4129 9.13922 5.48056 1.55209 -1.78822
4163 1 2.30278 32.2973 10.0491 -2.3573 0.818183 -0.611994
4164 1 3.61873 30.2108 9.00892 -0.805506 0.212122 0.785359
4165 1 -1.89173 30.2451 5.19206 -0.7948 -0.63845 -0.639586
4166 1 -0.920645 32.605 6.26272 1.80574 -2.75351 -3.8453
4167 1 1.79544 32.4234 5.11346 -3.48853 -1.98739 0.386779
4168 1 3.06959 30.353 6.11795 2.15789 1.25816 -2.13331
4169 1 -2.91465 34.6117 -4.95008 0.295824 -1.1912 0.687428
4170 1 -2.03526 37.1985 -5.56542 3.14138 4.30654 5.25127
4171 1 0.604086 37.0155 -5.04487 -5.741 1.6289 -1.30767
4172 1 2.11476 34.8498 -6.2854 3.56018 0.662403 -4.09643
4173 1 -3.19204 34.8464 -9.29902 0.297534 -1.03291 1.43782
4174 1 -2.20955 37.1539 -8.45843 0.135622 -3.15625 3.11376
4175 1 0.451285 37.3346 -9.55741 0.486295 -0.867166 1.29722
4176 1 2.07068 35.069 -9.13393 1.87962 3.95139 1.44705
4177 1 -2.58858 34.9333 2.64829 0.162264 -0.703186 -3.29573
4178 1 -1.27261 37.3694 1.75846 -0.92203 2.83227 1.52523
4179 1 1.4505 37.4815 2.65556 1.68026 2.81897 -4.54725
4180 1 2.91829 35.0867 1.25655 -2.15407 -2.20941 4.78328
4181 1 -2.91183 34.9482 -2.14988 -0.0228976 -0.56821 -0.158249
4182 1 -1.6466 37.0786 -1.09987 -2.77488 -1.20091 3.477
4183 1 1.00814 37.1235 -2.26698 -0.594272 -3.23604 0.00820657
4184 1 2.79345 35.0075 -1.52536 5.60396 2.5857 0.793034
4185 1 -2.00838 34.7876 9.93108 -1.56956 -0.523505 -0.196474
4186 1 -0.0708229 37.1126 9.00059 -1.14894 -3.61036 0.180181
4187 1 2.45018 36.7422 9.97402 0.783574 -1.82611 -3.87092
4188 1 3.68186 34.4729 9.10815 3.57398 1.97358 1.28286
4189 1 -2.2154 34.9476 5.40773 1.31927 -6.30376 0.343952
4190 1 -0.582912 36.9741 6.26092 1.46499 2.05618 0.356963
4191 1 2.03852 37.1167 5.42052 0.0942876 1.91324 2.07569
4192 1 3.38732 34.6337 6.30935 -1.51764 1.30302 0.286524
4193 1 -3.39451 39.4473 -4.80018 4.22592 3.14138 -1.69343
4194 1 -2.10978 41.7507 -5.68056 -1.55121 -4.29545 -1.01868
4195 1 0.634302 41.8038 -4.86638 -0.769028 -9.96319 1.39551
4196 1 1.80932 39.5379 -6.12262 3.08187 2.91874 0.862826
4197 1 -3.85134 39.3103 -9.21556 2.17624 0.662558 3.30875
4198 1 -2.53056 41.6721 -8.49432 -0.307782 -2.23107 -1.43928
4199 1 0.0172101 41.8708 -9.3755 -0.482764 -4.79836 -0.450397
4200 1 1.72542 39.6984 -8.99511 -2.44557 3.13212 -5.09642
4201 1 -2.6499 39.6106 2.63646 -4.9622 -4.34833 -2.3644
4202 1 -1.59525 41.9446 1.65304 1.49124 2.91507 4.22582
4203 1 1.25222 41.8465 2.35698 -1.22581 -1.88483 -2.60538
4204 1 3.03497 39.5062 1.38237 -3.56179 2.18145 -2.0364
4205 1 -3.25685 39.4913 -2.04508 0.63422 -1.45297 -0.0995215
4206 1 -1.87138 41.7905 -1.17818 -7.3287 1.29895 2.07074
4207 1 0.745854 41.5571 -2.1892 4.2328 1.35568 -4.08267
4208 1 2.48026 39.3061 -1.37447 1.22757 1.05519 3.42222
4209 1 -1.86253 39.2364 9.75155 -1.9146 -0.279667 -0.522956
4210 1 -0.502507 41.4703 8.97429 -1.92615 -0.0690891 3.04232
4211 1 2.09424 41.1209 9.66883 2.15651 -5.174 -2.17079
4212 1 3.54104 38.8652 8.57544 0.689106 -0.0373222 -1.64227
4213 1 -2.29557 39.0997 5.51497 1.88765 2.72408 -3.41774
4214 1 -1.02354 41.5677 6.31095 -1.26434 1.9228 -1.4323
4215 1 1.55123 41.6374 5.01067 0.0308778 -4.3023 -3.16128
4216 1 3.28644 39.372 5.86059 -0.965515 1.76722 -4.17042
4217 1 -3.47274 44.0203 -4.55947 1.96166 -2.82491 -3.40353
4218 1 -2.39902 46.2434 -5.91842 0.238506 2.56356 8.45381
4219 1 0.297449 46.4537 -5.02937 1.29004 -1.32021 -3.23169
4220 1 1.57886 44.2488 -6.01715 -0.741088 -3.25067 -1.2338
4221 1 -4.35217 43.6279 -9.01866 -2.79182 -2.71923 -1.83888
4222 1 -2.99208 46.2622 -8.74012 -0.332059 -1.55617 1.75281
4223 1 -0.451315 46.1735 -9.76091 -0.51018 4.14316 -3.19703
4224 1 1.30607 44.1326 -8.68991 1.11082 2.76294 -0.201382
4225 1 -2.82721 44.0097 2.94803 3.23837 2.25679 0.831774
4226 1 -1.11333 46.0769 1.73551 5.05063 -0.172442 2.60994
4227 1 1.54856 45.9471 2.81182 -1.87527 0.90839 2.43059
4228 1 2.47771 43.9811 1.27942 -0.942723 -1.19185 4.1321
4229 1 -3.30977 44.0917 -1.61606 -1.05474 -4.01842 -0.579485
4230 1 -1.69796 46.355 -1.12208 -2.53466 2.25138 -1.69743
4231 1 0.787703 46.156 -2.20869 1.24789 4.64559 -1.62578
4232 1 2.22289 43.9279 -1.55017 2.47829 -2.65228 -1.9341
4233 1 -2.24328 43.3272 10.1703 -0.080781 4.52687 -0.857528
4234 1 -0.918226 45.8902 9.6974 1.52222 -4.07408 -1.3855
4235 1 2.24434 45.872 9.96246 -2.73679 -0.702257 1.01141
4236 1 3.44096 43.4603 9.15925 1.17797 -0.104758 -2.49557
4237 1 -2.50332 43.9303 5.64348 -1.07463 3.28363 -1.5913
4238 1 -0.993451 45.9674 7.00571 3.97775 -0.722005 5.87888
4239 1 1.4049 45.7329 5.60018 0.371845 0.130582 -3.51316
4240 1 3.05323 43.6348 6.45503 -2.07433 -0.457982 -1.89938
4241 1 5.31497 25.6652 -5.85094 0.172344 1.06058 1.57869
4242 1 6.54442 28.0059 -6.66695 4.91712 -1.52003 -1.31379
4243 1 9.21387 28.2746 -6.05606 -0.704887 -0.70216 4.65096
4244 1 11.1593 25.9573 -6.45203 -5.11326 0.230344 -3.16479
4245 1 5.8703 25.6595 -10.1043 3.17051 0.514077 -2.22124
4246 1 6.4241 28.2232 -9.44141 2.17601 -2.37705 0.00159078
4247 1 9.07592 28.3614 -10.3849 -1.8174 1.31027 0.801946
4248 1 10.69 26.3465 -9.35179 -4.08244 2.20385 1.44486
4249 1 5.03121 26.0408 1.84473 0.285364 -4.42936 -0.0875042
4250 1 6.49122 28.0371 0.987045 0.852486 0.872681 -4.34537
4251 1 9.20106 28.2983 1.4484 -1.68569 0.284455 -0.240926
4252 1 10.3184 26.1214 0.135589 -1.46268 4.198 2.07534
4253 1 5.18937 25.9517 -3.08598 1.26486 -3.39947 1.04734
4254 1 6.602 27.78 -1.73746 -0.0843285 1.85542 -1.70983
4255 1 8.99402 28.5839 -3.24285 -0.333213 -1.21905 -3.2004
4256 1 10.939 26.6195 -2.45931 -0.667952 3.01104 -2.38677
4257 1 6.4836 26.3371 9.90497 0.809905 -0.400805 3.20864
4258 1 8.14966 27.9676 8.35118 -2.28973 0.0372572 4.06144
4259 1 10.9032 28.291 9.19879 -2.80759 -2.16188 3.39445
4260 1 12.2147 26.164 7.92626 2.42727 0.0035741 -2.94061
4261 1 5.63486 25.9821 4.68741 1.12894 -0.120804 3.84965
4262 1 7.18926 27.9832 5.49479 -2.09439 1.49775 0.48786
4263 1 9.65695 27.7353 4.23083 1.92537 4.61319 0.0287388
4264 1 11.2309 25.7573 5.17196 -2.87793 0.339144 -4.82064
4265 1 5.0735 30.4119 -5.56361 1.9229 -2.65077 -3.33338
4266 1 5.86011 32.9219 -6.82134 1.54812 -4.02667 1.54581
4267 1 8.55639 32.9595 -5.89816 3.96567 -1.07936 4.32029
4268 1 9.82356 30.8923 -7.21644 -6.56713 -5.50751 3.34228
4269 1 4.58078 30.2319 -10.1658 -2.917 4.36881 5.60056
4270 1 5.84117 32.7263 -9.60734 2.03771 -2.82658 -1.96285
4271 1 8.33465 32.9334 -11.1625 3.32749 -4.2052 -3.4177
4272 1 9.93986 30.915 -10.0323 2.80773 -3.1326 -3.08164
4273 1 5.55707 30.2423 2.11133 0.871608 3.76905 -2.0143
4274 1 6.74591 32.6534 1.12623 -0.223251 -4.86201 -3.60908
4275 1 9.47438 33.058 1.32915 -1.37781 -2.15956 -3.49668
4276 1 10.4572 30.6286 0.509007 -1.31003 2.41085 4.04498
4277 1 5.15218 30.1406 -2.55658 -4.39444 3.89802 -0.631412
4278 1 6.54505 32.3966 -1.76447 -4.27981 -0.959026 -3.50342
4279 1 8.71035 33.2263 -3.10838 -2.91242 -4.25906 0.604752
4280 1 10.0316 31.0247 -2.18464 2.17379 0.819217 1.3809
4281 1 6.29176 29.9634 9.07433 -2.15842 4.26621 0.550528
4282 1 7.71608 32.4502 8.50349 -7.21925 0.583494 -0.313451
4283 1 10.3694 32.6998 8.97587 6.0263 1.70777 -2.15871
4284 1 11.5382 30.5106 7.72287 -2.67434 3.55027 0.911814
4285 1 5.72535 30.242 4.79633 -1.17796 -2.23926 -0.877387
4286 1 7.27966 32.4852 5.63259 -3.4138 -0.301159 2.15936
4287 1 9.91718 32.6791 4.1412 -7.77601 1.14456 -1.32197
4288 1 10.7434 30.279 5.17588 4.70316 8.3965 1.26075
4289 1 5.05347 34.9744 -5.37568 -1.99966 2.51853 1.20835
4290 1 5.87948 37.5512 -6.52415 -0.564672 -2.53101 -1.81087
4291 1 8.56867 37.6915 -5.94354 -4.08132 -2.16137 -1.49399
4292 1 9.5668 35.3049 -7.06163 0.490228 3.48353 -1.89487
4293 1 4.54971 35.0904 -10.1875 3.54271 2.41802 -1.1794
4294 1 5.60239 37.2806 -9.30505 -3.53242 -0.695916 -0.279053
4295 1 8.26543 37.6537 -10.5221 -1.85043 4.40341 -3.49685
4296 1 8.49711 35.1055 -9.56159 3.29803 1.42015 1.22533
4297 1 5.66194 35.0548 1.85912 -0.313869 0.88187 4.25254
4298 1 6.92143 37.3269 0.757877 3.9382 2.60928 -2.86713
4299 1 9.55196 37.5422 1.52006 -2.39239 -2.37456 1.06435
4300 1 10.6847 35.4325 0.348348 -5.47156 -1.65693 6.33675
4301 1 5.31764 34.7116 -2.59504 -1.76218 1.75673 2.3469
4302 1 6.31489 37.3756 -2.07069 -1.53469 -2.41136 -1.56005
4303 1 8.83649 37.8573 -3.1059 -2.35183 1.40142 0.573017
4304 1 10.098 35.505 -2.35347 3.34628 2.77844 4.02507
4305 1 6.51647 34.6755 9.21725 3.48245 3.14574 -3.51508
4306 1 7.96393 36.8976 8.55046 0.98031 0.902541 2.93876
4307 1 10.7348 36.9876 8.9678 1.21016 -4.08588 -1.14474
4308 1 11.8124 34.7258 8.05733 -0.208606 -2.11063 4.51496
4309 1 5.66167 34.8367 4.82525 -4.26943 2.2536 4.69298
4310 1 7.25372 37.0472 5.87548 -8.77341 -3.05983 -1.72294
4311 1 9.7598 37.1174 4.19477 3.11726 -5.99199 -1.35115
4312 1 10.9562 34.9613 5.29946 4.49957 -1.39021 0.489724
4313 1 4.58677 39.9053 -5.32061 3.63917 -2.33213 -0.621688
4314 1 5.92426 42.0524 -6.54251 -4.23284 6.74297 1.0102
4315 1 8.63831 42.227 -6.01299 0.771502 -0.168446 -0.675703
4316 1 9.61981 39.8043 -7.26679 3.72617 -6.08638 0.113581
4317 1 4.31897 39.6647 -9.6397 -3.86953 -1.75547 -0.72419
4318 1 5.68552 42.0621 -9.31503 -7.74426 -1.3448 2.11525
4319 1 8.14124 42.1328 -10.9051 -2.44774 -2.68301 7.14668
4320 1 9.34218 40.0545 -9.99816 -2.50943 4.84271 4.36874
4321 1 5.64303 39.7532 2.00645 -4.16677 -1.45163 1.6973
4322 1 6.68759 42.0263 1.12972 2.74766 5.77983 -4.48533
4323 1 9.30209 42.303 1.86863 5.89883 4.01253 -4.042
4324 1 10.5004 39.8995 0.66734 -1.62651 0.0789724 2.65354
4325 1 5.00734 39.8289 -2.57425 -2.17048 -0.457846 -0.606098
4326 1 6.38461 42.1225 -1.63881 3.04829 -1.29505 3.15963
4327 1 8.72779 42.1561 -3.20479 -1.47981 1.06252 -1.76372
4328 1 10.2367 40.0288 -2.20868 -1.72872 -1.35971 0.842268
4329 1 6.17509 39.0329 9.26979 7.68186 -1.79939 -1.26148
4330 1 7.39493 41.7712 8.74292 0.0685123 -4.20777 -2.18483
4331 1 9.99866 41.4092 9.54591 -3.95943 0.87429 3.35101
4332 1 11.3112 39.5168 7.87948 -0.360902 -4.58132 2.73713
4333 1 6.00145 39.3523 4.8217 -0.841833 -1.10496 -1.29819
4334 1 7.01399 41.7279 5.68864 2.57367 -3.11018 -1.51771
4335 1 9.7249 41.8646 4.64482 -7.83662 -0.742868 -1.28632
4336 1 11.0767 39.4191 5.0553 1.55859 2.29234 0.929365
4337 1 4.4832 44.1564 -5.56736 2.71764 1.05215 -1.09737
4338 1 5.70292 46.3702 -6.94725 3.91085 2.86947 -0.314545
4339 1 8.293 46.6252 -6.08448 4.08894 -0.680072 1.17058
4340 1 9.66177 44.4783 -7.23759 4.29109 3.32828 -5.38742
4341 1 3.79799 44.0398 -9.61463 1.65593 1.91013 -7.49742
4342 1 5.02532 46.4945 -9.73441 4.27672 1.75186 -1.18834
4343 1 7.37561 46.1169 -11.4037 0.614655 -1.29874 0.682133
4344 1 9.239 44.5918 -10.1675 -0.810519 -2.0768 -0.27232
25 1 7.22747 24.9705 16.1654 -0.0871354 -1.04091 4.78891
1071 1 -19.9304 24.1365 -12.3452 -1.65686 2.10999 0.810211
2600 1 3.96701 23.4266 0.925471 2.07367 5.44211 1.05268
2388 1 9.46992 23.4357 20.8253 -0.255269 -3.90048 3.2813
2935 1 8.52504 23.618 -0.295846 -2.57589 -4.45408 -1.92369
2611 1 -21.6859 24.6894 -20.3355 2.56053 -2.97733 1.01987
395 1 -10.0507 47.2575 20.012 -0.860753 0.0529544 -3.84718
2853 1 -2.81388 23.7203 20.8589 -3.98214 -0.690458 1.66091
604 1 0.231166 24.1341 -23.97 1.86717 -1.04805 -6.31384
2471 1 -1.80259 23.381 -22.1884 5.8735 0.235675 2.07761
1397 1 5.82063 23.7008 -8.03207 1.73957 -2.64406 1.80363
1374 1 -17.6358 24.0666 17.4228 -0.953116 0.907283 3.82742
3940 1 -2.47907 23.5784 -8.51066 4.99475 0.510302 0.824895
979 1 6.42997 24.3067 -19.9247 -1.90514 1.53328 -4.73241
1767 1 11.0738 24.0205 18.4828 -0.701324 -2.70999 0.555316
2886 1 11.4762 23.6747 1.29342 -1.17557 -1.9587 -2.0683
951 1 -9.69107 46.8898 -14.3132 2.91568 -5.28269 -1.31998
3473 1 -24.3854 23.9418 -20.3742 -6.35587 2.48249 -1.41147
18 1 22.2231 23.7043 3.03278 1.94272 0.951298 -3.21694
371 1 -12.0356 47.4842 18.0109 -2.8852 -1.39567 3.33327
886 1 -3.76867 23.4242 3.64528 1.49664 0.0650724 -2.86636
1880 1 -0.285373 23.933 -19.868 3.51618 3.04939 2.90782
1835 1 5.72011 24.2335 18.602 3.5773 -1.54137 -0.654297
1358 1 -9.82466 23.7865 22.4986 5.04044 -1.0939 0.10527
3193 1 -18.1542 23.6453 1.79979 2.73453 0.645329 1.42153
3383 1 -20.8569 24.1436 -17.7963 7.63379 3.64387 1.22878
1823 1 6.02287 46.5364 11.3661 1.48702 -0.22624 -2.69978
809 1 -4.76179 24.1164 -18.0045 0.466585 2.52829 -1.55176
2701 1 -21.0114 24.6586 -0.546724 -1.3156 -1.77379 -4.64547
2275 1 -11.9994 24.0149 -15.1107 1.24917 -2.03578 0.440114
1897 1 -12.9933 46.8216 -6.43833 -5.83626 -4.16681 -2.97373
3260 1 18.9939 47.0565 -5.88265 5.37229 -2.13396 1.28697
2243 1 11.3385 23.5338 -9.70165 0.904408 -1.45148 2.00738
3182 1 -18.5174 46.951 21.1831 4.27436 -3.70949 0.763317
2013 1 -13.7008 23.481 4.58543 2.10625 -0.554047 6.53579
1419 1 10.3443 23.7165 -2.57274 -4.47049 1.78585 -4.40715
4103 1 -8.32693 47.4535 -9.48148 2.14934 2.95552 1.2419
1180 1 -10.6389 47.4618 -11.5166 0.526879 2.17668 0.676084
3571 1 2.59203 23.8548 10.4821 2.78965 -2.03916 -1.57913
3151 1 -11.8991 47.169 -15.9173 0.683992 1.61278 -3.11013
2061 1 -17.615 47.193 -22.9405 -0.42938 1.98356 -0.978794
2670 1 23.1511 23.6373 -17.7946 0.907516 0.0345014 0.221569
216 1 -18.5649 47.4594 8.00806 1.96336 1.68691 1.07385
1166 1 -14.9666 23.4311 16.8654 0.19039 2.25806 3.94835
2731 1 -24.2535 23.3603 -8.81896 3.54572 3.80448 -1.97216
2781 1 14.0814 23.545 11.6801 0.962541 2.37669 -1.24796
521 1 -9.63789 23.4546 -6.93592 -1.10721 0.0999234 -2.87405
413 1 -23.5947 23.4778 -0.796602 -2.12983 3.19763 1.52593
2773 1 9.36819 23.655 4.86002 -1.82187 3.90266 0.541698
3284 1 15.0273 23.4155 -19.2383 2.71325 4.37381 4.92702
968 1 -1.10183 23.4193 -15.0856 2.09159 5.94148 2.67821
