ITEM: TIMESTEP
300
ITEM: NUMBER OF ATOMS
4360
ITEM: BOX BOUNDS pp pp pp
-2.4786002111584885e+01 2.3976838011586757e+01
-2.5065122147686751e+01 4.7581557747686745e+01
-2.4385519910356251e+01 2.4377318310358312e+01
ITEM: ATOMS id type x y z vx vy vz
1 1 22.5681 -21.2944 12.9927 0.14666 -2.44559 -0.214108
2 1 -6.99503 14.4632 1.94232 2.19799 3.57504 1.80308
3 1 4.56621 -7.57538 -24.1308 -3.11551 0.429115 1.28253
4 1 1.7442 -1.52344 -6.92324 0.350501 4.24997 -1.42052
5 1 -19.4263 -20.3779 22.1809 0.501489 2.59071 1.2475
6 1 2.38847 16.7104 17.9456 -0.0353098 -1.77752 -0.296055
7 1 6.26427 21.3371 6.71405 -4.79992 -0.953917 -0.0857128
8 1 -24.2399 -10.5563 -14.6647 -0.232946 4.82332 -3.10189
9 1 -13.6765 4.52782 3.82093 -1.23096 -3.88666 3.72829
10 1 -0.154511 -7.67085 15.2542 -1.30439 1.54243 2.17824
11 1 5.27032 -11.305 17.093 -6.59142 -2.38086 -1.87033
12 1 20.8494 -6.21542 -20.8267 1.55713 4.66281 0.0691849
13 1 -21.3435 -14.3251 14.1621 -0.334371 -1.62564 4.60512
14 1 10.153 2.33353 -7.56986 -0.68867 -3.69766 1.35061
15 1 -3.50116 -1.03758 -13.6837 0.0213122 4.15064 1.15191
16 1 -19.5397 0.175692 5.98511 2.36794 -4.94579 -0.82006
17 1 17.2225 -9.12498 17.7416 1.4829 -3.39746 -2.53984
18 1 22.114 23.0526 3.87684 -1.98183 1.01708 0.1025
19 1 -14.9772 21.3264 19.6716 -3.16654 -1.39057 2.05043
20 1 20.6327 2.9607 20.4882 -5.10059 -2.98842 -5.09665
21 1 -23.2236 -0.148327 12.1795 1.05102 -4.26131 -0.913996
22 1 -11.1545 -0.672366 -16.3028 -1.05228 -0.191612 -3.09685
23 1 -11.1789 -23.0641 21.4983 -2.15935 -0.738454 0.0292938
24 1 9.78736 19.2566 -4.5121 -3.21864 1.36699 4.4962
25 1 6.41149 24.3719 16.0824 1.36313 2.08401 -0.462662
26 1 -1.47842 14.9818 9.57481 1.73744 -4.84995 2.72825
27 1 -19.3788 7.56815 -2.23792 -0.734764 -2.99448 -2.91604
28 1 -20.4244 7.17374 4.30406 -2.61839 0.43373 1.24852
29 1 -7.90794 -12.0799 -10.4176 2.83561 -3.09533 2.56102
30 1 21.8714 -1.39765 -22.1991 1.75843 -1.35408 -1.87662
31 1 3.35969 -15.8543 -19.7671 5.26006 -2.31479 -5.3116
32 1 -9.83336 12.4818 -20.3816 -3.27988 0.907701 0.387424
33 1 1.60069 1.65546 -13.0688 -0.946992 -0.340157 1.86897
34 1 -20.7113 -23.274 14.9947 -1.47211 2.80307 -0.173223
35 1 20.1348 5.11192 13.094 0.854219 -3.27065 4.4853
36 1 -13.9072 20.0433 -19.1712 -1.11527 -1.93761 -2.79372
37 1 -11.6056 -7.30683 -2.45 1.84758 1.65299 -4.48454
38 1 20.9186 11.2431 8.61533 -3.27785 -0.231002 0.36775
39 1 1.59496 8.62663 -24.1563 0.560283 -1.98502 3.79222
40 1 -1.06018 0.64284 -17.9447 1.22307 -4.6003 0.0328017
41 1 6.32721 -6.28348 -11.3272 0.0173997 6.74439 -1.15496
42 1 -17.7349 -16.4652 1.80716 -1.55776 5.36 -0.0980507
43 1 -14.4977 -4.28064 1.93012 2.01156 -2.84325 -3.45038
44 1 -2.77758 -17.1548 -8.24014 -0.430878 2.07037 -0.377161
45 1 -9.79762 12.388 -2.95535 -5.07576 4.11757 -1.25304
46 1 -22.9669 -20.8016 18.6102 6.11692 -4.41139 2.57317
47 1 -5.76474 4.25583 20.1568 0.865503 3.43037 4.58015
48 1 7.73128 5.57788 -8.11705 -0.197187 -1.22088 -0.660796
49 1 21.8092 13.0389 4.48921 0.430777 0.516524 -4.81587
50 1 14.9471 -20.7358 12.5479 -0.25309 -1.09364 -1.11118
51 1 -8.33501 -3.10907 18.9169 2.39395 -4.04604 2.15741
52 1 14.9317 3.16865 -15.4735 -1.44427 1.08923 1.17266
53 1 -2.29282 21.1717 8.0185 1.25307 0.595869 -3.02511
54 1 -17.1062 -10.5203 -11.6791 0.472473 0.0294381 -2.60487
55 1 -6.48931 -3.62767 -17.0482 -0.366194 -1.48432 -1.22501
56 1 -15.189 6.03912 2.15073 0.876663 4.07446 -6.77129
57 1 -16.2453 -9.14133 -3.65686 0.780544 -2.75526 0.638831
58 1 2.33153 -20.6837 -3.98486 1.32612 3.15186 -2.7396
59 1 -20.3893 10.9485 19.5438 2.71766 2.84552 -2.23484
60 1 0.42636 16.3181 -22.6737 3.86754 3.9227 -4.27369
61 1 -12.8511 -0.58121 0.786866 2.96425 5.21284 4.34164
62 1 -1.85884 -10.6169 17.0554 0.421792 -4.72598 -3.4399
63 1 -0.674394 10.2911 -16.5531 0.095185 -4.71743 -1.15111
64 1 -10.582 -1.96515 1.60361 3.08296 0.553639 -2.46777
65 1 18.3633 -2.70012 8.79887 2.66595 -2.35129 2.48039
66 1 -12.1353 -16.311 -12.3316 -4.11799 -6.07298 1.47505
67 1 -14.7913 23.4096 -11.5155 -2.64801 -3.41055 -1.36956
68 1 -1.18125 13.4323 -20.5994 3.49852 4.59492 -4.14775
69 1 -8.05969 13.3262 9.17311 -3.52897 4.26424 0.673271
70 1 -16.1874 14.6204 -16.3333 2.52976 1.03052 4.64301
71 1 -10.2889 3.65716 1.36396 -1.82264 1.34296 -1.22827
72 1 23.0673 15.6962 19.8556 7.43662 2.28795 -3.84364
73 1 -12.8088 -18.1861 14.5377 0.331934 0.96728 0.793509
74 1 -0.00684055 13.0859 -13.7923 -2.7229 -2.67598 -1.97963
75 1 -18.6082 2.50904 -13.1232 -2.48797 2.07494 -0.404654
76 1 -23.647 -3.53413 1.72183 7.70188 -3.45594 -3.5105
77 1 13.5124 -22.0178 -1.9415 0.806952 -3.63097 2.55287
78 1 -18.3729 13.0841 -7.80273 -4.56797 1.01607 0.72139
79 1 -23.8462 -0.671579 -15.8473 -2.8225 2.19461 -4.84991
80 1 -13.6284 13.8088 -13.465 2.60687 5.72756 3.80647
81 1 0.274704 -10.6816 -14.8542 0.255636 7.75879 -0.273092
82 1 5.40509 -24.2989 3.91077 1.05661 0.665132 1.53976
83 1 -21.4328 11.4475 -0.851456 -2.35946 -1.05761 -0.165256
84 1 21.1919 22.5721 21.1594 -1.58244 1.2531 -0.0866968
85 1 5.84212 13.9944 -2.23761 -2.51112 0.532903 -1.21092
86 1 13.1407 6.84871 14.6442 2.98317 0.165035 0.329749
87 1 0.930505 17.1851 -7.65827 2.92567 -0.935178 1.54454
88 1 -10.023 20.6081 -20.086 2.2234 2.72838 -2.78324
89 1 -10.5588 -3.90905 22.714 -0.0840713 -1.16868 -1.76239
90 1 8.51155 -4.09626 5.94854 -3.31659 5.69421 -1.63677
91 1 17.6286 18.2876 -20.5141 -0.798963 2.66731 -1.83167
92 1 15.7584 -22.4823 -0.0718634 -1.90413 6.24044 -3.37707
93 1 -20.2551 -22.4805 17.9066 1.52374 1.61038 3.77452
94 1 22.5055 2.06417 -11.4495 -4.71988 4.1655 -4.19624
95 1 3.06121 -4.2909 -12.8042 3.31182 -0.69869 -0.343719
96 1 -24.2886 -16.2117 22.0845 -3.71206 2.40275 -2.8628
97 1 -8.07893 -13.6686 -21.68 5.29394 0.10542 4.49491
98 1 -3.20826 15.3294 12.2077 0.79952 -0.89892 -2.10259
99 1 17.3531 -21.81 -5.70316 0.856883 1.57997 6.78147
100 1 -23.6225 -14.6938 -24.0489 -2.05732 -0.975232 3.58567
101 1 0.482967 -20.4612 -9.84103 -3.04979 3.43253 -3.08522
102 1 4.33477 3.07823 5.12768 2.07458 -0.257645 2.99757
103 1 19.458 24.7504 21.8442 -1.36525 5.16638 -0.283474
104 1 -14.014 -22.7016 -10.2212 0.437198 -2.28134 3.92224
105 1 4.56064 18.4703 -19.3995 -0.183556 -0.72191 -2.17013
106 1 15.0661 3.28625 8.64795 0.783595 0.357626 -0.0880026
107 1 21.0915 -2.46798 19.1003 3.50399 1.65328 3.51673
108 1 -10.715 2.73331 23.6472 -3.91797 -2.82641 0.585714
109 1 -12.3648 16.4115 -14.5697 4.06822 -4.3742 -3.83292
110 1 9.52689 -13.3682 -8.98222 2.62282 2.31488 -4.84566
111 1 22.6606 -4.18863 -11.5453 -2.74508 1.96482 0.248445
112 1 -17.1416 1.31685 -21.8087 -2.63241 -2.16059 5.67434
113 1 -4.76841 -8.52753 19.4631 2.52487 -1.07068 4.02908
114 1 -22.9984 -18.4089 20.213 1.18033 3.12928 1.06089
115 1 7.21396 10.9222 6.0659 -3.49002 -0.308514 1.19324
116 1 2.83275 -14.965 -17.1322 -2.40449 3.78311 3.3372
117 1 20.0561 17.1298 -19.5235 2.19098 0.488012 -1.30799
118 1 4.59955 -18.1948 -9.57318 0.214635 -1.08507 -1.77715
119 1 15.4263 10.7787 -9.02391 0.361829 5.29571 0.991929
120 1 3.79544 -0.718811 19.5574 0.257819 -6.44626 -3.01009
121 1 -5.6809 -18.0021 23.8628 4.41919 -1.66753 -0.680891
122 1 -7.30152 5.36364 22.3616 0.226406 1.38785 3.70624
123 1 11.9042 14.7034 7.74198 2.85964 -2.09993 -1.6874
124 1 22.9877 -20.3867 -15.4915 -0.735103 -1.90509 2.63698
125 1 15.3185 9.69518 0.169109 -0.450031 -1.91998 -4.20128
126 1 -9.76404 -0.111921 -5.05655 -2.91678 7.33335 -7.75088
127 1 9.13982 0.308353 14.9263 -2.38405 -1.07602 1.25858
128 1 -18.4357 -0.524198 -9.23577 2.4677 -0.316969 -1.61079
129 1 15.6656 -11.361 4.05158 -5.05427 -6.54401 -3.82061
130 1 -9.8848 16.1402 -19.6833 -0.505264 -4.34959 -3.94588
131 1 2.82825 -8.25614 -20.2219 -0.156875 -3.4454 -6.54855
132 1 -7.17997 -4.51605 -23.3603 3.32803 -0.778105 -1.66375
133 1 -17.8975 3.22898 17.6749 -1.42684 1.37635 4.86028
134 1 19.9967 -8.27915 -23.0494 1.00585 -3.12655 1.27927
135 1 -14.2997 -5.41845 -21.5137 -0.645653 1.84763 -3.75961
136 1 -0.0573577 5.32358 -5.63752 -1.04326 0.64326 -1.724
137 1 -10.5877 4.37993 -14.0909 -4.01123 1.31529 3.27709
138 1 12.16 16.2817 5.29318 -0.132647 2.69449 -0.837271
139 1 -19.3855 -18.4508 -15.9711 4.50735 0.365984 5.82852
140 1 2.7496 -6.43484 19.8636 -1.1772 -0.0642537 -1.8801
141 1 11.7886 -17.4155 3.79382 -3.52818 -1.17422 -4.14372
142 1 13.3104 2.84461 23.047 -2.81648 -1.03947 0.0410803
143 1 -3.63673 -2.29571 -3.92686 1.53737 -2.03989 0.664435
144 1 -23.4245 -7.96804 -15.5325 1.28129 -3.04747 2.47454
145 1 17.354 6.52904 20.5553 -1.93114 1.6823 -3.19102
146 1 -11.8008 -10.6496 14.4224 -1.44188 -1.79317 2.34422
147 1 10.0349 20.9277 4.62132 1.51627 0.524786 4.11648
148 1 -18.4942 12.7014 12.3007 -2.42887 0.608229 -1.10782
149 1 -19.0882 -24.351 -19.519 -1.42455 2.87087 2.85139
150 1 20.8478 9.83816 19.9694 1.09817 0.599333 0.179064
151 1 19.6704 1.38 22.9358 1.36021 -0.199282 3.12387
152 1 -5.8808 -3.77482 17.8714 -1.10129 1.18042 -4.69265
153 1 8.97712 -14.965 -2.80067 -3.31456 -4.88058 -2.42143
154 1 -8.89341 20.4856 -5.13811 0.549821 -2.61611 3.26942
155 1 23.0181 -20.48 -19.6485 6.91042 0.286062 -1.3689
156 1 16.1142 10.3284 19.0346 -3.33281 -2.30819 0.634287
157 1 12.3351 -13.277 -15.1979 2.49336 -2.64137 1.23893
158 1 9.70653 7.21555 3.34911 -0.083668 1.9145 1.01517
159 1 -22.5317 -11.8984 12.3073 0.580628 1.6376 0.28573
160 1 -4.3037 -15.9079 -3.65203 -1.90158 0.487465 -3.60035
161 1 17.7031 0.922819 -14.8441 6.79769 4.30205 -3.6631
162 1 -16.1185 -10.3696 20.4372 3.17168 2.17643 2.97329
163 1 2.37307 0.717437 17.2613 -1.2732 -0.301434 -0.507193
164 1 18.1345 7.47784 13.5426 0.205182 1.64056 -1.50582
165 1 -19.0192 10.7476 16.6881 -0.597033 -1.05812 -0.939856
166 1 10.605 19.5906 -22.7656 -2.09016 -1.09175 -0.0496474
167 1 -12.5502 1.08087 -3.15148 -4.16312 2.58179 -2.96774
168 1 -24.7152 22.5777 -3.53421 -3.474 0.0667454 0.439866
169 1 4.40104 24.2802 -12.6038 0.8148 2.57533 3.35687
170 1 -6.2189 -18.7616 -13.6485 -1.54508 -0.242509 0.947525
171 1 -15.389 1.01091 15.8056 1.12602 0.130936 1.16127
172 1 -19.0567 20.4032 -20.0051 3.43413 4.10706 -2.30989
173 1 -21.9216 0.0208711 22.1425 0.288488 0.34485 -0.688665
174 1 -18.8701 6.07449 -21.9197 -1.88084 -3.23118 1.44821
175 1 9.92274 18.1202 5.46251 5.5756 -4.71859 5.04092
176 1 -3.56234 22.6537 -3.66109 6.05511 -1.02739 0.191482
177 1 -4.15435 -19.4615 12.4263 2.70219 -1.90742 -6.93601
178 1 -17.075 9.81442 5.97739 3.11134 -4.08325 -0.0965759
179 1 -6.44809 -7.39569 -12.8527 -4.26436 -3.15583 -1.05492
180 1 -23.7298 18.8546 9.47761 3.45691 0.489541 2.13086
181 1 -4.4288 -4.18406 -20.8886 0.753309 -1.56108 -1.14163
182 1 -24.0471 -1.88669 17.5099 -0.942768 3.06378 -0.853671
183 1 20.5597 12.8745 -4.13573 0.220707 -3.9864 -1.9419
184 1 5.49386 -23.2818 -21.7182 -6.41856 -1.67667 0.907969
185 1 21.1448 21.6967 16.5282 5.69406 2.59121 5.82929
186 1 14.2277 23.5931 -9.23716 -2.17139 -0.417231 3.45522
187 1 -11.658 7.01184 -6.62475 0.49082 1.81837 -3.31431
188 1 6.88074 -22.398 -4.41812 -1.20799 4.01196 2.93492
189 1 -3.70449 -4.93141 3.387 3.0875 -0.7445 1.38591
190 1 -15.1139 10.6259 -11.2858 -0.13819 -3.98126 0.867981
191 1 2.83965 -4.23235 -22.2886 -3.5018 -1.33069 0.938293
192 1 7.61005 5.23857 -4.01566 2.5876 -1.4406 -2.31798
193 1 9.06116 1.25172 4.54644 -1.07445 -0.429573 0.0340734
194 1 1.24649 23.8122 -22.1818 3.86237 -0.334689 -0.522648
195 1 7.31239 -0.344457 -9.45653 -1.78602 -1.84899 8.53934
196 1 -15.9537 21.9238 5.71028 1.66998 -2.73232 -2.85632
197 1 -24.4425 -3.50064 22.9261 0.368103 2.93596 1.2114
198 1 -10.2671 -19.3239 -17.065 1.75642 -4.37815 -1.09812
199 1 -23.2543 -4.06263 -10.8288 -0.301097 3.41035 -1.43165
200 1 15.7526 7.88552 -16.7948 -5.38638 -2.68572 4.17329
201 1 7.3789 4.48133 -23.4306 1.48628 2.43956 -0.597793
202 1 11.2396 13.3523 12.7028 1.69128 -0.336146 0.383879
203 1 -23.4858 18.2605 6.76752 -0.554938 5.2036 -0.027443
204 1 -6.83335 -16.4154 -9.04411 1.19579 1.49913 2.35089
205 1 19.6979 -5.8942 11.3036 5.14785 -2.52858 1.4324
206 1 -2.69025 -14.4945 -19.3477 3.38396 2.49887 -0.865496
207 1 -7.74338 6.89323 -23.6706 -0.950388 -1.15215 1.64027
208 1 2.5794 -5.87203 16.7883 -0.844154 2.10094 1.40247
209 1 -6.8625 16.1288 -15.4442 4.68325 -6.80028 -0.922423
210 1 -18.5489 12.1179 -1.05904 -1.45805 -1.97248 -0.422359
211 1 17.5983 -0.641293 6.89538 -1.61914 -0.261531 -1.07941
212 1 -14.8031 23.9602 -4.80289 -0.14779 -4.07228 4.19447
213 1 -21.0147 -18.8972 -1.6668 2.19513 -5.9816 -3.70773
214 1 16.0524 -4.16004 -21.1589 -0.616286 -10.434 1.39641
215 1 8.96026 23.0257 16.4477 2.9779 1.39335 -0.176588
216 1 -19.2087 -25.0073 8.28134 -3.3552 0.529247 -0.173763
217 1 4.00152 21.6744 8.49337 -3.38639 -3.85607 3.85985
218 1 12.1644 3.95252 -2.96161 -7.03932 -1.02983 -2.46279
219 1 -5.95443 22.5012 21.0527 1.03664 2.96953 0.935256
220 1 5.56429 19.2914 16.603 3.81149 1.59066 -4.6937
221 1 -16.3926 3.09152 -2.66608 0.499608 -5.7751 -3.33185
222 1 -12.4614 -8.8647 -0.191652 2.92252 -0.718167 4.00833
223 1 -23.8413 -5.67858 -0.0903686 0.159214 3.23559 -8.20921
224 1 -13.0069 -3.36285 23.8139 -0.76209 -1.85523 -2.87634
225 1 3.35674 -13.8599 -6.24146 0.0958379 -0.55215 4.57753
226 1 23.225 16.0132 -14.0786 1.06799 -2.12106 -2.44036
227 1 16.4523 16.541 1.66543 -3.57004 2.7339 1.74082
228 1 -10.1579 19.0711 0.182783 -0.81235 2.45735 4.81921
229 1 10.5531 10.9247 -10.4322 -0.223523 2.68873 -1.4488
230 1 -8.22466 13.6961 19.9359 2.80058 0.634614 0.941514
231 1 -24.521 -2.59206 -21.61 3.29138 -1.90433 -0.360118
232 1 -1.88604 -13.4371 10.9861 3.35621 0.748877 5.14507
233 1 -12.7483 16.0726 11.6575 1.76261 -0.719382 2.18774
234 1 -5.99172 18.6746 7.79727 -0.0416259 -0.890884 0.278371
235 1 -22.3935 -1.17551 -9.7714 -2.57267 1.03311 2.65464
236 1 17.0319 -9.08913 8.38066 -1.59079 3.5176 1.10608
237 1 -16.184 21.0456 1.3319 -5.31756 1.04359 -0.0577639
238 1 17.2692 -2.39357 23.8951 -1.89056 3.34213 -3.71844
239 1 -19.9837 19.3206 17.4917 1.56751 -0.462756 -0.496874
240 1 11.1535 1.16048 16.7529 0.298493 -3.02826 0.807725
241 1 -22.7923 -15.227 11.5193 -4.73932 -0.219825 -5.04789
242 1 -9.55253 -4.52207 -12.8188 1.8361 -0.89318 -3.15352
243 1 -7.25669 -8.86279 11.2503 -1.13009 -0.942692 -2.15916
244 1 -20.6111 10.5283 23.644 -0.366863 -2.76376 -1.01912
245 1 -10.1324 23.7954 -11.7931 2.44779 2.77212 -3.97748
246 1 10.1661 3.30643 22.4959 0.897839 -2.02957 -0.666064
247 1 -24.4373 -6.85696 13.5885 -0.0223129 0.27672 -1.60267
248 1 -17.7171 7.17281 -14.0674 6.52275 -0.67794 4.12792
249 1 -1.47811 -18.9066 9.75049 4.77274 -1.19505 5.61692
250 1 -0.545548 -1.68585 6.2456 -1.41441 3.77337 -2.61023
251 1 -21.9599 -1.4283 -22.3082 -0.0408933 4.29963 2.38192
252 1 19.8296 16.4025 -11.9608 -0.363468 -0.816642 -0.356925
253 1 -1.27659 -2.98882 -23.5044 -0.0683175 0.477633 -0.0337013
254 1 5.6564 -11.614 -9.14882 3.18399 4.66556 -8.15234
255 1 23.5544 -22.062 10.3685 0.495058 -4.46788 -0.663768
256 1 -11.8059 -5.23502 -10.818 2.89089 1.48637 2.17004
257 1 -1.14747 4.09045 -21.759 2.24843 -1.82721 0.403017
258 1 -5.69135 -2.01533 -7.07454 -2.72432 -0.20298 0.754513
259 1 17.5499 -15.7131 -18.2885 -2.83976 -0.129483 0.679954
260 1 14.4605 7.9211 -3.59334 -3.26879 -0.441906 1.01231
261 1 -2.76044 -24.6692 11.0749 -0.428746 1.35014 2.67594
262 1 17.9373 19.0997 10.5135 -3.37942 -0.414561 2.87647
263 1 -20.4566 8.33474 -9.40655 3.48093 -1.65656 -4.16293
264 1 23.0376 3.98595 17.3189 0.45498 0.881025 0.925547
265 1 13.4558 -16.3149 -6.65433 -2.63676 5.3077 -6.75867
266 1 22.7014 4.16954 -15.9042 6.00304 2.21867 7.78098
267 1 -12.1259 20.4521 -10.6814 1.60024 -3.48524 -2.01079
268 1 -20.7021 18.3345 -12.7979 -0.691522 1.14802 -4.34574
269 1 -19.3254 -8.28261 -14.27 -5.25591 1.62858 2.69559
270 1 -22.9423 -16.4754 18.086 0.957611 0.327098 -1.39156
271 1 2.21091 22.7042 -12.7018 -1.68663 5.33042 3.46303
272 1 11.7068 -17.9371 12.058 -5.36621 8.32774 0.490169
273 1 -18.134 -11.0238 12.9277 -2.06262 -0.853973 0.118013
274 1 12.2062 -12.4477 8.39836 -2.49704 0.29153 -2.60431
275 1 12.6707 22.6052 -21.0026 -1.97391 -0.92461 1.58022
276 1 21.5504 6.27758 -8.98039 -6.73257 1.52746 -1.40873
277 1 11.6411 -13.5175 -19.71 -2.43803 1.12738 -1.53731
278 1 20.3629 9.7041 16.9736 4.94933 1.29842 -5.09168
279 1 -24.0884 -1.97378 -0.757982 -3.27743 -5.03448 3.93486
280 1 -3.57636 -19.7159 -12.7442 2.30205 -3.35457 0.770203
281 1 15.2016 19.261 13.4723 -1.16649 2.74917 -0.534045
282 1 12.564 10.7501 12.3596 -0.735771 -1.53847 -0.653038
283 1 -4.43495 -19.7184 -20.9795 2.1177 -0.831767 -2.45188
284 1 1.89959 13.9832 2.30439 1.18876 2.00789 -1.58554
285 1 -15.3078 18.1373 15.1301 -0.542684 -3.6795 0.252352
286 1 -4.93087 16.8389 -0.614134 -3.35909 -1.62612 -4.22961
287 1 4.87618 -9.36454 -7.60801 -1.45862 1.42063 1.61994
288 1 17.3524 21.966 3.69862 -1.35214 -1.51691 -1.41927
289 1 -5.92668 -22.0926 10.806 -4.16271 0.315976 -2.12953
290 1 -5.4294 -12.4677 -15.5409 1.1793 3.82882 -0.116144
291 1 -12.005 -18.0445 11.8147 -1.18113 -1.29829 -2.84743
292 1 15.4278 8.24973 2.72531 2.89604 -0.776212 -2.21334
293 1 14.1154 4.05415 13.7359 -1.6084 2.20453 6.09675
294 1 -8.52484 0.704414 -1.33262 3.84668 4.16652 0.763942
295 1 0.0270988 6.95058 9.41116 -1.92171 3.60491 -1.32357
296 1 1.68915 14.4425 -1.87138 0.887222 -1.57388 -1.40359
297 1 20.072 -7.2447 -7.62395 0.221962 -3.20078 -2.44516
298 1 14.7655 -19.7761 -21.0198 -0.290189 -2.74987 5.59117
299 1 5.03708 -21.8665 -12.6296 6.01696 2.23393 3.65582
300 1 14.5497 -3.86689 17.5823 -0.754109 4.50887 -0.697125
301 1 -6.09692 20.9671 -21.575 1.76573 -1.77477 -2.27272
302 1 0.603619 7.97216 -2.11095 -0.482589 -6.9003 2.97829
303 1 -20.5397 -17.9532 -7.98919 3.95405 1.72931 -0.325578
304 1 -20.6949 -17.415 14.5598 0.420292 3.17124 6.1832
305 1 4.11627 -20.5821 21.8392 -1.06346 2.15737 -2.10925
306 1 13.4245 20.4708 -11.8516 1.8488 3.65249 1.8618
307 1 13.6937 12.4646 -23.8394 3.98935 1.76359 0.336127
308 1 -18.9921 -21.9807 3.71416 -1.26814 1.53014 -1.8166
309 1 6.09767 -19.0297 18.8839 -0.0177832 -1.87503 -7.64614
310 1 2.04649 12.9824 14.1147 -1.99952 -6.21794 0.540039
311 1 13.0966 -10.3937 1.49905 0.252918 4.18732 1.12235
312 1 -7.24046 0.607766 -9.12419 -0.00724856 3.68952 -5.23516
313 1 -17.1944 -14.3767 -9.44826 5.03341 -2.52387 -5.03767
314 1 -12.7077 4.95512 -8.18681 2.17434 2.60647 -3.43284
315 1 -16.3242 -23.0527 3.41301 -7.84647 0.853746 -3.67968
316 1 22.3563 -5.26242 4.10092 -0.271363 -5.11461 1.20045
317 1 -9.98102 -10.4981 -23.3944 -4.43396 -2.9841 -3.56285
318 1 20.5602 -17.3367 20.4236 -1.29763 1.60772 -2.45769
319 1 -11.495 2.53286 14.3676 0.271494 -3.70527 3.49643
320 1 -1.95853 -1.28416 8.9337 2.71837 -4.91486 4.35248
321 1 -19.8788 -10.6645 -12.9721 -0.646225 4.51721 -1.58947
322 1 -11.821 12.9264 -0.75358 -3.60276 -1.79388 -1.2974
323 1 -13.8205 0.991553 2.94437 3.24874 -3.49578 0.596459
324 1 22.8046 4.01625 6.33742 0.763757 -4.51695 6.52558
325 1 -1.24973 -20.7457 19.3011 -6.46399 0.723933 -3.59031
326 1 -18.3824 4.28782 1.25505 1.38556 -2.27502 0.0178631
327 1 -6.92773 -10.3558 20.6209 -4.35446 -7.09437 -1.31364
328 1 14.676 20.7269 15.6872 6.32196 4.09666 1.65085
329 1 -0.816635 0.365937 -10.8906 -1.09099 3.28074 0.593761
330 1 -14.8223 -23.2514 23.5435 -6.61214 0.396942 1.23661
331 1 12.5381 7.22969 3.74444 -2.57414 -4.89826 -2.85429
332 1 9.90024 0.543056 -9.82357 -2.17815 7.94804 1.13831
333 1 9.19813 -10.4862 -15.1845 -5.61848 0.327092 -1.6647
334 1 4.64951 -21.4797 -2.63668 -1.70618 -0.276914 3.95355
335 1 22.8474 -23.451 4.68881 3.87271 -4.4181 -4.36856
336 1 19.2959 14.7975 -22.192 -1.84743 -2.73741 0.719162
337 1 -18.2976 18.8348 0.849372 -4.97901 0.443359 3.94048
338 1 5.79772 -8.59768 18.1678 -2.26248 -6.44598 -2.78813
339 1 -6.58229 -15.739 -23.2213 -0.245782 7.28405 0.864101
340 1 -13.3235 2.60035 -18.6481 1.10774 -2.62787 0.873876
341 1 -10.5245 1.38398 -14.082 0.417303 -1.67739 -5.36943
342 1 -1.55494 -15.7382 -10.5645 -1.73796 2.15673 -0.118426
343 1 -3.11936 -11.9463 -5.7987 1.1825 -0.518245 -0.95452
344 1 9.45966 -16.4831 -11.555 -3.33521 -1.55163 0.359973
345 1 -11.2592 -5.07544 15.164 -2.26403 2.86681 2.35722
346 1 15.8705 1.77346 5.97449 4.20371 0.926308 -0.205509
347 1 20.1645 -6.06171 8.41477 2.22626 4.04581 -0.140753
348 1 -11.9724 -3.34894 10.2537 -5.41232 3.72425 0.670399
349 1 -6.07046 10.0345 21.7507 0.805721 2.08769 1.94879
350 1 -22.5457 17.2658 22.6943 -5.13149 -4.06349 -0.59389
351 1 -17.3123 3.20582 11.5449 -2.44474 3.31257 2.30605
352 1 15.6101 1.44078 0.861439 -0.0732363 0.075693 0.649191
353 1 18.1705 -21.6722 -15.8629 -1.39942 1.31766 7.95664
354 1 9.94982 22.5643 -7.33271 -0.429663 -2.84593 -2.00772
355 1 -4.79521 -1.73714 7.73749 0.433151 2.51166 4.27961
356 1 -2.48541 -18.3908 -22.7279 -1.23285 -0.607359 0.266589
357 1 -6.78794 -14.3483 2.1235 -0.254397 -6.57212 0.486779
358 1 18.9914 -12.5428 13.4296 -1.43998 5.26386 1.66155
359 1 -14.1582 -19.6744 -9.82096 -2.25006 1.38472 -2.79698
360 1 5.76794 16.6295 1.13444 -2.85055 -2.65622 3.7422
361 1 -23.2366 -19.5797 -3.48288 5.83968 -1.69308 -3.1019
362 1 -20.9869 11.3253 4.72796 4.98187 -0.24345 3.12582
363 1 -19.5709 -18.8318 9.97621 2.17502 -4.6319 -3.61267
364 1 -10.5426 2.84607 -4.84305 -3.65353 3.03446 -0.395025
365 1 -0.949622 -17.2196 19.7625 -3.88599 -3.09362 2.88049
366 1 -20.9744 1.32675 -9.83229 -0.00927191 1.20168 0.47985
367 1 6.89059 17.5137 -17.6676 1.42275 -1.01739 1.28014
368 1 3.85746 -6.60538 11.7842 0.589995 4.55325 -0.489889
369 1 14.119 8.09239 -14.1333 1.0183 -0.656518 -0.842376
370 1 4.41885 -14.0539 -21.9171 4.19309 -0.407433 3.49594
371 1 -10.7609 -24.7048 17.8623 -0.804392 -3.0501 -1.40042
372 1 -7.96923 22.4921 7.82805 -0.938568 -3.83424 -1.4903
373 1 -16.6268 5.83682 22.9286 3.31743 1.52038 4.93953
374 1 -5.21404 18.3855 -11.862 -2.63497 -0.310847 -3.56137
375 1 -22.8786 -6.18962 23.251 -2.56225 4.89435 1.22127
376 1 -5.77488 -15.4303 -16.1219 -1.71298 -0.630027 -2.98533
377 1 14.5274 0.181362 12.1182 -1.61284 2.80174 -2.79602
378 1 17.8055 -13.911 -3.98705 1.40172 -0.771341 1.73296
379 1 -24.0403 23.0302 2.83516 3.04105 1.96959 2.62482
380 1 13.9782 16.5019 -20.5234 0.0722775 -4.01424 -2.34603
381 1 -22.7891 -12.9785 16.157 3.10487 -3.63684 -0.498824
382 1 16.8123 16.8288 -2.94864 5.10924 0.845854 -2.67536
383 1 10.6047 -24.6666 8.60061 3.67385 -0.516574 -2.7359
384 1 -10.9495 9.83745 -7.39676 -0.00748116 2.93 3.25215
385 1 -8.10238 2.31282 20.8544 -1.77053 -0.381411 -2.12291
386 1 18.1357 -2.73873 -20.132 -2.70516 0.488325 -2.14456
387 1 5.26467 -20.3663 0.917696 -5.18657 -11.7567 2.2456
388 1 -18.8678 -24.7164 23.7045 -1.92448 -4.99812 3.18111
389 1 -13.2524 7.59098 8.12528 -0.976843 4.51701 4.8005
390 1 12.7341 6.87694 8.37768 -2.34337 3.97933 -1.03082
391 1 17.0749 2.34031 19.7259 5.08486 1.40207 2.23171
392 1 19.3874 -11.2806 18.524 4.31061 -4.50454 -3.33013
393 1 -13.6592 -18.4675 -12.6035 0.395512 -1.85714 2.77876
394 1 -8.95782 11.5667 -5.65868 -2.2764 0.313834 -6.06731
395 1 -9.03173 -24.3629 20.1543 0.577427 -1.24072 0.185281
396 1 10.7323 -19.9604 0.404141 -1.62309 1.11118 -0.118251
397 1 3.67425 -21.0271 18.9434 2.80231 0.411501 -2.02036
398 1 -24.2925 -20.36 -6.14699 1.51549 -0.841657 0.24881
399 1 12.9496 15.1645 -0.107159 0.242823 1.48252 0.101807
400 1 -23.422 -15.6325 -2.56075 4.2397 -6.26691 -6.19794
401 1 21.4396 -16.3942 -6.0673 -1.95155 -5.01964 0.981324
402 1 -1.23452 8.09334 21.1482 -1.44926 1.80162 3.54296
403 1 14.4449 -1.44454 23.9831 2.18241 0.167837 -1.58066
404 1 -15.439 -1.49266 1.9892 0.32311 0.837842 0.123387
405 1 5.87451 -24.022 -6.60311 -0.128632 -1.67289 -1.25088
406 1 -8.2965 -19.0251 23.3451 3.68874 -0.118602 -0.662497
407 1 2.54388 -11.2159 16.355 0.577948 -1.76008 0.954251
408 1 -1.20667 -2.37713 -18.3678 -6.07398 0.25145 -2.23243
409 1 1.57639 1.95298 -6.93827 0.697003 6.3054 2.89466
410 1 -15.3091 11.387 1.67786 2.418 -2.19746 1.4195
411 1 -2.053 -3.26795 -8.81761 -2.65369 0.400855 -0.340355
412 1 -17.2432 -6.82097 5.96969 1.62399 1.76529 5.09978
413 1 -23.446 23.6391 0.00591365 0.011226 -0.320523 -4.01676
414 1 4.27799 18.6 -14.7102 -4.3374 1.96411 0.829598
415 1 -18.1349 6.4791 -9.71889 -0.425865 1.59484 2.94863
416 1 21.7635 1.17189 12.278 1.33061 1.83388 -1.24006
417 1 -14.076 0.908502 11.3458 3.3668 1.07517 -1.38122
418 1 23.0524 19.9829 6.22651 -5.65936 -1.02557 -2.05744
419 1 -24.4986 3.05464 -24.3713 -2.66262 3.90864 -4.95064
420 1 -2.44252 -3.3335 12.5086 4.20645 0.176382 0.797619
421 1 -16.5066 -22.07 -14.8978 -1.19893 -2.90292 1.13483
422 1 -2.96874 15.0941 -24.0817 -1.54337 4.22709 -4.22664
423 1 -9.08026 1.71018 2.97259 -0.531799 1.56407 4.20967
424 1 4.59973 -5.6657 -2.3113 0.918277 2.95019 0.873272
425 1 -20.6791 13.7134 18.4057 4.44889 -0.201445 -0.476117
426 1 -16.2995 -2.40866 -9.35559 2.99505 3.79145 -2.71559
427 1 -15.5608 -23.6887 20.8553 5.33101 -4.10425 0.313455
428 1 9.43967 11.4398 -5.93681 2.38816 6.02592 3.26085
429 1 -5.40964 9.32688 -13.3113 1.19981 -1.40131 -1.11666
430 1 -21.8645 -2.40219 23.8934 -2.90976 -2.64898 2.17133
431 1 11.6588 -6.76268 -15.9146 -0.799157 -2.06443 2.64761
432 1 8.33888 -5.43102 12.6422 -5.55933 0.657682 -0.148304
433 1 -18.4673 2.25074 -17.6493 0.0560282 -0.146956 0.358728
434 1 -12.8791 -2.44034 -10.7419 1.43451 0.165615 -3.75889
435 1 3.99436 23.3833 6.10491 1.44185 0.669425 -1.22964
436 1 -14.6535 -10.4965 -8.17139 1.87894 2.53393 2.5629
437 1 20.076 18.2697 -9.74134 0.230267 -3.82392 -0.526616
438 1 -18.9695 5.61609 -4.4298 2.50643 2.36755 1.32439
439 1 -2.33338 22.8444 -6.31662 2.03084 3.36381 -1.82286
440 1 -10.1976 14.4667 -14.0238 3.59279 -6.73056 -2.12126
441 1 17.6981 1.97635 -4.49243 -5.99938 -4.65657 4.25147
442 1 5.65391 3.09336 15.7421 -0.122612 -0.640646 -0.597014
443 1 21.7213 23.4075 14.4043 -2.324 4.32944 0.310678
444 1 -23.4787 7.64262 -18.0227 5.65881 2.52405 -6.58513
445 1 20.914 -7.81587 -11.6695 4.71851 4.0337 -0.296207
446 1 22.4521 -13.6729 -7.74708 4.70163 7.58155 -3.92421
447 1 7.62673 18.89 14.2025 1.79103 -8.93632 1.51112
448 1 -16.4928 -1.00087 13.8964 -0.477154 -2.00119 1.21733
449 1 14.1136 -4.13847 -1.78736 1.14325 -3.57346 -0.0903645
450 1 15.6492 -20.6075 6.22965 0.291876 2.53457 3.41528
451 1 -24.5653 -11.6473 -19.9629 -1.58468 6.21735 -6.94817
452 1 23.2411 15.1398 0.00648618 7.15881 -1.25792 -2.28101
453 1 -16.831 13.2219 8.55565 -3.29637 3.98949 1.07122
454 1 -4.74935 1.32862 -15.0435 -0.639229 -0.701603 -1.35458
455 1 13.8422 -11.9555 14.9548 -1.21596 -5.74768 -0.165383
456 1 -4.5308 14.7264 22.2342 0.56101 2.59645 0.742083
457 1 7.52972 21.1408 17.9723 -0.66312 4.40692 -1.3418
458 1 22.7741 19.3044 18.6224 1.48284 5.58799 -0.918531
459 1 1.90696 6.48234 -13.8185 2.54657 0.691571 1.65984
460 1 6.13255 8.02563 -23.2443 2.83116 3.29322 -1.57186
461 1 3.91429 -1.01528 -19.9564 2.05408 2.68718 0.71926
462 1 -6.9194 -18.8398 20.7782 -2.06969 -5.18897 4.43621
463 1 6.76065 13.7151 12.1538 1.3147 -1.41791 4.3945
464 1 -15.2591 -24.0162 5.68807 2.2845 6.784 -0.903753
465 1 -2.4545 -12.7763 3.92926 -2.4307 -1.81094 -0.97774
466 1 15.626 13.7094 -21.9486 -2.40268 -1.37013 -1.0035
467 1 -6.39653 -11.0456 12.84 -4.778 -3.88734 -4.81907
468 1 22.9638 17.1953 -9.29126 -1.38029 -2.30068 0.854091
469 1 23.7598 -13.3483 12.2723 5.43837 -2.82099 -1.00345
470 1 -20.5511 6.64802 -13.234 2.9482 -0.942084 3.86353
471 1 22.4988 -6.90903 -9.29649 -0.181144 1.59926 -4.01176
472 1 -15.4469 -5.67047 18.0796 -1.73779 3.97026 2.75761
473 1 4.5404 11.9677 12.7305 1.94681 -1.08634 1.67042
474 1 3.22994 -6.92922 -11.5377 -0.753719 -3.23975 -4.83933
475 1 22.6491 12.1027 -20.6607 2.98773 -1.71792 0.248439
476 1 -13.5636 -5.55314 -3.44179 0.107433 3.43035 -4.33515
477 1 -11.6478 -10.2684 -16.2306 -0.332405 2.3262 2.83786
478 1 3.45155 0.423912 24.1886 -2.24425 0.41103 -2.2858
479 1 15.4214 -16.7437 13.5609 1.07124 -2.78982 -2.01049
480 1 1.39442 -9.6459 9.05091 0.690908 -2.0363 -2.47676
481 1 -1.49913 7.05855 -21.0297 1.85588 3.04988 0.300331
482 1 23.7092 -3.11727 20.3422 0.736652 0.329809 -0.292803
483 1 6.00813 -16.8801 0.03043 -0.362054 -1.47564 -3.51648
484 1 23.3751 -15.0139 -13.1977 3.1962 -4.14867 -2.50522
485 1 21.07 -19.9751 -17.6568 6.51884 -1.84908 5.54981
486 1 15.2157 3.50889 -4.39797 1.55497 1.17745 -2.40903
487 1 3.00316 22.4533 17.2378 0.877678 3.04527 -0.857247
488 1 0.89481 -15.5565 21.5654 -1.30085 -4.07873 0.360709
489 1 -12.344 22.3074 -12.887 -0.0200436 -3.7325 2.18928
490 1 16.1005 -15.6559 -11.9183 -0.126694 4.39983 1.05113
491 1 -20.5106 -13.0871 10.1377 1.43445 -2.31848 -2.99482
492 1 -15.88 -16.5882 -11.8077 3.27703 1.52178 -4.79768
493 1 14.6495 0.289382 -15.1974 -1.25556 8.73833 0.178144
494 1 7.25829 2.99413 5.83833 -0.229627 -3.51778 3.56936
495 1 -1.80902 -10.3204 -3.48009 -0.130579 0.335739 -0.640287
496 1 5.30629 6.20494 -13.4942 -0.953044 -5.20148 -1.22014
497 1 10.6893 14.9428 23.6282 -3.33452 0.550513 4.84228
498 1 22.4759 1.02916 -23.7818 1.50215 0.0292378 -1.04667
499 1 -23.6434 2.66494 -10.1808 1.89911 -0.86936 -4.56391
500 1 -6.08005 -16.0048 8.55403 -1.40611 -3.39482 -2.33988
501 1 -15.2135 -13.2729 -6.54513 0.262205 2.38615 0.3364
502 1 12.3086 -13.859 18.293 2.4773 3.44651 3.93335
503 1 9.19521 0.631893 -12.6876 -1.25012 4.79166 0.410019
504 1 -1.92716 3.85506 4.94897 3.78944 -0.194182 -4.37379
505 1 -0.801001 7.01385 -23.9598 -4.43784 1.63016 -0.757122
506 1 -1.31311 -19.7608 -14.7864 2.40698 -5.10329 -2.12452
507 1 11.8743 20.2988 -14.5185 -1.55045 -1.88993 -3.33912
508 1 -0.766778 22.6002 -10.3598 -4.99582 0.313546 -1.5625
509 1 23.5914 14.9935 -19.026 -0.36167 -1.62911 0.585478
510 1 7.05473 -17.339 15.415 0.578955 -0.472874 -0.765223
511 1 8.52035 -14.5103 4.53787 -0.724662 3.59925 4.02954
512 1 0.929257 -4.49987 18.9296 -0.514554 0.43693 1.25121
513 1 -19.9409 -13.5057 19.5358 -0.384664 3.01737 4.99972
514 1 -13.9128 18.4673 19.4572 -1.55781 -7.42755 1.96793
515 1 -1.0967 7.47 17.5253 3.87354 -0.96266 -2.8616
516 1 9.08224 -23.1532 -2.56845 3.36005 0.664333 -3.21154
517 1 -16.0086 -1.02682 -23.1124 -2.97069 1.38779 1.16088
518 1 22.4189 -24.1222 2.02214 -4.56632 3.16144 -1.7146
519 1 -21.4687 -12.0707 -8.84775 3.05139 -4.17534 -1.77277
520 1 -5.337 -24.4705 -13.5327 -2.83674 0.161326 2.29189
521 1 -9.73186 23.015 -6.44135 -1.47795 -2.74615 -7.76933
522 1 3.12189 -16.5625 6.53639 -2.01385 1.1481 0.882193
523 1 -9.42448 -15.8775 -7.61774 -2.71854 2.34288 1.67495
524 1 -1.46442 -2.92055 18.2702 -0.290486 1.51286 -2.8029
525 1 -6.95506 -1.68257 -2.24421 -1.68794 5.15699 -4.83951
526 1 -20.065 15.0883 -5.01642 -3.49368 0.37586 -0.634654
527 1 -3.42634 13.7177 -8.2967 -3.25723 3.43675 0.818743
528 1 -15.2006 15.637 -11.9335 4.67164 1.95016 -0.828309
529 1 -9.40176 -12.1923 7.85228 1.40388 0.792145 0.852161
530 1 -9.03512 2.17245 10.1746 0.470624 -1.50275 1.08175
531 1 22.1406 -8.39143 12.7087 -0.0445797 3.30646 -1.96363
532 1 -9.24976 -3.34369 -2.80832 -0.0865431 -1.31257 -2.29769
533 1 -9.91786 -19.1145 15.0424 -1.04383 -2.72783 0.693981
534 1 19.6306 8.457 -11.9077 -0.475575 -3.34175 1.3428
535 1 5.01609 10.5207 10.0469 -1.17902 4.21083 -0.0931721
536 1 -0.136475 -8.49382 3.88075 3.00579 -2.2243 3.83108
537 1 8.76841 -4.57088 3.08784 2.04199 4.42067 -1.04395
538 1 -21.0617 -7.37817 11.6144 -0.26177 1.31007 0.397188
539 1 17.7137 10.6585 -7.50476 3.49333 0.756433 2.08575
540 1 -13.9127 -11.414 3.4798 1.75583 1.797 1.59664
541 1 -12.5457 0.118512 15.3689 -3.09294 -4.75125 -0.00744929
542 1 -24.5015 5.18631 -8.85299 3.14292 5.03042 0.15565
543 1 22.0331 -16.5508 -16.4714 1.80378 -4.61319 -1.94413
544 1 -4.6181 -17.4723 -19.1925 1.88311 -0.162265 0.912392
545 1 22.1365 -16.7788 14.232 -0.384887 5.09898 0.527483
546 1 -7.29843 -15.9591 -13.7951 -0.143027 1.49856 1.81845
547 1 16.7354 -15.5867 -21.9783 0.574166 -0.861138 2.05197
548 1 9.14539 1.41067 20.0245 2.28151 7.0804 5.46735
549 1 -20.1472 -3.97501 8.06307 1.23088 2.50121 -0.246619
550 1 0.697069 -21.2323 -13.5662 -0.380511 -6.8765 1.50378
551 1 10.0801 5.05129 -17.4916 2.87004 -2.40725 -0.562973
552 1 1.48251 -18.4737 -0.74345 3.39124 0.875601 2.6423
553 1 -11.7137 5.58926 -0.176855 -2.10342 -0.455454 0.372302
554 1 2.78872 15.9884 -18.7594 -0.196895 -0.269164 1.68908
555 1 -15.0229 -14.3789 -0.118359 -0.464268 1.24927 -1.60116
556 1 -10.8776 16.7655 -3.22906 -2.48687 1.4007 1.49956
557 1 11.0156 -22.9056 -11.3234 -0.023312 -4.11236 -0.762047
558 1 -4.41363 -12.5811 14.3496 -1.46838 -2.28914 -5.12902
559 1 -8.67267 -19.5979 6.57453 -0.900403 0.201296 -2.33128
560 1 22.8139 -21.1782 -4.00584 0.628709 -0.0364517 0.0946759
561 1 6.95333 -24.0908 19.5872 3.99164 -0.604795 3.35745
562 1 6.77719 7.45304 -20.3924 2.01172 -1.74016 -3.45711
563 1 4.96433 -20.2813 6.34293 -1.46026 4.12264 -2.07189
564 1 -11.0622 -20.4471 10.4404 -0.174381 -3.76187 -2.48988
565 1 14.6995 -21.4507 22.1085 -2.55103 4.06997 -0.705463
566 1 20.3365 13.7908 14.7823 -4.08713 -0.683892 1.97888
567 1 -20.0554 21.8747 -2.62498 -6.03634 -0.0729291 0.725836
568 1 5.14542 -6.43259 6.44708 -0.96539 -4.71059 -0.232658
569 1 -6.34087 23.1715 -15.8157 1.23274 1.45761 -4.15117
570 1 -23.5564 12.741 17.7618 0.255189 0.956565 -5.49866
571 1 -0.641053 -12.9312 21.3698 1.22503 -2.40023 -0.658494
572 1 9.30452 -23.1579 4.02982 3.92105 -0.358007 -2.42162
573 1 17.7948 -5.93863 5.16139 -0.739711 -0.149807 -0.0980641
574 1 14.4182 -21.1239 -5.89571 1.43109 -1.45556 0.662293
575 1 -16.0523 5.49766 -4.04171 1.37766 -6.11271 -1.53333
576 1 20.5988 0.229086 19.166 2.66479 0.204356 -0.729036
577 1 -6.91958 22.0508 0.584917 -0.530371 -4.76443 1.54694
578 1 23.772 21.0628 -22.797 -2.18824 3.10985 -5.53573
579 1 2.84353 -19.8208 -11.9363 2.94822 1.29783 -1.95315
580 1 -4.98863 3.05738 -20.9432 0.0704898 -0.0627185 -4.52953
581 1 -16.1155 -9.83612 14.9676 1.73736 1.79656 0.693401
582 1 -2.77752 -13.582 -16.4534 -4.69619 3.25896 0.158717
583 1 -21.658 21.8454 12.615 3.3898 -1.39404 5.78196
584 1 15.0863 4.73698 -7.21827 -2.40382 -2.8005 0.683927
585 1 -8.00109 10.8712 14.8983 1.22543 -0.578126 -4.43721
586 1 17.4184 23.0416 -20.9441 2.68881 -2.46608 -2.61143
587 1 -20.1528 -23.5455 -9.69891 0.236039 -0.459883 6.94908
588 1 -18.9312 22.1747 5.82053 0.415735 -2.82738 -0.554997
589 1 -1.89762 3.08367 -0.206564 0.268459 -1.74348 3.29495
590 1 -4.99079 17.5064 20.801 1.76978 -1.3639 -2.1783
591 1 18.6357 -18.8008 12.7077 -4.20736 2.47957 -1.64425
592 1 -15.7492 -13.7528 10.8259 0.618509 -0.157325 3.63665
593 1 -12.9564 -21.4263 17.609 3.69128 1.75125 -2.6572
594 1 -19.6834 -0.425428 2.91688 1.67641 -2.11451 -1.81196
595 1 9.05368 -17.4287 24.2648 1.08075 -0.228752 4.07109
596 1 -12.9722 -20.3033 5.94362 1.52722 2.26706 -2.33205
597 1 -23.5897 -22.4243 -11.9119 5.15644 4.31544 -3.92155
598 1 15.0735 -14.1638 4.70735 3.87402 3.26863 3.45839
599 1 10.9052 -14.4698 13.6011 -1.45926 -2.19613 -2.57898
600 1 -22.5696 24.5453 17.0339 -1.1757 -0.847435 0.363442
601 1 1.09276 -3.14056 21.6917 -3.28582 -0.593562 0.498025
602 1 -10.5933 4.19069 20.8703 2.43169 0.333276 -1.30371
603 1 -5.11641 6.31053 -4.04901 2.75595 -3.26775 3.15675
604 1 0.429528 23.2589 23.7616 0.606751 2.00359 4.72055
605 1 -21.3371 -2.54322 17.7086 -1.19162 3.30252 3.94963
606 1 2.69165 -1.56723 -22.6116 -0.420993 -2.96042 0.98081
607 1 -1.02157 -3.12112 15.3515 -3.76472 0.649797 -0.538975
608 1 3.76018 7.46362 -9.82129 -3.37858 0.472696 3.46457
609 1 10.1051 -20.6197 20.7291 -3.83705 -0.37562 -1.1879
610 1 16.7226 -3.71758 15.4917 3.05285 1.6537 -1.37543
611 1 -2.05819 -7.26095 -6.30622 4.83215 1.85039 -3.74274
612 1 -4.08423 11.9632 -13.1246 6.11279 3.83756 -1.80591
613 1 12.6347 7.11758 -20.8664 0.609536 1.8843 -1.63967
614 1 -18.6574 -9.29689 -5.56334 -2.8341 -0.91065 0.197928
615 1 11.7494 -3.38046 19.0045 -0.31264 -1.11383 -1.54877
616 1 17.7183 -2.55691 21.1862 -0.55399 1.53012 -5.10178
617 1 -11.8278 22.1382 -18.2712 -3.1763 5.76864 -0.623083
618 1 13.7041 5.97256 10.727 0.91088 6.93499 0.894584
619 1 16.416 1.70657 10.6825 0.214042 1.69417 1.92145
620 1 20.879 -11.7892 -9.5665 -3.39801 1.48283 -1.46027
621 1 -7.37561 13.8187 -13.6618 -3.6665 1.25386 1.25048
622 1 -22.618 -10.069 1.55659 2.42162 -0.286396 -2.50611
623 1 22.509 -14.0583 4.95765 -1.25863 3.44811 6.30135
624 1 -7.00604 1.26987 -20.0557 -1.64619 -2.92101 0.198565
625 1 0.126256 -9.11714 -5.44177 0.764591 2.56284 -4.37915
626 1 -2.51013 2.62647 -19.2424 0.209369 0.165456 3.34686
627 1 20.5088 14.5156 12.0286 -3.25781 0.82603 2.09624
628 1 -22.3406 -14.9043 -0.11182 1.15647 -3.72664 2.75479
629 1 -5.51076 9.801 -7.07653 -1.87006 -0.924965 -2.19855
630 1 -22.6163 21.3581 10.0173 -0.257535 -2.07357 -1.86995
631 1 -4.71905 -18.0186 16.8905 -3.07219 -2.20803 3.44355
632 1 -15.3752 -20.5564 4.25181 2.16196 0.735886 -2.57621
633 1 8.0236 9.88054 -24.0044 4.27208 -3.45297 0.646873
634 1 -10.1613 -2.39502 16.7376 1.22685 0.82174 -0.902453
635 1 8.09288 12.9955 -3.69336 1.06844 0.861304 0.161154
636 1 -23.0387 1.90326 -16.4608 -1.15822 -2.27011 -2.01371
637 1 -9.50702 -23.0288 -23.7134 -1.23069 -1.55544 -2.85911
638 1 14.7627 18.1318 -4.5745 0.853167 4.93769 -0.803604
639 1 -11.058 -17.6002 -22.8475 1.12542 0.804282 -0.758814
640 1 1.52662 -0.951519 4.38277 0.93787 4.27217 -4.09958
641 1 -13.7461 17.6361 5.78392 1.43241 3.43379 -1.37548
642 1 -8.12858 -2.95231 5.10353 4.28083 -4.69361 0.870429
643 1 9.64972 -19.3227 7.71056 2.9212 -0.719466 -2.99215
644 1 -6.25194 10.865 -4.21705 1.63041 -3.81401 -0.771898
645 1 -9.24366 -7.04088 -18.7237 -0.449543 0.558424 5.48174
646 1 14.9801 23.1127 14.274 -3.76485 3.15445 3.67874
647 1 4.13085 2.76121 -4.28175 1.37295 -0.479778 -3.22708
648 1 21.0646 -15.9583 -23.5228 -0.113653 0.400773 -2.25141
649 1 10.3426 -16.9236 17.9003 -2.45017 -1.66427 1.19899
650 1 -8.4202 -0.457541 19.593 2.05658 6.70252 2.94644
651 1 -23.4048 4.52267 -15.2372 -4.75629 2.02176 4.31873
652 1 -8.23369 -4.1777 -19.1789 2.19686 3.22664 -0.771456
653 1 -23.3879 -19.9786 -13.678 1.26289 -6.25498 1.97924
654 1 -10.9367 -1.09917 -20.1042 -2.46096 0.71226 -0.67203
655 1 -4.04866 -11.1214 -13.1554 -0.712045 -6.36854 0.220143
656 1 2.2682 22.2304 -9.77018 3.07209 -2.58899 1.53541
657 1 0.0677825 -4.89201 -13.7751 0.976358 0.515625 5.14359
658 1 21.1072 11.5264 12.9003 0.443602 -1.66102 0.275841
659 1 7.28339 -0.091084 21.8302 -0.38788 -5.13742 -1.32846
660 1 8.37592 4.41498 7.99419 -1.45405 2.92404 1.75875
661 1 -17.3222 -7.09005 -17.1368 2.12438 0.233607 -1.4205
662 1 3.54136 -5.55528 8.7661 -4.1123 -2.17599 -1.33901
663 1 -12.8837 -17.977 -7.72555 -5.90737 -3.89029 -3.32976
664 1 -15.5467 -20.0085 12.487 2.83671 -3.8123 0.23952
665 1 -2.54412 -6.57402 19.0661 -2.63074 -2.60358 0.13137
666 1 -9.30792 -7.109 -11.601 0.809006 -2.26771 -1.48046
667 1 -21.2978 -19.9928 24.2103 0.203415 -4.06582 1.07385
668 1 -9.042 12.1707 17.4509 -1.15993 3.18732 -3.92934
669 1 8.17989 -14.8565 15.1018 1.56864 -1.23952 0.309249
670 1 0.600333 -14.0129 -0.627431 -1.00372 -1.93075 -0.593833
671 1 19.9844 14.8091 3.30358 1.77397 0.935945 -0.488617
672 1 -25.0779 4.92785 -11.7084 -4.90535 -1.84764 0.00745019
673 1 -2.01387 17.7336 -23.6923 -1.21409 -2.60717 -3.7194
674 1 -8.71803 -0.270383 -21.8144 1.0141 1.05907 0.237591
675 1 -22.6847 -9.44052 -9.14905 2.47928 -1.60969 -3.52771
676 1 7.35725 1.78504 17.5163 -2.98541 2.09952 -1.50147
677 1 -22.4956 -10.3319 -12.0459 0.348622 -3.46551 1.10385
678 1 -20.8849 -5.73931 0.114882 -1.05506 -0.718766 -3.40026
679 1 -18.8702 3.15691 -8.78893 1.17936 3.8339 0.104578
680 1 8.43032 21.1354 -9.52126 -5.43271 2.41948 -3.55232
681 1 -2.33159 1.06619 -8.63102 0.217086 -1.61379 2.81362
682 1 -3.15608 16.6369 -7.98601 -2.23119 -0.165156 -0.667354
683 1 1.22991 10.3497 -19.7681 -3.55474 0.312198 0.77234
684 1 10.3113 -20.1864 -11.6717 -2.43062 1.31798 2.32986
685 1 21.8712 0.110081 8.19337 2.43818 0.711929 0.068078
686 1 -15.5843 -1.00655 17.6837 6.9847 -4.9566 1.81153
687 1 -14.2207 6.44064 10.7221 2.02132 -0.324144 2.8222
688 1 -11.1307 -11.992 -13.9995 1.59398 -0.132389 4.49884
689 1 -1.36947 -0.592675 -4.42147 0.705892 -0.363432 0.833644
690 1 0.549589 22.6672 -5.47802 1.83956 -6.53034 3.30851
691 1 0.301445 7.18708 15.0668 -2.4111 0.885676 -0.408306
692 1 -10.2685 -6.77802 4.15411 2.84869 -0.27927 0.538592
693 1 -8.70341 22.9163 2.76126 -2.10509 -0.107234 6.31759
694 1 9.47983 -18.1736 2.30549 -0.643957 -6.06553 3.71816
695 1 8.01903 -10.4708 -7.88502 1.29243 -2.04747 -3.00809
696 1 -8.33074 -22.4686 7.47704 -1.26472 -0.945514 -1.05277
697 1 -20.2667 16.0956 -19.2084 3.68249 2.30523 -2.94242
698 1 22.6137 -11.1608 -6.31095 3.17705 -3.29048 7.19119
699 1 -15.2232 -12.1883 16.4025 1.27621 -4.50553 -1.23906
700 1 2.88225 6.28689 -23.5605 6.15922 -4.92549 0.782533
701 1 18.3148 0.0518824 9.80535 3.6842 1.66826 -4.32311
702 1 -16.1334 -3.41004 12.1584 4.91989 -0.255877 4.29065
703 1 6.79149 24.4901 -21.9586 -0.802323 -0.84324 -0.297911
704 1 -10.3356 -12.4661 12.3064 1.17464 -1.55829 -2.33971
705 1 5.25699 21.0628 -15.8 0.926512 4.50181 -3.43467
706 1 6.57616 2.91867 20.1477 1.03081 4.55927 0.927753
707 1 -17.4029 -0.561807 21.6674 4.79813 -2.73373 2.24572
708 1 10.5058 -5.9022 -18.5716 -1.001 -4.66392 1.74271
709 1 -9.86892 -3.45989 -7.04254 -0.0693297 0.374451 0.525223
710 1 -3.59239 -9.68539 13.613 -2.08 -1.5694 3.07711
711 1 -14.3718 -5.77857 -14.7426 1.10431 4.80045 -1.79525
712 1 5.07852 -9.8373 14.4812 1.12935 -1.10064 0.639053
713 1 3.0297 4.20191 2.19345 2.26221 7.1808 4.45765
714 1 19.9008 -5.16081 -11.5804 -0.0629905 -2.02691 -2.91691
715 1 3.01739 16.3995 9.78537 -1.62543 0.552124 2.99427
716 1 -1.27628 -21.6487 9.24546 -2.08695 -5.462 -2.4063
717 1 -12.4521 -3.95491 -13.5291 -2.08965 -3.66414 -1.86828
718 1 -13.1182 -6.29926 3.36608 -0.551321 -2.52037 1.04297
719 1 13.8618 -7.87798 10.9499 4.79237 1.77657 3.25756
720 1 4.40058 -5.77269 -20.1356 4.66128 -2.33849 -3.77342
721 1 -8.92548 -9.94735 -16.1316 -0.895695 1.29051 -1.26936
722 1 8.01252 -22.5158 -13.608 0.580009 0.938206 6.35968
723 1 -21.8447 13.2375 -5.16141 5.44333 0.664262 5.09938
724 1 -8.94853 21.9273 -10.0343 -0.502857 0.54114 5.31678
725 1 3.6945 17.3967 23.7834 1.48923 1.87225 0.863343
726 1 -4.5999 -8.3713 22.5402 -2.32979 7.05018 -2.88539
727 1 8.11398 -4.55653 -13.1143 6.39521 -1.97839 -0.905759
728 1 -10.8649 16.7535 -8.14697 2.2237 -2.37498 -0.188806
729 1 -13.5465 13.9752 15.7986 -0.344867 1.76848 -1.01324
730 1 15.1139 -19.2194 -18.2121 -1.39034 7.30944 -4.10498
731 1 -11.7185 11.6008 -23.4263 2.5713 -1.90375 0.812815
732 1 11.8257 -22.2985 -8.81824 3.50277 -0.76712 -0.0543821
733 1 -14.6159 -18.0096 5.62377 -0.0171315 -0.189496 -2.23395
734 1 -19.7565 22.8623 19.7506 1.05312 0.273279 -1.34926
735 1 17.5027 8.55384 7.38105 2.36965 -0.251017 -0.528962
736 1 6.22547 20.7734 -7.74026 0.275365 2.88753 0.801175
737 1 20.9515 -16.5289 5.74301 1.70659 2.21611 0.407059
738 1 -10.11 6.86569 16.0241 3.14996 2.30644 3.56895
739 1 -18.8157 -18.8855 3.29163 -0.95786 -2.37691 0.719754
740 1 16.8286 12.8138 20.3533 -2.97592 5.76992 -1.91127
741 1 -16.4462 -19.5435 -11.8803 1.42049 -6.77021 0.418194
742 1 -7.11058 -22.6185 23.5969 -5.85858 -1.58532 0.574928
743 1 -23.4453 18.9024 0.979375 0.936916 -3.05181 -9.63626
744 1 8.66653 -13.5188 -12.0482 -0.251134 -2.03641 4.73155
745 1 -21.8183 1.71172 19.7477 5.65165 -0.879985 2.13935
746 1 -17.1906 -7.20617 24.0461 2.46486 -4.07371 -2.64753
747 1 10.6234 -10.4105 2.87334 1.7651 -0.895589 0.487141
748 1 -11.6214 -20.1253 21.7651 -3.61941 1.07198 1.13239
749 1 -0.00659196 13.5658 7.5996 -0.880913 0.127754 1.33787
750 1 17.0133 -4.41132 -12.5726 -1.2944 -5.5678 1.99381
751 1 -19.5608 10.9906 -12.7707 -3.0009 -0.0507502 0.671046
752 1 21.3069 -21.0583 5.42685 2.17943 0.044338 2.30069
753 1 -17.5991 -17.9556 23.6242 4.76483 0.892624 1.84962
754 1 -14.2644 22.966 14.8396 1.00549 -3.00827 1.27483
755 1 12.0404 9.48564 -22.359 -0.814818 2.76156 -2.94564
756 1 -5.52588 -4.20653 -2.17131 -0.00968236 5.09317 -0.758265
757 1 -18.1144 12.8719 -4.07575 2.26094 0.444086 3.9231
758 1 -15.6717 -18.7473 20.1882 -0.950913 1.08152 2.64698
759 1 -0.113931 12.1098 -10.6569 0.736096 1.82527 0.00408763
760 1 1.4129 4.74345 13.5423 0.987772 -1.77472 1.87053
761 1 -8.91171 -12.8759 -7.94145 2.54645 -0.180611 1.03101
762 1 6.17901 17.1971 22.364 -0.584497 0.00923606 1.88335
763 1 16.2545 5.7581 9.04877 -2.91363 -0.561859 1.89171
764 1 19.9653 4.42057 6.96409 0.742118 -2.58528 -2.56332
765 1 23.8192 11.0735 8.34232 -0.0532251 -2.1223 0.0992415
766 1 -11.2361 17.9224 -16.7062 0.0171732 3.07489 -1.68703
767 1 -0.941775 -11.9951 1.15054 3.11356 -1.43853 -5.26099
768 1 -7.67172 8.98129 9.56409 2.39297 3.1524 1.54848
769 1 15.0138 24.3158 18.9967 0.240045 4.61393 0.419766
770 1 -4.29098 21.094 -23.8768 0.157952 2.94523 1.07573
771 1 9.50366 -16.108 11.6805 0.0843237 -3.15214 2.43567
772 1 5.77446 8.06462 5.86581 -2.1359 0.523417 0.0582405
773 1 10.2106 -21.3246 11.8096 -4.01742 -1.8337 -2.44265
774 1 17.5141 15.2168 14.1572 4.49935 0.703198 -4.29269
775 1 22.3247 -18.7022 -10.6111 -1.97318 -3.65945 -5.81915
776 1 9.79292 -0.123151 24.2347 -2.11052 -0.168662 3.84248
777 1 23.1854 -9.62699 -11.9069 1.34114 -5.5638 2.73262
778 1 2.14154 -17.4366 -15.8641 2.21367 -3.76982 3.94722
779 1 6.78903 2.67832 -9.00606 -3.48345 -2.11582 -3.30223
780 1 -6.23921 -9.00579 -19.9528 1.08988 1.18056 -1.893
781 1 -19.2602 2.55984 7.72454 1.16866 4.23697 -2.58317
782 1 19.6097 -7.55873 -14.5879 0.913584 -0.885637 -0.0178347
783 1 5.86233 -15.9337 22.5199 -0.218456 -1.6159 0.450846
784 1 12.5619 14.3699 -3.81947 -1.63479 1.12024 -1.99808
785 1 -2.89255 20.3689 20.6152 -0.693577 3.87103 2.9577
786 1 -20.6052 19.6458 22.4073 -2.83055 6.571 1.31974
787 1 8.81245 14.4539 -12.9444 1.27615 1.97224 3.43612
788 1 -20.5753 5.01914 6.35032 -4.34901 -3.93825 0.257288
789 1 -12.9303 17.7553 0.106999 -0.174638 3.2377 -3.84283
790 1 3.84645 0.933143 14.7679 -4.0546 -3.32412 1.98317
791 1 -2.5271 22.3933 13.7953 0.390758 3.14623 -3.32215
792 1 -22.9255 13.9754 -7.70962 -1.91905 0.179911 -5.92328
793 1 23.2038 -9.33816 1.1211 7.34232 -5.32743 -1.69317
794 1 5.99522 16.7276 -23.3828 -2.21483 -0.686261 2.43662
795 1 19.3903 -7.68341 21.3655 -1.5493 -1.80925 -0.101796
796 1 -11.2897 -14.6861 -14.4936 -3.46797 -1.85844 -5.12761
797 1 -18.7395 -13.5232 14.1721 -2.68969 0.14951 0.86569
798 1 -15.4042 1.4707 -7.04638 -0.399971 1.38976 -3.38435
799 1 -9.82882 19.2545 -2.61156 1.3376 1.25219 2.03138
800 1 -18.9906 -11.1757 18.195 -1.42456 -2.87666 -4.19757
801 1 20.0938 13.9397 -1.27921 0.476421 1.30437 -0.0202113
802 1 -20.8887 -20.4129 14.1567 -0.458975 1.53703 2.78033
803 1 19.2886 -9.26513 -9.61665 1.70746 -0.198809 2.41535
804 1 7.18612 -19.8103 -9.41336 -0.152214 1.85238 1.37712
805 1 10.7291 23.5522 23.2492 -2.41709 2.05205 -2.57376
806 1 -0.507061 -13.0355 13.2541 2.39077 -3.53073 -3.29728
807 1 16.2143 21.2688 -23.097 -1.64057 -0.844465 -1.99241
808 1 -1.86933 -18.8592 -10.4819 -0.556778 -0.420718 -1.36064
809 1 -5.10637 23.5023 -18.2504 3.53822 -1.92586 0.107683
810 1 -21.6848 -12.5545 -6.18218 9.36833 -2.97072 -0.554582
811 1 -14.9274 -8.38836 -5.95244 0.779912 -0.435551 2.30199
812 1 2.66642 -12.3164 -8.61551 0.380516 0.115726 -2.55297
813 1 -14.8224 22.827 -18.3282 3.09397 0.723302 0.285869
814 1 -21.5338 -1.71125 -2.11122 -4.80217 -2.42282 0.740838
815 1 -20.8668 11.8858 -16.5732 -1.12038 0.331178 5.07352
816 1 19.4229 -20.0035 19.6324 -2.7793 -0.297938 -0.396377
817 1 8.17703 -11.6708 16.0967 -1.2283 -0.867969 1.87459
818 1 -9.20717 7.01929 21.0695 0.0108445 1.11132 -0.733245
819 1 9.80664 11.8866 21.4131 -4.188 -0.541125 -2.11845
820 1 2.69554 13.9072 8.24831 -4.06234 1.38383 -1.28872
821 1 -23.4243 -23.2628 -23.2018 2.29321 -0.72304 2.72984
822 1 21.1903 -15.3768 16.5829 -2.03751 -1.49005 1.20123
823 1 6.45891 -10.6862 2.70076 -2.45953 3.48285 1.86025
824 1 3.31432 -20.0347 -6.78447 -1.05064 4.94151 -3.56478
825 1 -23.4371 5.39732 5.68879 -1.14093 -2.35126 2.01674
826 1 -11.7379 6.65824 -3.74079 -1.90178 0.162602 1.14524
827 1 -2.09459 -0.310786 4.08579 1.90342 1.85214 1.17931
828 1 -6.95558 -19.8847 12.7137 -1.45265 -6.44759 -3.75124
829 1 20.3671 15.6631 21.0936 0.302201 -1.62703 1.75999
830 1 -11.0555 -9.83415 20.4361 1.89038 1.09239 0.402011
831 1 2.16604 -14.2947 -23.566 -0.626044 1.49909 -1.01167
832 1 -5.35037 -4.29595 11.3722 -1.44694 1.9449 1.48555
833 1 -12.3286 -4.84737 -8.08616 -2.63346 -3.91543 6.36674
834 1 0.384596 9.92809 -0.218698 2.53497 -1.36721 0.889609
835 1 2.39886 5.96063 -20.5586 2.26351 0.305543 0.921685
836 1 5.06474 -13.1647 22.2676 0.0523137 1.5592 -3.06912
837 1 -20.922 -15.2654 -6.65183 -2.01998 -2.32047 -1.93492
838 1 21.9918 -20.1685 2.78113 7.62781 -3.1126 -1.2602
839 1 -22.7394 19.0046 -10.7929 -2.62859 0.856057 3.62004
840 1 3.03368 -17.478 12.9805 -1.63286 1.57843 0.203846
841 1 20.0586 2.26382 8.86244 2.65409 3.46431 4.37123
842 1 -6.33362 -22.6055 -2.62212 -4.17292 -1.48158 -1.76525
843 1 19.2039 -5.48418 18.0319 -0.549573 -2.54154 -1.67696
844 1 17.1136 -18.6059 -22.124 1.42649 2.25413 2.12163
845 1 18.7728 7.97865 -2.74756 -4.06634 -1.45935 -0.961332
846 1 8.76444 6.78136 -11.9511 0.918695 0.40914 -4.16033
847 1 -13.9946 -23.3145 -15.1865 1.43249 -3.77301 -0.362624
848 1 -5.11222 15.7588 -13.0441 1.63256 0.54536 0.0225312
849 1 22.0501 -12.5492 -12.2448 -1.22013 -6.3148 -1.41527
850 1 16.5766 -20.0583 24.2548 2.63636 -2.31034 3.94809
851 1 -22.6621 16.7779 -14.3989 -0.88041 0.665833 -6.55235
852 1 11.8882 -2.32722 -1.11553 1.19079 -0.135775 -0.770279
853 1 12.7563 10.8861 -14.5935 -1.62777 3.86444 2.12793
854 1 -23.5837 -13.3355 4.58812 -2.51735 0.432473 1.46054
855 1 -16.7834 21.72 -21.0473 -8.82506 -1.04846 -2.51016
856 1 -20.0849 -2.65415 -9.4719 2.31706 2.29615 7.63397
857 1 -24.3109 -5.65627 9.32081 -0.139378 -3.2873 -2.39896
858 1 16.6349 -12.7844 15.236 -0.479681 1.45528 -0.914512
859 1 -15.2281 -7.87497 0.220631 -3.03841 -4.39112 1.89096
860 1 13.8098 -8.4888 -16.8883 -0.356916 8.44145 1.869
861 1 -23.7895 21.3086 -12.7635 -0.599362 3.625 0.970267
862 1 0.983193 14.4333 -8.90513 2.9154 -0.985849 1.27847
863 1 17.8942 -16.0874 5.68634 -4.96524 1.09412 6.23618
864 1 -14.9417 2.62804 20.07 0.687235 4.51332 -3.22702
865 1 0.117295 -21.8807 11.8329 -0.298041 2.13002 1.80138
866 1 13.9736 -2.35455 21.0201 -2.38164 0.703643 3.67813
867 1 -2.35325 10.969 21.0204 0.976411 -1.70389 -2.91032
868 1 1.18232 17.1252 -4.78137 6.59504 0.505795 4.24056
869 1 -0.877785 19.2493 3.73171 -2.02486 -0.456533 -5.16002
870 1 15.2204 19.5671 18.2294 2.31258 -3.6996 2.43738
871 1 4.68885 8.7669 -17.8131 -0.00195103 -4.63679 -2.1198
872 1 -3.8428 -7.26465 -20.5209 0.408352 1.7873 0.734602
873 1 -4.4313 -0.244143 -23.6001 -2.72851 -1.38843 3.78663
874 1 11.2336 1.31591 1.02615 -0.39032 -3.96669 0.785568
875 1 20.9531 14.0896 9.24145 0.937481 3.03209 0.274613
876 1 12.9116 -14.0156 -8.51574 2.05112 -0.0204408 0.165638
877 1 1.34316 -19.1587 19.183 -1.24367 3.68617 -3.14467
878 1 8.61313 12.7084 -22.9792 -1.77839 1.80378 0.329565
879 1 15.3007 4.91104 -19.4908 5.67687 1.58693 2.62581
880 1 5.40805 13.9542 21.1734 -3.58667 -1.84085 -5.65465
881 1 -2.90288 -4.01928 20.6154 -4.65724 4.06811 -0.0484511
882 1 -13.177 -3.1831 -1.93889 -3.34504 1.3249 -1.15335
883 1 17.3201 17.0648 -7.29709 4.32832 -3.1149 1.09503
884 1 18.2947 -16.5968 -15.2899 1.03026 0.937747 3.04426
885 1 -4.70893 -18.6046 -2.75965 -2.45352 -0.309084 -1.89057
886 1 -3.87088 23.4987 3.17715 -2.07761 -1.04436 0.0159749
887 1 9.26351 -23.8742 18.0607 -1.20039 2.63025 2.66022
888 1 -8.52419 11.0232 -16.3434 -0.276056 4.09798 0.981038
889 1 -15.2448 -2.96223 15.6032 1.32428 -0.938244 2.11654
890 1 12.422 -20.444 13.5378 4.20719 -3.24433 -0.406282
891 1 -22.0929 -1.98869 3.76009 0.75608 2.01941 4.95385
892 1 3.18375 -9.53329 -5.17189 4.88948 -3.40827 -1.89384
893 1 20.3675 -4.61878 1.66829 -0.372206 1.93944 -6.47656
894 1 1.60083 12.6971 22.7064 -1.33616 -3.76975 -2.10232
895 1 2.06704 -23.4807 5.65247 -2.53366 3.23583 -0.0746289
896 1 9.96637 -3.77648 21.1338 -1.40297 2.28312 0.624029
897 1 -12.8829 -22.8806 9.94983 -5.10907 0.740346 -1.49965
898 1 17.87 0.139724 -23.7276 3.27755 -0.0714914 0.759914
899 1 14.1404 -18.3295 17.7563 0.450837 4.50069 4.05468
900 1 -14.379 -14.2719 -12.6518 3.02113 1.32934 -0.213825
901 1 3.24975 -20.2595 8.80702 -1.6261 2.19953 3.21094
902 1 -8.2521 15.5863 -0.339556 3.98116 -2.0728 -3.67653
903 1 -6.05773 23.8124 -20.9821 1.13927 1.42162 -1.66825
904 1 -10.3765 -6.53578 -6.75571 -2.7146 -5.13261 -2.73327
905 1 22.6321 -6.74778 -23.5327 -1.42728 5.82046 -2.65368
906 1 -7.58371 -22.2848 18.9521 6.00565 -2.85938 4.38446
907 1 -16.3787 1.95926 -9.85886 -0.224557 -2.69264 2.53396
908 1 -8.99122 -17.757 12.4771 2.32791 -0.203975 -2.28766
909 1 15.9249 -22.3184 10.4938 -2.15761 0.616121 -3.22668
910 1 -8.59382 4.69879 -4.02632 3.68943 -1.0108 1.301
911 1 -0.300051 14.2385 24.1685 -2.43264 -4.65183 0.0066519
912 1 -15.8474 22.4977 -8.96182 -1.41486 4.58534 3.1104
913 1 -4.80293 22.4792 15.7212 5.72536 -3.84866 -1.62955
914 1 -23.1221 15.215 9.86326 0.748542 -5.70831 2.56673
915 1 16.6713 -6.93989 -14.1618 2.64325 -2.8948 9.22009
916 1 -17.5484 -16.7522 20.9209 2.17751 0.594943 -0.785846
917 1 23.0566 4.64091 -20.9669 -0.901185 0.468708 2.48126
918 1 -4.91199 6.44318 2.02883 -0.52169 -1.74877 1.05128
919 1 -9.81918 16.4527 11.6143 -2.68293 -2.68146 -2.90318
920 1 1.43628 13.7702 -22.3574 -3.00212 -0.721324 -5.72182
921 1 10.0599 -9.88072 -20.7567 -2.60586 -4.38468 -0.959497
922 1 -10.7389 1.80617 -19.9578 -0.785482 -2.34456 1.77855
923 1 3.19368 -11.0958 0.878528 0.140499 0.757554 0.388449
924 1 -7.26893 16.581 6.14276 -0.855703 1.48486 5.41765
925 1 0.490426 11.7768 -2.72687 -1.85083 3.46451 -2.37437
926 1 1.48227 -14.9457 8.19622 -1.67252 2.55972 -6.19617
927 1 6.9582 14.1 18.711 -3.30952 -4.05762 1.51373
928 1 7.71749 -18.4915 10.5751 1.63144 2.905 1.22555
929 1 -7.8229 -14.1115 -4.05852 2.85042 2.69708 -7.49308
930 1 -20.0556 -17.033 -13.5284 1.28255 -3.79417 1.82602
931 1 17.2494 -1.34759 -7.31806 -2.77267 -4.13858 -7.98041
932 1 -18.7734 15.3888 15.0614 1.3912 -0.0228264 3.14966
933 1 -19.3883 -21.9513 -24.0761 -5.24157 -2.05228 -6.55834
934 1 -4.03255 16.6562 -21.75 5.20965 -4.47904 -2.47373
935 1 22.2653 -10.7129 -1.38884 -1.28032 5.48811 2.05465
936 1 8.7099 11.949 13.2208 2.53005 -1.04276 2.95562
937 1 2.5677 14.6259 20.9422 -2.31618 -0.631115 -0.706934
938 1 18.8489 9.12815 4.81603 -1.90832 -1.27381 5.62862
939 1 -7.89501 -12.4956 -17.1465 1.95771 -0.601102 0.0269451
940 1 20.7192 1.03157 -9.17519 0.0884397 -1.2168 -1.42767
941 1 -20.7275 22.1181 7.87147 0.00610264 -0.188032 -2.62536
942 1 -6.70287 -15.983 -20.4584 -0.1541 0.749759 -1.30101
943 1 17.623 -5.34664 0.812691 2.41191 0.990817 -2.82181
944 1 -16.5793 -3.53155 23.8551 2.62777 -0.920671 0.962713
945 1 4.22101 -23.7937 18.4675 -0.730865 1.98648 6.12121
946 1 -14.8911 -8.55367 5.88314 4.11041 2.41513 1.07353
947 1 -9.96636 15.8147 18.7012 -2.21328 1.78478 -4.28928
948 1 -21.8019 6.04564 -7.97494 -0.0832009 -5.67775 -3.6411
949 1 -3.31029 13.4137 19.8442 -2.21212 1.49137 0.585287
950 1 -20.0326 6.52449 12.1958 -4.10166 -2.01426 -2.80344
951 1 -9.98044 -23.6276 -13.7494 -1.61749 -4.89494 8.81825
952 1 11.3516 -14.2119 -11.0742 0.43426 -0.50169 -3.27766
953 1 16.9289 -2.87473 2.06015 0.160581 -2.58991 -4.99337
954 1 15.2811 8.45284 -10.6431 -3.04547 0.446105 -1.64768
955 1 -11.4213 18.3772 -19.7565 -0.589736 2.10707 1.76016
956 1 -13.1332 -7.47113 -9.7406 -1.14256 -0.445245 -2.28574
957 1 -4.18257 -2.48239 14.6807 0.2749 3.68167 4.1214
958 1 2.23033 13.4377 18.2674 -2.14499 0.0370525 -4.70291
959 1 -14.9784 -18.0213 -24.1057 -1.91809 2.06373 -0.370718
960 1 -2.21775 -21.6904 4.21262 -2.83634 -0.139156 -1.76594
961 1 -5.44439 11.9743 0.747658 -4.23494 0.556409 1.62908
962 1 -4.20329 7.02564 -6.81036 4.542 -1.10923 0.411319
963 1 -15.837 24.5673 -13.8081 5.23579 1.65178 0.523314
964 1 13.9553 -15.8313 -22.9218 1.33322 0.365723 -0.723939
965 1 -14.124 12.5718 7.59078 2.54661 -0.650576 1.30687
966 1 -17.5906 -7.56378 13.7834 0.0768804 2.94373 1.24243
967 1 19.4127 -4.72125 -14.3197 -0.824975 3.28298 -1.30957
968 1 -2.08277 23.0876 -15.1975 -2.491 -2.96676 -0.431898
969 1 15.5591 -22.9075 2.73339 0.0991875 -4.68777 1.66626
970 1 -3.98043 -23.531 -9.52736 -1.81698 0.588628 -2.65384
971 1 15.2106 -5.17135 21.6977 -6.21522 -0.0817426 1.45305
972 1 -8.9812 -18.4866 -0.204256 5.11474 -3.14812 1.09797
973 1 -12.4449 -4.57902 17.7055 1.12927 1.98976 -1.24256
974 1 -0.508594 23.9984 -12.92 -1.97867 -7.5663 3.56128
975 1 -11.468 -10.042 6.75841 3.00236 -1.61172 -4.04628
976 1 -18.1442 -6.87042 11.133 -0.802684 3.38514 0.430015
977 1 3.5432 -23.7822 13.6933 -0.536761 -2.58478 -1.94836
978 1 4.38736 12.7403 -23.0643 -3.05961 3.56279 2.621
979 1 5.67347 23.3427 -19.4029 -1.77124 5.68614 -4.32528
980 1 5.57038 20.3548 10.7552 0.800284 -1.13352 -1.48275
981 1 6.40494 -3.01615 -5.62877 -4.10468 0.26297 1.63521
982 1 -6.63208 -7.67599 4.53382 1.48402 -2.07303 -4.19298
983 1 -20.8311 6.87067 16.6188 1.28782 -1.73707 -1.12846
984 1 -15.1081 16.5309 -4.95432 -4.01375 4.46006 -2.70497
985 1 -17.6123 17.3409 12.0296 0.828396 0.632994 -3.17566
986 1 -0.657247 4.16073 11.5512 2.41834 -5.74889 3.84486
987 1 -22.9572 -17.9064 12.5388 -0.000167996 3.29412 -1.90604
988 1 -10.1224 -23.6273 9.3004 1.24887 1.71013 -3.06927
989 1 7.73818 1.62956 -6.46512 1.30576 1.73195 0.978183
990 1 13.439 -7.43698 13.7636 -6.87082 -2.97454 -0.507877
991 1 -6.40829 -7.05161 7.45168 1.05913 -3.16428 2.20733
992 1 -23.3139 10.4118 3.37761 0.570716 -0.202506 5.01373
993 1 -22.9825 3.22964 -21.7228 -1.51112 0.724755 -3.57115
994 1 22.8626 -16.504 18.7342 -0.728546 -2.80003 2.6685
995 1 9.90327 2.68797 -1.12403 -4.6094 -1.01589 0.524634
996 1 20.0387 10.9008 -17.0286 -2.50256 -7.06381 3.45809
997 1 -22.973 21.3912 23.7977 3.29505 -4.44996 -1.69805
998 1 -1.86965 9.82186 10.6809 2.25009 7.76782 1.55688
999 1 -22.3835 10.2697 7.18567 -1.20134 -0.0690685 4.07035
1000 1 17.4757 16.7542 -10.0613 4.53836 -2.31322 -0.249083
1001 1 -20.1975 -3.8677 -6.82459 4.0092 -5.41419 -2.61436
1002 1 -14.1009 -15.7747 4.10709 -3.87767 -0.497867 -0.474451
1003 1 11.6585 -14.159 10.7038 -1.07568 0.702944 0.610196
1004 1 24.026 22.926 9.08307 6.39783 2.18961 3.6039
1005 1 -14.3793 16.1233 1.5716 2.5325 -2.74356 -0.707714
1006 1 -22.6959 10.0459 17.9844 -2.96129 -0.904041 -1.48011
1007 1 13.23 0.494651 19.0687 2.31099 1.84614 -1.66571
1008 1 5.28235 -2.42095 15.8691 -2.58534 0.218574 2.05066
1009 1 9.39266 -17.5668 5.29359 -0.753075 -3.29077 0.0495447
1010 1 -14.8132 4.37021 -10.1105 -3.28616 -8.05485 1.7485
1011 1 -21.0345 2.05324 -0.588137 -1.24825 -1.94279 0.90356
1012 1 0.517307 1.6094 -1.30331 1.02218 -6.81512 3.69887
1013 1 4.52444 -17.9099 2.68667 0.927958 1.8444 -7.69886
1014 1 -21.5339 -23.5914 3.24035 -5.02017 -0.881951 -1.01928
1015 1 0.721998 4.54241 -24.1258 -1.677 0.225836 -2.56052
1016 1 -22.5932 4.1314 8.36525 -5.84143 -0.25833 -0.894744
1017 1 -8.86101 2.30139 15.5853 0.69754 7.05811 5.20571
1018 1 -22.6338 -21.009 7.01997 -4.75709 -0.737876 -5.11451
1019 1 8.25293 16.43 3.75724 -1.67112 -0.26768 1.0969
1020 1 -20.185 -23.8426 10.7175 1.96397 -0.583962 1.88817
1021 1 20.2205 -18.4159 -4.52838 0.677745 1.62734 2.79136
1022 1 -8.99781 -21.2101 -10.0494 1.90852 -2.04518 0.385344
1023 1 10.5184 -0.900703 5.74449 -1.68972 3.80934 2.42367
1024 1 -3.66667 7.38759 -23.5205 5.95932 4.95201 -4.9801
1025 1 7.52485 4.3763 -20.6161 -2.07761 -1.20795 1.56757
1026 1 2.85836 11.8539 -10.6592 2.3944 0.0625493 -0.997068
1027 1 -22.3075 -5.00977 12.8097 1.21933 -1.54066 1.23959
1028 1 -6.97154 -11.5159 -13.2066 -2.67211 1.593 -1.38147
1029 1 11.3617 11.0888 -0.264995 6.74021 5.53851 0.633672
1030 1 -18.1768 -16.4389 -22.5866 1.01047 -3.91117 1.51737
1031 1 -4.80127 -10.6577 -3.69894 1.02959 0.17744 5.09238
1032 1 11.7329 6.60181 19.4082 2.13787 5.27008 0.871782
1033 1 -5.17734 -16.6603 2.18705 2.32142 -0.0785856 1.25131
1034 1 -13.5875 12.1356 -9.26911 -1.44718 5.07264 3.28782
1035 1 12.4564 19.6738 -3.13514 1.20357 -1.32638 -2.69807
1036 1 2.86934 -12.8709 19.4712 -2.28834 -0.353675 0.574785
1037 1 -13.6786 -17.9213 18.4478 0.352966 -0.831594 -4.79588
1038 1 -1.84901 6.86391 11.7299 3.1669 -5.00023 8.21186
1039 1 21.2534 21.0295 -10.1224 2.25324 -0.224047 1.54649
1040 1 10.147 -2.69577 -23.1731 0.00887821 -1.17524 -3.70898
1041 1 -2.20634 7.53287 -13.4771 -0.433469 1.4991 -3.0327
1042 1 11.6163 -7.2127 23.6957 -3.56629 -1.37822 1.0156
1043 1 15.6065 9.25239 -5.8555 -0.984831 0.925505 -1.17452
1044 1 -4.0453 21.0922 -11.2513 3.68155 -1.65161 0.171143
1045 1 -6.76295 -2.14948 23.2328 -1.70205 -2.24118 1.76367
1046 1 17.6293 15.824 -15.7683 -2.19955 -0.310486 1.06317
1047 1 -17.9776 2.01745 20.4179 -1.03268 -1.20544 0.839725
1048 1 -0.166188 -0.329589 18.0539 -3.68391 -4.94411 3.04039
1049 1 -24.1297 0.244504 -11.9244 8.42555 8.89054 -1.8738
1050 1 17.6948 20.5173 17.8252 -4.83243 -0.476405 -2.9577
1051 1 2.25739 -1.32562 9.55742 -0.892957 -1.71164 -0.369801
1052 1 -20.6848 -2.81648 -19.9647 -5.07131 1.30725 -2.33616
1053 1 4.68983 5.85903 -18.7297 -0.601255 4.62616 -0.124735
1054 1 -15.3927 21.2011 -1.55208 1.09141 -1.95345 -2.01965
1055 1 -7.83658 16.683 14.9996 0.369593 6.30507 -1.76788
1056 1 -8.85382 18.7335 5.12603 1.84805 -4.03271 0.492473
1057 1 -9.34661 -16.6986 -15.6599 -2.71674 2.99191 3.45098
1058 1 0.784033 -3.09768 -9.26644 1.99806 -1.60835 2.51971
1059 1 4.57982 -21.3645 -15.3172 -2.25224 -0.870212 0.573154
1060 1 -18.6527 -10.6838 7.5845 -2.0378 -3.65828 -6.03465
1061 1 7.5905 7.80382 -14.1787 -1.83915 -2.85497 -1.55263
1062 1 -8.02656 -0.745555 10.4594 6.22035 -4.81388 -1.41155
1063 1 1.63652 18.9608 10.751 0.429874 2.16124 4.02452
1064 1 14.814 -16.8082 5.58895 -1.13289 -1.2706 -7.07618
1065 1 15.2445 20.9606 -17.9735 1.33631 0.49031 -0.938912
1066 1 12.9803 -3.5283 -23.4484 -2.02772 -0.157472 1.12205
1067 1 -21.1007 6.28032 9.60449 4.65787 2.03419 2.64201
1068 1 -3.63287 19.2708 0.19321 -0.570961 0.93321 1.68915
1069 1 24.2935 16.3279 -21.84 7.1963 -0.574891 1.32585
1070 1 -7.17436 6.52417 10.8879 3.97156 2.40245 2.2435
1071 1 -19.998 23.9124 -12.5857 2.78518 5.66633 -1.66752
1072 1 13.9701 8.96485 -19.2886 -1.47534 1.15364 0.631716
1073 1 -1.09433 -23.0335 -9.76156 0.895515 3.1421 -0.672686
1074 1 -11.0263 12.0405 -15.3835 2.90707 -0.308087 -0.532258
1075 1 -0.0498817 11.4375 15.0534 3.65126 1.05279 2.60929
1076 1 21.5846 4.44633 -23.7861 -0.778032 -1.73154 0.079626
1077 1 16.7882 -8.52279 -8.73408 0.580744 1.97109 -2.8174
1078 1 10.6479 -7.4542 12.7095 6.2666 -0.432671 4.06368
1079 1 -16.4957 -0.348952 10.6805 0.13824 -2.11588 7.75158
1080 1 -20.3113 -8.04748 -7.64718 -1.8521 2.86839 -2.17935
1081 1 8.0476 -8.4695 16.2514 0.421403 2.36533 1.8777
1082 1 -18.4733 -17.1727 -6.23675 2.50769 -2.234 -1.17937
1083 1 -0.211391 20.2575 -19.3216 -3.44452 3.65505 -1.36256
1084 1 -1.95406 -14.5066 -4.88456 0.319445 -3.54407 -0.641798
1085 1 -10.5657 -15.5045 -3.62889 3.39498 0.244302 -3.81578
1086 1 -10.1149 9.18908 -4.48043 -3.26842 1.39014 -3.2583
1087 1 8.97697 -1.3511 -19.0799 -2.39447 0.460286 -2.96794
1088 1 -22.5109 22.3446 5.31818 -0.660225 -3.97032 -0.529471
1089 1 -15.7421 6.36919 15.9169 4.25551 0.419195 0.314814
1090 1 -20.8494 -19.5767 -12.0912 2.0993 -0.41792 3.69285
1091 1 -14.3856 9.81124 6.56742 -5.67554 -0.95607 1.18528
1092 1 -20.2951 -17.5991 -4.07527 -0.554377 4.1144 0.564126
1093 1 23.1866 7.23753 4.78112 4.74684 5.66243 -2.09862
1094 1 -22.3029 17.4376 -23.218 -1.7717 2.55943 -0.290807
1095 1 -7.08424 20.9393 -11.7987 1.69601 0.332262 -3.76447
1096 1 9.89049 19.0226 -12.6264 -0.19491 -1.75932 0.249322
1097 1 17.9248 22.1783 13.3989 -2.44492 1.32542 -1.21273
1098 1 -12.2194 -5.07594 20.2645 2.17536 -0.837352 -1.32881
1099 1 15.963 10.0971 16.1083 -1.88032 3.57713 -1.1753
1100 1 9.28194 -9.07592 19.2591 -0.872065 -2.46079 3.53296
1101 1 6.75981 -15.1237 12.572 1.16107 1.55136 0.346406
1102 1 14.1522 -14.4917 16.1271 0.952424 -5.13834 1.9614
1103 1 23.5371 7.81384 16.2774 0.0956809 2.37547 -0.0236851
1104 1 -23.5973 -1.76995 9.01489 1.89941 -2.88889 -1.41416
1105 1 20.016 2.34755 -0.268121 4.91195 -1.77944 5.23899
1106 1 -17.2207 -19.2745 6.00335 -1.43212 -3.69252 5.22686
1107 1 2.91497 -13.885 1.38791 -0.748587 -1.60332 3.11155
1108 1 16.2596 12.5409 23.2124 -1.89967 -0.241734 6.5145
1109 1 -19.407 -10.6206 4.5816 2.8544 3.67092 0.78112
1110 1 -10.7614 23.3102 7.76212 2.11424 1.41262 2.8408
1111 1 12.1932 -9.00082 8.20034 -2.79408 -1.82572 -3.78468
1112 1 -2.14037 -14.5054 19.5419 1.4524 -1.59207 -0.038285
1113 1 -18.5176 18.8796 24.0886 -1.59266 0.247766 2.09581
1114 1 -18.8907 -4.19289 10.82 0.857577 -1.19018 -0.912465
1115 1 22.0744 22.9368 24.0785 2.76588 -3.15129 -2.99981
1116 1 -14.7798 0.716765 7.20463 3.40685 -0.963413 4.86292
1117 1 -5.34973 13.6909 8.7611 4.28459 2.51594 -2.68586
1118 1 22.0673 -0.778546 -12.2392 -6.03714 -0.43437 -0.375106
1119 1 7.62934 -9.61484 5.12678 2.18724 -0.286636 2.12896
1120 1 -5.8936 -14.2142 -1.91874 0.427244 -2.5548 3.32747
1121 1 12.1522 -3.45765 -18.921 -3.61393 3.78918 -0.38795
1122 1 -7.69868 23.4144 -2.17546 -3.64592 -5.00351 -1.02385
1123 1 14.204 -5.77654 -4.30525 -2.98275 1.16443 0.518124
1124 1 -2.28202 13.6145 -17.1128 2.402 3.16308 -3.09425
1125 1 -22.8748 8.21104 5.38247 -1.49719 1.61733 2.28839
1126 1 -1.03285 -13.0216 -12.0199 1.68719 2.17964 -2.23077
1127 1 14.1904 18.8579 -7.49688 1.91565 -5.4801 3.03935
1128 1 0.373808 12.9759 0.127239 2.25702 3.18964 2.51559
1129 1 -0.73823 -9.26367 -23.6978 0.348171 -1.22308 -0.215328
1130 1 -2.98858 14.4908 -14.3524 2.6063 -0.341276 3.09295
1131 1 17.4256 -7.42895 -4.04065 -5.80505 -0.0934785 1.49496
1132 1 21.349 -6.16366 19.9059 3.18715 -1.95907 -0.0357536
1133 1 11.3901 12.5366 17.8218 3.7865 -1.47275 3.36167
1134 1 13.5377 -20.4025 19.6338 0.0745837 0.522335 -1.09893
1135 1 5.90369 -1.05815 24.1339 -3.57765 -3.21757 -1.06028
1136 1 -19.9041 -20.7212 -21.5338 -0.290238 -3.63498 -1.514
1137 1 5.89006 3.8042 2.64171 -3.81427 4.92423 1.09705
1138 1 -23.2529 -23.2625 5.458 -1.52595 -3.69295 0.0912092
1139 1 -5.75563 10.3095 4.4697 4.94934 -1.7579 2.26265
1140 1 15.2863 -7.88575 -19.5331 -2.05653 2.56709 2.68378
1141 1 -19.2459 9.2076 11.4578 1.70085 -4.29591 -2.93534
1142 1 9.01009 13.926 7.56355 -0.209927 2.70133 -3.98368
1143 1 0.855541 -7.68103 -12.8191 -3.68226 -0.238194 2.14857
1144 1 15.8221 3.63005 -12.8459 0.540968 2.46259 -2.89738
1145 1 3.28721 20.1925 23.0351 3.75699 3.64941 1.4833
1146 1 10.9189 16.5729 19.2757 -1.96406 3.01973 2.36022
1147 1 -7.31358 9.91128 1.90097 4.171 1.02889 1.65321
1148 1 -12.3489 8.45291 11.7332 3.36874 2.8936 3.09424
1149 1 1.4704 -15.8113 10.9955 2.42781 -4.53992 -0.919469
1150 1 -12.6062 14.1838 9.35889 0.263763 0.383367 -1.12249
1151 1 23.3044 -23.4998 19.9831 0.999963 -0.540164 2.36207
1152 1 -13.6593 14.1771 18.7823 -3.21807 3.03514 1.89676
1153 1 -4.80243 -20.275 1.41772 0.409576 5.156 -0.650723
1154 1 1.12963 10.8508 -22.6086 1.23873 6.21131 0.583054
1155 1 4.60809 -19.79 16.324 0.777655 -0.0333703 -2.44701
1156 1 -18.645 -12.8224 24.1575 -1.75712 -0.777933 -0.934091
1157 1 3.89691 1.83092 -9.56878 2.34051 -0.276804 3.99239
1158 1 -18.2316 -0.548515 18.9107 -0.593654 0.907436 -2.16195
1159 1 19.2506 -4.68791 14.0247 -1.1017 1.43117 3.16838
1160 1 -8.39737 4.4574 -9.88795 -2.91864 -1.92286 -0.465174
1161 1 -8.8918 -23.2344 -19.4718 -4.06688 3.14863 -2.14251
1162 1 8.82984 9.82147 3.89749 4.36856 5.74029 2.52981
1163 1 -17.925 -22.4475 14.4552 0.244891 2.31877 -2.29893
1164 1 -20.1313 -15.7259 9.72424 -1.68332 -0.285538 -1.04083
1165 1 18.5641 22.7782 -0.714563 -5.24251 -1.63785 -4.50644
1166 1 -15.9929 22.6406 17.4323 -2.77169 -2.75408 -2.23049
1167 1 -0.715407 13.9643 18.4286 -1.66323 2.15873 0.643215
1168 1 11.3922 -9.33655 -0.507101 0.772425 -1.943 -0.647092
1169 1 14.2264 -8.1589 17.9955 -2.25137 0.838581 3.15235
1170 1 2.26065 13.7562 11.3805 -3.92841 -1.51309 5.7691
1171 1 21.7999 -1.31527 -7.76845 0.762253 1.44791 -0.89566
1172 1 -21.8847 -14.8232 -15.9361 -2.56577 -2.45315 1.17609
1173 1 7.22142 -21.4647 20.2463 -1.1739 0.183546 -2.40734
1174 1 -23.095 -20.4841 -16.8753 -0.539711 2.96849 7.64998
1175 1 -10.5235 12.6269 21.3691 2.64459 1.20103 -4.31234
1176 1 -0.907268 -10.3155 14.1859 3.2706 4.29392 0.236028
1177 1 11.0077 0.938175 -19.3804 -0.713394 -2.4019 -0.257737
1178 1 -2.53016 6.51813 7.85422 -3.3484 -0.896471 4.43753
1179 1 9.0563 -8.0642 -9.38913 -2.12049 0.742573 1.32608
1180 1 -9.15538 -23.9109 -11.0185 -2.41988 0.647991 4.80455
1181 1 9.28946 18.2486 -9.61454 4.02985 0.926489 -3.60896
1182 1 17.7355 7.95321 0.714814 -2.1987 4.79123 -1.64198
1183 1 3.75279 -6.86386 -16.4704 -4.3883 0.205189 3.29504
1184 1 7.46849 19.6786 22.7059 5.22301 -0.885888 -2.17969
1185 1 15.6572 7.30198 23.6557 0.243534 1.95794 5.49253
1186 1 7.30452 -7.68431 0.368784 -1.8955 2.71204 -4.72236
1187 1 -14.9809 17.1331 -9.40596 -1.21928 -0.365543 -1.14371
1188 1 2.77063 2.1023 0.163525 -2.3076 4.11156 1.91832
1189 1 13.6391 12.9744 3.8101 2.5986 -2.33037 0.0400832
1190 1 13.9206 -2.01688 -20.8881 -1.91582 -5.47913 -5.27898
1191 1 -1.83081 -4.98917 -19.7284 0.327368 -3.27543 -0.842638
1192 1 -14.4244 -0.314055 -9.19546 -1.62264 1.49275 -1.17125
1193 1 9.44591 -2.65162 16.037 3.91366 -2.84195 -2.55773
1194 1 7.92209 16.0766 -6.74558 4.5738 3.17473 1.1374
1195 1 13.0996 -12.2147 -17.598 -1.49766 5.4726 5.72548
1196 1 5.0114 15.9121 -14.026 -1.69817 -0.695727 -0.413953
1197 1 -18.9517 16.6255 21.496 -0.0388729 1.2939 -0.0590041
1198 1 20.0617 -21.119 11.3953 -2.16911 3.74733 5.3329
1199 1 -12.466 5.49568 -12.3476 0.0386449 -2.22991 1.568
1200 1 12.5781 -10.6469 10.7418 -1.26264 2.46331 -4.08773
1201 1 22.9709 -19.218 19.8828 3.39646 -3.23995 -8.1143
1202 1 -15.8078 -0.94683 -5.48901 1.35032 2.65941 -3.60605
1203 1 -16.0725 -11.9495 -15.932 3.83215 -3.54182 -2.89998
1204 1 -2.545 21.2985 2.18467 -5.61141 3.0504 -2.74192
1205 1 -4.0391 -17.2577 10.3336 4.49159 6.74484 4.98728
1206 1 21.5992 -19.7899 -21.9486 0.00896775 -0.543068 -1.04484
1207 1 15.4292 -5.02645 -16.342 1.53158 -1.06672 2.27212
1208 1 22.5587 -7.63361 8.01334 5.89778 -2.93485 -0.858895
1209 1 2.0835 -6.227 24.3653 0.427908 -7.22204 4.43356
1210 1 -3.26475 18.8725 -4.79437 6.97156 -1.88691 -1.30587
1211 1 -17.802 -11.7262 10.2703 0.653759 -0.798314 2.27162
1212 1 20.9258 5.69634 -11.7232 0.105478 1.65277 -1.70413
1213 1 23.6875 -13.9779 20.3903 -1.52586 -2.25767 -3.07835
1214 1 11.6728 0.430299 -2.031 2.78142 0.286278 2.17907
1215 1 5.2134 10.6732 -9.05593 -1.2009 -1.07188 -2.15575
1216 1 16.2047 -7.96682 -11.3939 -1.88434 -0.811632 -4.49897
1217 1 16.0407 -14.5261 1.91841 3.99719 6.40721 4.21998
1218 1 14.9134 -3.80375 -10.8119 -4.54264 0.366717 -0.220071
1219 1 13.8802 10.6929 9.66463 0.55969 -2.94714 1.0089
1220 1 -21.1164 22.7191 15.3304 3.20149 5.43588 2.45197
1221 1 1.49691 19.9824 -21.3793 -0.692643 -1.12466 0.828773
1222 1 20.5957 19.789 11.7672 -3.46071 3.69443 2.10007
1223 1 -23.5979 9.51993 11.5956 -0.0211969 -1.71868 -3.84533
1224 1 16.4352 -8.36968 12.844 -4.21655 3.22003 -0.882348
1225 1 -0.00551498 -20.6517 21.9923 -4.27279 5.35189 -1.70857
1226 1 -21.0051 13.7614 0.961542 0.751533 3.53696 -2.97983
1227 1 -0.326562 -8.42438 -1.52627 -0.0126917 1.1532 2.67091
1228 1 -23.0443 -19.501 -10.1062 -2.5711 0.426815 -2.41747
1229 1 19.1992 -16.161 -1.48928 1.84131 -2.7491 0.463495
1230 1 -15.0198 -16.421 -8.96983 2.23309 -4.07271 1.99096
1231 1 -18.7429 -9.09952 -9.89896 -1.76853 -2.33261 -4.04332
1232 1 -19.9077 15.7106 -22.8329 -8.11498 4.50237 -0.622325
1233 1 -2.61293 1.22863 -22.0359 1.66548 1.59787 4.61536
1234 1 15.0845 13.677 6.22861 3.32445 3.52364 0.00927973
1235 1 12.1817 18.2896 1.95837 -1.63903 -4.08168 -3.20948
1236 1 -5.17776 -21.7681 15.3399 -2.76777 -0.182301 3.47071
1237 1 -18.9213 20.7754 15.2617 -1.29129 -0.225973 -0.385013
1238 1 10.0241 -2.23613 -13.673 0.521246 -0.280089 2.18578
1239 1 -0.832174 -23.3396 5.96002 -0.73285 -0.0438237 3.31528
1240 1 -5.87788 -23.4104 3.65563 -3.14248 -1.58188 2.69312
1241 1 14.1315 12.6928 -17.6155 0.346789 -4.8398 1.03339
1242 1 8.92664 -18.0267 -14.0564 -1.96992 -2.65712 -0.0786461
1243 1 10.0114 16.0695 -22.2938 1.8492 1.64543 -3.75979
1244 1 -16.732 2.00147 8.84126 2.43874 1.12265 -1.8904
1245 1 -19.1489 10.3687 -22.3297 3.0177 -0.596121 1.58575
1246 1 -6.93672 -15.2692 4.92206 3.27797 -1.59614 1.29735
1247 1 -3.85345 0.480846 -11.1665 -1.3252 -1.00745 -1.11575
1248 1 7.84162 5.31317 20.5311 -3.26312 1.69684 -2.71445
1249 1 7.53174 14.954 -21.2676 -3.02564 3.02907 0.042489
1250 1 7.41063 2.50926 23.2103 0.816042 -1.52455 1.2151
1251 1 22.2833 0.0787789 22.4006 1.00721 0.992473 -1.5709
1252 1 19.1693 -18.6705 0.39594 -1.44946 -0.662375 -4.3851
1253 1 14.8648 23.7372 -2.21352 -3.62079 -1.38087 1.89417
1254 1 -22.2039 -18.5607 5.48451 -1.57081 -2.03288 -3.05985
1255 1 -6.5634 -9.94139 8.22192 -0.917134 5.7752 4.24451
1256 1 5.86798 -19.7168 -20.3231 -3.20043 1.01365 -1.04831
1257 1 -6.37331 -23.982 -10.979 -3.32907 1.66855 -1.63215
1258 1 -17.4011 8.39124 21.0824 -2.51921 -2.76162 -2.19674
1259 1 19.5545 -10.7953 7.71347 0.275561 4.42762 2.40682
1260 1 4.80117 -7.84263 -13.884 2.40538 -3.64729 -5.58312
1261 1 13.9702 -9.34503 -12.5307 3.26279 1.08601 4.83092
1262 1 11.0164 -14.1353 -4.63903 3.37244 1.94982 6.39444
1263 1 -15.9172 -6.70209 -2.51528 -2.49861 -4.05441 -0.712237
1264 1 -23.1765 -10.798 -2.09969 -0.0462695 -1.70352 0.837294
1265 1 -8.84791 13.2518 -10.4435 -2.20708 2.13838 -0.567515
1266 1 13.9634 -9.07736 4.02363 -1.41942 3.26872 -5.17292
1267 1 22.2955 -15.9999 3.09001 10.486 -0.979161 6.94677
1268 1 -22.1742 -11.8298 -18.042 -6.15712 6.19039 0.511435
1269 1 9.511 -6.14458 19.2999 -3.48202 1.58256 0.798088
1270 1 -24.1159 15.2694 12.5656 5.9965 1.46142 -1.04488
1271 1 0.0244993 4.17936 17.0901 2.72777 -1.81745 3.58197
1272 1 -21.5567 9.35953 15.6569 0.023634 6.03512 3.65724
1273 1 20.788 5.30258 22.3066 -2.64927 -0.878487 -8.56476
1274 1 21.9417 19.5048 -21.2619 4.90605 1.39465 -5.04303
1275 1 2.86891 4.03387 9.03943 6.59436 -1.0291 1.22627
1276 1 -1.60619 -8.68645 -19.4524 3.80234 0.904834 -2.10529
1277 1 -10.3726 22.3037 -3.17099 0.741072 4.49985 0.727217
1278 1 15.7776 -7.65597 -23.3884 -0.426755 0.769978 0.957787
1279 1 -19.0579 15.8869 -12.727 6.85265 -0.240327 2.22568
1280 1 1.07721 -3.43893 -4.87825 2.55507 0.436339 0.0322138
1281 1 13.7404 -9.68941 20.4624 1.32427 4.00871 -0.441655
1282 1 10.3847 -20.6653 -3.18319 -2.65403 -0.809782 0.234358
1283 1 3.37931 -21.2654 -9.4144 -2.71731 1.01588 -2.27783
1284 1 6.76109 -13.4896 2.48567 -6.21289 -1.91396 0.675766
1285 1 -12.4427 20.5393 15.5043 1.88802 0.30814 0.910021
1286 1 -5.2661 4.93888 -16.4379 -0.0235994 4.02881 -4.84244
1287 1 8.78434 -18.3025 19.7838 9.32891 -1.38079 -2.44921
1288 1 3.4941 -4.16196 -15.6323 2.41347 0.167314 -2.30524
1289 1 23.102 -9.89343 -8.91759 -4.29686 1.18874 0.673419
1290 1 1.20712 6.88614 6.63193 -0.994231 0.928193 -1.50459
1291 1 -18.0918 14.6204 0.990163 1.48081 -0.188677 -2.53965
1292 1 -5.52899 17.9416 -3.07882 4.6502 1.70869 0.196873
1293 1 -8.29012 -3.00933 0.14077 -0.733929 3.87366 3.35223
1294 1 14.2392 -11.482 -7.11606 -0.26798 -6.17904 2.26768
1295 1 13.4139 7.66986 -0.862008 0.971375 1.38739 2.68755
1296 1 -7.45244 -11.1453 5.59461 0.337442 3.5666 0.910878
1297 1 15.6365 13.0643 16.7975 -3.29754 -1.60664 2.69599
1298 1 2.31887 -7.26956 -2.46811 -0.404978 1.43081 2.41744
1299 1 -9.03423 -10.6751 -5.76076 5.78992 1.48926 -1.19787
1300 1 3.00484 -1.67926 -2.5983 3.61795 0.123442 -5.0385
1301 1 10.939 16.1837 -10.6127 2.37428 -3.33553 -2.63677
1302 1 -4.33344 -3.20853 -23.6572 -2.4341 -1.56054 -1.14709
1303 1 -7.44142 -7.62847 -16.6994 0.454601 -0.907966 -5.97967
1304 1 2.94174 0.0531618 -4.78856 -0.0823842 2.12009 -1.54941
1305 1 -4.01484 3.69584 9.89898 -2.67927 0.941087 -3.43479
1306 1 7.04328 -22.0256 -0.77515 -0.0181904 -0.485943 2.39504
1307 1 -15.5662 -22.4313 -3.89493 1.66389 -0.276133 -0.919966
1308 1 -17.325 -3.48204 7.45954 0.29137 -3.09795 -2.00182
1309 1 -0.890298 -12.3469 -7.97114 -2.73585 3.63149 3.2799
1310 1 -1.14306 -18.0459 -1.72647 6.4514 0.241678 2.5504
1311 1 -3.22783 18.9917 -13.8936 0.59748 -2.43253 1.38995
1312 1 -17.8089 -8.37062 3.46716 0.420305 2.50491 2.63756
1313 1 17.2841 18.338 22.547 -0.66327 0.166848 -0.349963
1314 1 -17.0872 10.0817 -18.4033 3.15379 -1.46167 3.55068
1315 1 -20.548 -11.837 -22.264 -2.28326 -0.888244 6.56296
1316 1 18.7208 -10.1645 -15.6412 -5.57587 -1.31417 0.849451
1317 1 -10.3476 8.54645 -11.4417 3.72728 -1.58794 -6.12113
1318 1 23.3239 19.709 -0.745742 2.27362 -0.221931 -0.553749
1319 1 14.6134 23.4363 0.743161 3.42654 1.87758 1.68337
1320 1 19.0276 -4.74741 -9.02504 -1.30207 -2.82782 0.447454
1321 1 8.53329 -21.3168 -6.44614 -1.63177 4.29321 1.6785
1322 1 1.04034 -15.0596 -4.92165 0.0885803 -2.75833 -4.30574
1323 1 14.0264 -12.6505 12.1288 1.42599 0.757923 -4.67888
1324 1 -11.1245 -19.9222 -20.0932 0.0891357 -0.907758 4.53925
1325 1 -4.75558 15.3289 6.37881 0.0709806 7.09181 1.36591
1326 1 -18.8635 -18.1965 -20.2303 -3.61704 -0.316901 -3.79868
1327 1 -8.69833 20.9702 -22.6162 -0.204141 1.80268 -1.15358
1328 1 11.1457 11.947 6.86152 -0.796119 -1.63437 0.582435
1329 1 21.6774 -12.6677 -3.55948 -4.89874 1.92979 0.194946
1330 1 -8.66943 15.1327 -7.0874 -0.433565 1.13684 1.47806
1331 1 -19.3856 3.08247 -3.05362 -1.21078 -2.87817 3.14764
1332 1 11.8351 -22.807 22.2456 -1.29473 1.57249 -2.22376
1333 1 0.665839 9.66004 6.59648 1.83972 4.25734 -4.23034
1334 1 12.19 -9.69647 -10.0791 -0.0244022 0.384483 -0.725043
1335 1 -14.2699 24.429 -16.1367 2.40558 -5.25692 1.74002
1336 1 2.58228 19.6949 -7.24266 -0.008846 0.424885 0.636059
1337 1 7.62506 -21.2502 7.46034 -2.12623 3.22563 -2.27579
1338 1 1.63402 5.48283 -1.21921 -2.24966 -4.40875 -0.444735
1339 1 2.06725 -18.4945 21.9508 0.554285 -1.73306 -0.323251
1340 1 -19.2451 15.5126 10.5465 4.61937 5.28134 0.234896
1341 1 4.19222 9.47593 13.7097 4.04307 -0.509457 -0.611922
1342 1 1.95042 -22.8074 -15.5235 2.84086 -2.49187 -1.38805
1343 1 -12.3567 -8.76358 -7.36752 -0.545435 3.68016 -1.07122
1344 1 18.104 -9.53454 3.93063 -0.718633 -1.87011 0.590408
1345 1 -21.9224 3.15761 -18.9552 2.72023 0.986632 1.28039
1346 1 16.4978 -2.80448 -15.0487 4.54257 0.801295 4.87387
1347 1 -16.9826 -13.0986 -20.0933 -2.67748 2.66741 2.53878
1348 1 4.43013 11.6213 -16.016 -1.64575 -4.86915 -0.803834
1349 1 2.42934 -12.4143 9.21496 -3.60333 -0.437141 -2.31277
1350 1 -15.2417 0.484992 -3.20659 -1.5144 -1.49924 -2.3471
1351 1 16.066 -15.932 17.6722 -1.80574 -1.88735 2.86004
1352 1 6.43188 23.3577 21.0201 2.69106 -0.302148 -2.3873
1353 1 6.18228 22.1006 -0.277755 -2.08926 2.20717 5.67075
1354 1 -1.29688 -5.48623 -16.704 1.71124 1.65743 1.67042
1355 1 -8.57961 22.2242 17.7301 2.69302 -3.4986 -2.19349
1356 1 -20.6891 -12.4317 -2.02441 -4.0341 1.92554 -2.89899
1357 1 -20.0897 -7.35007 -11.4792 0.680971 -1.37871 -0.846218
1358 1 -10.5935 23.2027 21.3034 -0.57525 -0.313948 1.65536
1359 1 -21.4136 -23.4111 23.3099 -0.0186809 -1.84544 0.0546096
1360 1 18.5978 -13.8192 7.43903 -2.45078 -1.98953 1.18514
1361 1 -8.52296 -22.9881 4.79042 1.74346 -2.4171 -2.47784
1362 1 20.9739 19.5003 7.88884 2.7521 1.29063 0.314808
1363 1 -15.9965 -10.4592 -21.1417 0.255377 -1.13872 -3.3579
1364 1 12.7214 -12.2533 -12.723 5.86482 0.575268 1.74868
1365 1 8.14948 -6.58659 -22.0222 -3.45524 1.7227 -0.518657
1366 1 20.4981 -14.7825 0.774794 -0.679319 -5.18205 -2.28013
1367 1 -9.2072 -13.7569 14.6505 -3.40093 0.230701 -1.11463
1368 1 -17.8222 16.864 -1.1202 5.6139 1.04152 0.159192
1369 1 22.3022 2.68457 -4.62603 2.32951 -1.42788 -3.44336
1370 1 2.13252 -13.0276 22.4275 0.634439 1.21224 0.439801
1371 1 -20.8412 9.59593 -3.05156 5.31163 -0.538882 -3.3953
1372 1 -11.0347 11.8528 4.5125 2.63596 3.7064 0.49415
1373 1 -13.7719 -8.7041 14.1674 0.0230611 -5.78808 5.52291
1374 1 -18.8012 23.142 16.9832 -1.22627 7.41525 -0.813125
1375 1 16.5575 -7.28795 3.07433 0.261579 2.77703 2.65319
1376 1 5.29801 11.1915 -6.14643 -1.13144 1.4962 -1.10301
1377 1 -12.4733 21.066 23.5219 -1.48705 4.63616 -0.736013
1378 1 8.85943 -9.90286 0.709123 0.00399662 5.43768 -0.274565
1379 1 -19.4511 -16.9794 5.46042 -4.11041 4.14868 -5.35572
1380 1 16.4086 20.7837 -10.4162 0.550188 5.02428 5.97012
1381 1 18.0666 16.0814 11.322 -1.27762 -0.124495 -1.67707
1382 1 16.425 -13.1249 9.19965 -1.28372 0.830068 -4.88748
1383 1 -7.50689 -23.639 -15.1751 -1.82387 2.07595 3.74218
1384 1 2.71655 19.8448 -12.5343 1.18199 -0.161301 -1.25772
1385 1 -16.1388 23.1859 12.6526 0.698364 0.411267 -3.86194
1386 1 -12.8117 7.65534 1.43466 1.16649 -1.11643 2.8695
1387 1 -19.7896 -0.490375 -0.235022 -0.397887 3.21147 -1.84871
1388 1 16.2453 -1.97799 19.0769 -3.05825 -2.63471 4.02238
1389 1 20.9934 -3.14309 -0.398485 3.24534 2.89785 1.27788
1390 1 7.33965 -1.78052 11.7453 -7.95677 -0.4306 -7.17201
1391 1 -11.985 19.5117 21.2095 -2.20819 1.25437 1.44327
1392 1 22.3157 3.38782 3.53595 4.68474 -3.96221 2.16375
1393 1 -1.3126 -5.74827 1.92889 -1.60687 2.37578 -0.222092
1394 1 3.90826 6.52808 0.27012 -1.25923 -4.22683 4.07863
1395 1 0.624374 10.072 -7.67649 1.0867 5.70847 0.945898
1396 1 -17.9767 -8.12427 8.43254 5.30164 3.72758 -0.833704
1397 1 4.59656 23.0987 -7.71721 -3.14642 0.516974 2.31498
1398 1 3.38214 21.7795 -5.24915 0.711872 6.43935 -3.29168
1399 1 -1.92357 -23.9981 -1.64593 -2.1222 2.5672 -1.65706
1400 1 -12.0789 14.457 -23.5948 0.398508 2.46168 -2.05238
1401 1 22.3583 -21.5219 21.6802 0.779983 -1.0339 2.93199
1402 1 -18.4705 -4.61547 -16.0365 -4.36468 1.53183 0.580976
1403 1 15.1575 -22.2227 16.7817 -2.63468 -5.7516 -0.740629
1404 1 20.5252 -11.3451 10.323 5.19151 -4.21638 0.310471
1405 1 19.9999 20.9762 -24.2255 2.8341 2.02187 -1.53914
1406 1 -7.90639 1.35181 -13.0647 -1.50611 5.25487 2.419
1407 1 -24.1648 8.2557 -1.71343 2.54653 0.255357 -2.60412
1408 1 -4.4655 -5.68543 -14.328 4.71832 -6.75774 5.42115
1409 1 -1.21132 5.47033 22.4366 -1.90354 -2.84593 -0.717578
1410 1 0.106821 -18.8325 -17.1054 -2.00319 -2.36049 -3.25144
1411 1 20.024 2.1474 -22.8782 -0.601251 3.10577 0.210985
1412 1 -19.0696 10.873 -9.82637 -1.50883 -5.61996 2.21225
1413 1 -14.9666 2.91834 -20.8947 0.40627 2.30681 6.36577
1414 1 6.47332 23.2085 4.63888 0.858858 -2.30637 -2.43996
1415 1 -7.11967 -22.0524 1.15677 -3.47495 -5.20662 -1.4953
1416 1 -22.2435 -7.62854 9.11496 2.91529 0.907153 4.03018
1417 1 11.5083 5.49702 12.6358 -6.64239 -1.12948 -2.12947
1418 1 15.6727 -8.20049 -0.611058 1.16614 -2.75039 3.88499
1419 1 9.68249 23.1696 -2.69978 -1.59299 -2.6026 -4.3544
1420 1 -12.4015 18.7081 -22.6252 1.13736 -1.38331 3.58238
1421 1 23.7963 -9.68369 6.37205 0.0401999 -2.49009 -4.77279
1422 1 -13.5777 -18.9132 -15.4327 -0.277942 -1.60336 -1.54577
1423 1 7.76207 21.2802 -19.7468 -8.9201 3.73869 2.49079
1424 1 20.5507 11.42 -8.42354 2.59017 1.29014 -2.85207
1425 1 -0.37059 5.57433 -12.0934 -5.36306 -3.77745 -0.554653
1426 1 7.62046 -20.1816 2.83243 1.89295 -2.20652 7.43187
1427 1 19.485 -13.321 -1.68986 -7.09334 -0.138042 -1.18309
1428 1 -4.5451 -17.49 21.3253 -0.23363 1.67749 -0.939632
1429 1 -21.4135 -16.6189 7.34606 -3.83204 -5.92054 -4.07732
1430 1 0.0971545 15.7794 5.5937 -1.38118 0.777439 -1.8496
1431 1 -9.32349 1.56396 -10.5932 0.494113 6.54103 -1.75637
1432 1 -11.4082 8.19383 22.9221 2.49251 3.12638 0.881045
1433 1 -18.8158 -11.8781 -16.2356 -0.943302 1.58474 3.54757
1434 1 -23.1765 4.63232 22.3892 1.53782 -1.01859 -3.07342
1435 1 19.6569 21.1128 -4.87167 -0.917544 -0.0947131 3.64205
1436 1 -16.163 -3.55729 -14.7036 0.741373 -3.75844 -1.00844
1437 1 4.08726 15.205 -21.4784 0.207667 -2.16596 1.75786
1438 1 -0.744695 -0.459767 -13.8151 -0.566235 -3.80032 3.65873
1439 1 -17.5817 8.88257 -11.5623 -5.75 2.85776 -2.29551
1440 1 -22.8172 13.2287 -2.49918 -1.82362 2.36123 2.98
1441 1 -18.0758 -15.5861 18.2041 3.93028 1.39517 -1.55499
1442 1 -22.1363 -6.46551 -4.13021 2.39258 0.226105 -3.66063
1443 1 17.4132 -13.3822 17.9713 -6.04677 -0.392144 1.57158
1444 1 13.0892 19.1593 -24.1077 -1.53353 -1.48084 -0.565945
1445 1 11.4648 -19.8683 9.91512 -1.27514 -5.5095 2.71722
1446 1 2.61643 -9.3351 -9.42579 1.20296 -0.352688 2.11324
1447 1 21.9017 -5.45354 -18.017 -3.5804 -2.49162 3.31836
1448 1 -15.2288 2.57064 5.0679 1.87738 -1.82422 -4.42422
1449 1 10.4668 -2.7994 1.14514 0.795856 2.60082 3.9705
1450 1 -6.46744 -5.46452 -9.1992 0.00423459 -2.93845 -0.742563
1451 1 11.3631 20.6034 -10.1101 5.27894 1.19732 2.37196
1452 1 -6.79335 -22.2947 -17.9902 0.641399 -0.488402 -0.493181
1453 1 -0.803133 -21.7892 -7.17081 -2.392 3.38085 -1.96053
1454 1 7.89297 -12.0526 -0.795974 2.75126 2.70112 0.609912
1455 1 -14.891 -18.0856 -4.07802 -2.10553 1.5818 -5.49115
1456 1 -16.6088 14.6047 11.0729 -1.63092 -4.14973 2.58281
1457 1 -19.6536 1.7222 -20.2294 -2.02318 4.79811 -3.95849
1458 1 -20.2545 12.5091 7.3226 1.22695 -1.03519 -3.85723
1459 1 -11.9697 -12.9308 -3.99799 0.432607 2.63433 0.25158
1460 1 -13.2896 8.30906 -12.0188 0.53685 -5.45484 1.32725
1461 1 -13.6325 14.7939 22.8874 1.69889 1.52974 4.31881
1462 1 -9.81438 -18.5646 8.82784 -6.90826 1.98334 -2.43648
1463 1 6.50986 -0.279827 14.0624 -4.30283 9.17516 -1.47105
1464 1 2.96784 -18.9688 5.09654 1.91906 -4.78047 0.795835
1465 1 -21.5002 22.0302 -14.0393 -3.54361 2.86531 3.77893
1466 1 -18.3822 -6.06282 -3.65548 1.50538 -0.417714 -0.921523
1467 1 -24.559 -15.4594 -17.4401 1.72615 -0.863093 -4.9587
1468 1 20.2802 23.6489 18.4668 -0.866499 3.22471 3.35029
1469 1 19.7104 11.7805 5.81256 3.04722 2.05032 -1.20788
1470 1 -4.77968 -12.4475 5.76888 -2.45859 -1.35753 0.52989
1471 1 -4.76268 -5.64048 -11.2867 0.198325 4.33222 -0.585586
1472 1 21.7147 5.69059 15.6047 -3.97799 1.49042 1.32039
1473 1 15.782 -18.2362 -14.4038 3.12106 4.39478 -0.469968
1474 1 0.571798 20.6359 -24.0698 -0.102873 1.36987 1.21893
1475 1 -21.9881 -22.2782 -3.0706 -1.26254 -3.3529 0.164776
1476 1 -20.5686 13.7983 -20.701 -6.35872 -1.25503 -0.999801
1477 1 19.87 -0.453276 -0.997886 -5.22086 -5.28119 0.191742
1478 1 0.746967 2.94657 3.4937 -4.91592 -0.162846 0.219895
1479 1 9.19847 -8.20771 7.05753 -1.2596 3.9579 -1.73766
1480 1 1.44888 14.2145 -5.05771 3.62043 2.22358 0.399246
1481 1 -6.4669 15.2868 -2.67301 5.22598 -0.259451 -0.952528
1482 1 5.67519 21.5132 -22.742 2.76711 1.64311 2.70279
1483 1 10.2957 -22.1636 -19.9287 -7.32219 1.76474 1.28085
1484 1 -6.91192 9.71391 7.07636 -0.509562 0.0786106 -2.40506
1485 1 8.67923 -10.227 23.289 -0.268841 2.01807 -2.22086
1486 1 -17.2545 -5.35728 15.818 0.715933 -1.42352 -2.54604
1487 1 -2.43424 4.15175 -16.9073 -1.52562 0.675928 6.78647
1488 1 -19.0225 -17.0034 12.1596 -4.17749 3.69234 3.30688
1489 1 -23.0485 15.5201 -1.36541 1.5661 -1.99567 -1.66029
1490 1 -22.8117 4.36892 -2.6751 -0.551634 3.43735 5.60076
1491 1 12.0177 7.6924 -5.27841 2.26759 -1.51089 -0.103731
1492 1 -11.5813 11.5786 10.2073 -0.535314 1.16112 -1.02908
1493 1 -3.63004 -7.47159 -16.3775 -4.89889 -1.97621 1.36324
1494 1 -8.55711 5.73166 -18.8092 -4.1569 -4.04228 -3.09329
1495 1 -20.8296 -9.27929 19.8522 -3.92839 -0.302174 -0.940667
1496 1 -3.34268 9.00446 -8.7651 -0.471183 -4.93255 -0.603654
1497 1 13.3204 -9.80552 -20.5826 -3.33344 0.435764 -3.68162
1498 1 -13.5122 4.75816 13.1537 -1.30772 1.05259 -1.32659
1499 1 17.1511 2.92575 22.6457 2.30885 -1.17643 3.70788
1500 1 -19.2083 17.9848 14.0405 0.471332 -0.725302 -0.294059
1501 1 8.93541 16.8961 -15.7049 -2.65332 4.78998 -3.4801
1502 1 -23.8748 -5.86997 -6.3459 3.78081 -3.19085 -1.74014
1503 1 9.08144 23.9739 -23.4538 -2.93138 1.62547 -1.10351
1504 1 -3.93291 -23.7529 -6.38384 -1.40069 0.299386 2.88361
1505 1 18.2142 -22.9575 -20.9359 0.100982 -3.76301 1.57124
1506 1 14.4622 13.3039 -1.99013 0.776031 -2.16819 3.54335
1507 1 -19.9654 20.4469 -7.31538 -1.27492 4.01188 0.359552
1508 1 20.4527 -10.1448 -4.59597 1.11037 1.66564 2.1115
1509 1 11.8 20.2563 -7.21801 2.07663 -5.06884 -1.18325
1510 1 -16.0655 -10.4105 -0.0399369 -4.16831 4.33318 5.04786
1511 1 -24.7772 -6.25442 16.4242 1.6222 -5.09919 0.389166
1512 1 -12.5648 -12.9388 -1.03716 -2.68728 0.560369 2.60957
1513 1 -20.7726 0.343433 17.5611 -1.4519 -1.57799 -1.85452
1514 1 -14.1532 -5.50578 -6.11975 -1.22159 1.52319 -1.36475
1515 1 -8.75762 -21.1881 21.6265 -0.888631 1.3635 -1.30785
1516 1 -10.2296 22.9215 24.2167 3.69881 -0.0927524 0.607284
1517 1 23.6502 -14.3082 -10.4056 1.70194 -3.95362 -4.3395
1518 1 -1.729 11.6809 23.9092 3.01467 4.61861 -0.377407
1519 1 -12.4596 -17.0974 0.487429 1.15348 1.8927 -2.6533
1520 1 10.4025 4.00105 -14.2078 -6.61573 1.96819 2.41635
1521 1 -7.69856 -9.95785 17.7462 3.51918 0.419265 0.569193
1522 1 -12.6459 -1.22061 -13.961 1.08089 7.00781 0.0892719
1523 1 -6.26768 6.08313 13.9786 -0.155837 -1.01362 2.91574
1524 1 0.365819 -18.6182 6.3545 -0.685424 5.54567 -4.1649
1525 1 -10.9896 -6.7906 1.39783 0.874439 -1.95394 0.378809
1526 1 20.6857 23.1511 1.37057 -3.27782 0.0466644 1.00212
1527 1 1.49307 0.249956 -9.42333 -2.00975 -1.44124 0.589266
1528 1 11.2411 14.2461 15.2662 1.05249 -2.62495 -0.405965
1529 1 -7.04444 1.38323 12.4145 0.613197 -2.85994 3.11521
1530 1 15.9624 16.1143 4.5917 1.41143 3.15062 0.506734
1531 1 6.30401 -8.55716 10.0222 -1.61673 -0.456316 -3.39472
1532 1 19.5943 -4.53402 -17.1075 -4.14002 -3.17407 1.15316
1533 1 12.4142 20.3065 12.6137 2.43066 -1.93684 5.06324
1534 1 -15.3807 -7.77072 11.8752 -3.00159 6.51566 0.342183
1535 1 2.52164 -7.13985 14.2691 1.62216 1.26411 1.3965
1536 1 -7.12789 0.4481 -24.1283 4.34783 0.433393 3.24849
1537 1 -2.44552 24.0921 -17.8623 -1.74961 3.62347 -3.34015
1538 1 6.49961 17.0065 17.9802 5.92742 0.131874 -1.04858
1539 1 1.17455 6.78454 -16.5818 -4.61654 0.648761 1.14118
1540 1 -20.7998 4.58026 -23.2855 -2.00868 2.00838 2.8969
1541 1 6.75394 -17.7752 -7.37379 -2.9025 0.267224 -1.79874
1542 1 -21.8533 -5.27478 16.5311 -7.26327 1.744 1.68594
1543 1 3.01772 -1.76309 13.8822 2.16644 5.01771 -2.45475
1544 1 -5.07912 20.6748 -18.9071 4.34748 0.802366 0.34952
1545 1 -7.57701 -16.0189 14.3488 0.498428 -0.660456 -3.51214
1546 1 -14.8326 -13.2754 20.8827 -2.0017 6.95293 -0.728853
1547 1 14.3768 -0.464486 -0.85974 1.18388 0.840127 -0.676322
1548 1 17.2065 -23.6946 -7.88894 3.16374 1.73911 2.39166
1549 1 -0.968603 -2.70109 -15.6249 -2.05431 1.22657 4.76693
1550 1 -2.64499 -7.63604 -10.7375 4.44997 2.49295 0.56284
1551 1 9.62823 -0.615882 -5.65486 2.78141 5.38444 -0.0954613
1552 1 18.65 9.76386 -19.239 1.63216 1.31752 2.797
1553 1 -9.26069 20.0233 -15.5809 2.25139 1.02606 0.421036
1554 1 -6.78801 -6.24417 -20.858 0.970574 -6.16362 -0.512448
1555 1 -21.5098 -3.46423 -4.39592 -0.641723 0.330958 0.978044
1556 1 20.3609 -17.1518 -8.78957 -0.272412 -4.8061 -2.70643
1557 1 8.39987 -21.425 -18.1114 3.78313 0.167625 -1.4965
1558 1 8.65405 -16.785 -0.364357 -2.70294 -1.70006 6.14437
1559 1 21.723 16.915 2.4159 3.17942 1.41566 -1.25594
1560 1 -20.0621 -18.0977 20.5496 0.547571 -2.18706 2.63995
1561 1 21.8816 18.5543 -7.05901 -1.0305 -1.62508 6.09492
1562 1 -0.173769 -5.64579 -0.589489 0.877519 2.90492 3.12745
1563 1 -3.55535 -6.23059 12.5022 -0.204076 1.25781 -5.08476
1564 1 9.9147 14.005 -7.25941 2.98879 2.00468 -2.63084
1565 1 -7.37162 15.5574 -10.7984 -3.43544 2.26798 -2.17885
1566 1 2.7756 -7.99501 7.2125 -4.16862 2.49099 0.736378
1567 1 0.602267 -9.9778 -21.2618 0.344546 -0.431703 1.77035
1568 1 18.8738 21.6703 -11.6238 -2.57445 1.21352 2.28056
1569 1 8.14139 13.5267 4.85806 -3.34139 -1.18892 -2.05418
1570 1 -21.5987 1.50262 -12.7518 -6.43648 -3.20027 0.958258
1571 1 -2.88057 -9.87774 -0.505221 0.684562 1.36462 -1.91842
1572 1 -1.21829 -16.4279 11.3495 -0.0768351 -0.299683 -1.58803
1573 1 -11.0432 -12.4134 18.941 -0.291452 -0.635361 3.3707
1574 1 20.1297 -17.7549 2.93022 -2.70161 0.885653 -1.46792
1575 1 -17.5199 14.9287 3.99041 -3.7547 0.210347 4.61374
1576 1 13.2733 20.2797 -19.7682 0.411348 -3.63584 -0.563953
1577 1 14.61 -23.3831 5.32475 -3.07196 1.73854 3.30598
1578 1 17.0439 1.19628 -12.0292 3.48731 2.15346 1.45269
1579 1 -5.38365 12.5808 -6.41954 -4.15612 0.388969 0.9378
1580 1 -16.2525 -21.1139 -6.47588 -3.05395 1.85928 -1.08752
1581 1 -7.53828 -6.16204 11.4404 4.06289 -1.10485 -7.53018
1582 1 -13.9 5.47179 -1.84559 0.519633 1.58192 -2.48059
1583 1 9.61136 -1.32555 -2.96785 -6.11682 -7.645 3.8044
1584 1 -6.49006 -3.74799 14.199 3.79643 -4.91892 -2.55028
1585 1 -9.21506 -12.8351 22.6435 1.34908 0.205277 -0.947289
1586 1 -18.027 -22.6709 0.897347 -1.26091 -3.06456 -2.06388
1587 1 17.5516 -2.54971 -10.0486 -3.37984 0.635504 1.1318
1588 1 2.81865 17.7354 -22.1042 3.93607 0.859739 2.53065
1589 1 -11.1377 -22.7311 -2.16615 3.0846 -2.06124 1.20965
1590 1 21.3746 8.48927 -15.6722 -0.542442 1.91448 1.85557
1591 1 13.9955 12.454 0.896379 2.29841 0.483793 4.13106
1592 1 17.9764 8.07472 16.4359 4.31025 4.99185 -3.23769
1593 1 1.65912 23.1864 -17.6132 -1.29132 1.45779 0.734913
1594 1 9.57604 5.36697 -2.06527 -3.41771 -2.95265 -3.58142
1595 1 6.54321 16.0002 -4.10359 0.251941 1.77419 -3.64907
1596 1 -4.04189 -2.43101 -18.581 -3.24111 0.0426088 1.99041
1597 1 17.5845 -23.1185 6.23155 1.95636 0.346857 0.505148
1598 1 3.6299 11.8851 3.21122 -3.51168 2.28124 -3.63946
1599 1 -22.0614 -3.85596 10.1984 -2.14919 -4.411 0.115409
1600 1 18.209 -13.3299 -16.771 5.26387 -5.19863 -0.171418
1601 1 7.18698 14.6134 -18.4695 3.94061 1.03485 -4.00362
1602 1 -19.9062 -12.7561 -19.5396 1.31804 3.77987 -1.7087
1603 1 6.78508 -10.1786 -13.7639 -2.8287 2.75986 3.13265
1604 1 21.0581 -13.7824 -16.6428 -3.86991 2.18285 1.11547
1605 1 -0.264655 -2.5757 -11.8271 2.6718 -1.73976 2.19721
1606 1 -20.762 18.5082 5.93322 -5.869 2.72112 0.451005
1607 1 13.0077 -21.9423 -15.19 1.10313 4.5177 -4.49968
1608 1 23.3565 4.91865 8.92039 2.33534 -3.83841 -0.429339
1609 1 -22.4205 18.2834 -18.968 -5.02867 -1.32868 3.26556
1610 1 -12.2994 20.3385 -14.9584 -4.80433 2.43297 -1.78531
1611 1 4.82639 11.2256 -2.24245 -2.68641 -2.55425 2.05514
1612 1 -23.5037 -16.7068 15.3503 -1.30286 0.753434 1.22233
1613 1 0.0294441 -15.9567 1.79262 0.647229 1.07806 -1.23752
1614 1 -15.9132 -12.4166 1.80134 2.39135 3.85495 4.31313
1615 1 -4.46864 -15.2666 -9.91598 -5.03685 2.84208 1.02985
1616 1 15.9116 -11.9857 -18.5869 0.0946345 -0.79242 -4.26701
1617 1 -15.3221 -12.4926 -10.3634 1.43273 -1.70462 -2.53777
1618 1 11.4395 16.981 14.3767 -0.495473 2.25399 -2.5775
1619 1 14.5202 13.8578 19.236 -1.48951 -0.510826 -1.00275
1620 1 14.1873 -8.84178 -8.08296 -0.680668 -1.67861 -2.6977
1621 1 -19.9492 3.50129 12.3741 4.09048 1.8932 -1.52438
1622 1 -16.1469 20.6993 15.2646 3.64995 -0.275387 1.22662
1623 1 -11.1751 -17.0137 16.6213 3.06031 2.63448 -0.706858
1624 1 6.39286 19.1232 -21.4152 -0.865085 0.300599 -4.29844
1625 1 12.0287 13.6797 -11.1129 4.09789 2.40344 -3.32646
1626 1 15.7706 0.473681 17.7923 -2.20889 -1.03517 1.93819
1627 1 18.0733 -6.78064 23.8788 1.33766 -3.01778 -3.11159
1628 1 18.3671 3.45942 1.9332 -5.01094 -1.79368 0.114293
1629 1 -5.71565 -23.6452 17.3827 1.6763 1.33524 3.31135
1630 1 11.517 -7.93212 20.8923 -2.57328 -2.02425 0.19464
1631 1 -24.6499 -19.873 8.57746 -2.39616 1.81267 1.79741
1632 1 -6.1056 8.72071 -22.2921 0.55952 -4.21058 -1.93283
1633 1 19.9436 18.4129 -22.5975 2.57617 2.08056 -1.05167
1634 1 -20.2106 -8.83153 -22.5937 3.19009 -4.61226 -0.200697
1635 1 6.9619 -16.1658 -9.79425 0.671956 0.911353 1.80207
1636 1 18.4425 -10.3287 11.9715 1.63423 2.93007 -1.0037
1637 1 -1.82229 20.3899 -2.81346 0.217703 -0.725631 -5.12474
1638 1 14.5101 -5.16373 -19.0638 1.98044 -1.09984 -0.145545
1639 1 13.4223 11.1934 19.4889 2.88379 -0.148637 2.12014
1640 1 -17.5405 -22.1818 -12.1995 -2.79196 -3.55364 1.44454
1641 1 20.0256 -12.8726 20.8475 -0.985433 4.4156 -6.30746
1642 1 -2.84389 22.9477 5.85753 1.19022 5.05737 -2.41085
1643 1 -7.35497 22.959 -7.8103 -0.659864 -0.0469586 0.137088
1644 1 -19.0947 -1.30824 11.2061 4.70996 -1.55617 -0.67704
1645 1 -4.49996 -6.12368 -7.02667 -0.336532 2.89153 -1.22841
1646 1 -22.4455 -6.50406 -19.2138 0.683136 1.09748 -0.888541
1647 1 16.7345 11.7543 -18.496 -5.57236 -1.22035 -0.269221
1648 1 -20.8748 -14.4628 -23.4511 1.98475 2.42742 2.03057
1649 1 -16.5117 -5.91696 -11.878 -1.24384 -1.041 -0.749177
1650 1 10.9102 -4.65141 -12.2283 -0.336677 -0.593098 2.00504
1651 1 14.3802 -18.4155 0.26381 -0.0705482 4.59023 3.78835
1652 1 12.3255 4.91928 -19.3825 -2.05208 -0.820636 0.0993029
1653 1 12.0365 -22.4443 3.59607 3.00848 1.70143 -3.03059
1654 1 5.30426 -17.0873 11.1815 1.75061 2.39049 1.35345
1655 1 -1.27081 13.073 12.8097 -1.23639 1.387 2.37668
1656 1 -4.82464 13.1401 17.234 1.72556 0.655298 -1.0836
1657 1 17.0105 7.75944 -13.0634 -0.832977 -1.15537 3.40972
1658 1 -17.9487 18.9633 6.56755 -2.3903 1.74881 -6.46228
1659 1 -5.70747 -23.6599 7.30138 -1.47948 5.67678 0.00257801
1660 1 4.41493 -9.76612 -22.2724 -2.73816 -2.0063 1.44045
1661 1 23.715 1.14337 17.0321 2.6338 -0.0714585 5.49114
1662 1 -9.7548 -20.2004 -7.437 4.42666 -0.471064 -3.18433
1663 1 -15.0548 -1.38243 -0.990457 1.4298 0.963331 -4.31158
1664 1 3.07034 -10.3078 -14.9661 -1.42146 2.06029 -1.04249
1665 1 -4.94617 6.24894 18.3382 -0.96803 1.63378 -0.955929
1666 1 17.8861 -6.80919 -17.0023 0.410933 -2.42665 6.0878
1667 1 -13.1446 -1.60532 8.26362 -2.75922 -0.00349545 -3.25515
1668 1 -9.6857 17.828 7.85144 -4.89056 -1.80282 0.460715
1669 1 15.9192 -22.728 -11.3877 -1.65638 -6.12911 2.53223
1670 1 3.96031 16.1996 -1.05479 -2.31047 2.38737 0.171546
1671 1 -14.5955 8.34397 21.3237 2.95063 -0.995263 2.7219
1672 1 3.92894 11.2299 23.2297 1.71547 1.83633 0.761844
1673 1 1.90043 -18.0965 1.91906 -6.03748 5.56538 4.07983
1674 1 4.01036 -2.95169 -7.67425 -6.40674 -1.24313 4.08507
1675 1 2.66979 8.67232 16.0564 -2.12668 1.88902 -0.917018
1676 1 -20.0766 1.77919 -5.44207 5.67837 -0.697708 1.18989
1677 1 23.1205 -18.6323 12.2841 -0.666823 7.85866 4.69021
1678 1 3.54408 20.9765 -18.0435 -2.77488 -2.25263 2.42051
1679 1 -10.2757 20.9574 19.5799 0.0590816 1.22705 -2.03959
1680 1 -24.149 -18.3337 -20.6104 2.90306 0.287655 -0.1582
1681 1 -17.5612 -8.33446 -21.9243 -2.5183 4.19675 -1.89004
1682 1 6.89129 9.55467 1.92688 -5.12868 1.16205 -4.1274
1683 1 15.3984 23.4358 -16.5954 3.54743 -3.60801 -0.571464
1684 1 6.75965 15.7555 15.3938 0.446468 5.91931 -0.386311
1685 1 -20.8374 14.7684 23.0139 5.09506 -0.329041 1.52956
1686 1 11.5274 -10.6019 22.3702 1.81569 2.8751 1.54244
1687 1 21.8791 -17.9729 -14.3681 0.764486 0.407438 -9.50589
1688 1 -17.8995 -2.41756 -12.823 -1.41198 -0.81048 -1.73255
1689 1 2.82565 -23.6971 -1.56973 2.18483 1.14754 1.62887
1690 1 -7.13217 -24.5448 11.5243 1.12788 0.727132 -1.46218
1691 1 -18.226 -13.1272 5.79488 6.24517 -0.822262 1.38685
1692 1 -2.10578 20.0022 -6.88339 -0.431257 3.04661 -1.37354
1693 1 22.5685 7.73794 22.9224 -0.124684 0.0480458 3.35257
1694 1 -14.6011 3.57336 -13.0736 -3.69564 4.40595 -0.784451
1695 1 18.5811 -23.5751 -10.1392 -5.53755 0.262361 0.0185229
1696 1 12.205 -1.75831 3.32164 -2.40888 1.56068 2.84891
1697 1 -12.5038 -23.2492 5.7958 -3.98281 1.6661 0.423843
1698 1 -8.2022 11.2394 -0.620152 -0.969484 -1.78356 4.10701
1699 1 13.2977 1.2658 14.8424 2.34494 3.33779 3.93176
1700 1 14.1238 -2.22801 -13.2993 0.477269 1.80358 0.333673
1701 1 12.2562 23.8993 -3.58577 -3.58648 -0.429274 2.46616
1702 1 2.29222 -20.5614 13.0338 -5.89272 -5.16311 -0.854834
1703 1 3.6312 3.90316 -12.995 1.92903 -1.82326 3.6896
1704 1 -11.1473 -11.0632 4.1915 0.339302 2.99598 -1.65429
1705 1 -1.33582 23.9069 18.9429 -1.34438 0.627684 -2.87842
1706 1 7.27135 9.97574 -18.9119 -0.848185 -2.38988 1.60147
1707 1 -10.582 -10.318 16.8509 2.18231 1.20554 -2.85401
1708 1 -6.54881 22.6935 13.3989 -4.87579 1.01298 -1.24494
1709 1 19.3627 18.3657 -2.76036 4.06675 -3.42697 -1.17623
1710 1 -8.32827 -21.1121 -14.1522 -2.05713 -3.10929 0.73269
1711 1 -2.77241 4.56227 2.20103 -2.37408 -1.6307 0.342027
1712 1 13.1342 13.8152 -20.0191 -2.57586 -2.30856 -3.14686
1713 1 22.2352 16.4448 12.4117 6.44103 -1.27796 2.99312
1714 1 6.45098 -0.878759 -12.082 7.99266 -2.56249 1.2073
1715 1 12.5167 23.5256 17.6954 -2.46509 -2.12576 -0.666887
1716 1 16.7646 -23.8471 23.7886 3.36083 0.836372 -1.59816
1717 1 11.2004 -16.2159 -1.67374 0.66123 -5.47394 2.07633
1718 1 7.36987 -19.9849 -12.387 -0.276375 -3.69465 -5.15277
1719 1 21.5159 7.34714 0.82092 -1.07129 -1.17155 3.27188
1720 1 -3.7752 -22.8238 9.23709 1.97757 -3.93991 3.18303
1721 1 5.11246 1.53095 11.3702 -1.72768 2.89146 -0.750405
1722 1 19.7445 -22.7004 16.452 0.0640475 1.36381 2.78858
1723 1 -24.4383 16.3409 2.47287 1.60573 -2.57663 4.05696
1724 1 -18.2113 -23.008 -2.9204 -1.43389 1.84243 0.938794
1725 1 -14.344 6.37712 -16.5303 0.506648 -1.80051 3.60047
1726 1 17.4855 21.0451 23.3366 1.10014 1.53115 4.64525
1727 1 23.4131 -3.2163 -18.7767 3.29355 1.16877 -0.328056
1728 1 23.9163 -5.80506 -20.3774 -3.35371 -1.7609 -1.58624
1729 1 -13.7464 7.38059 14.15 0.276394 -1.38072 -1.8546
1730 1 -3.72207 -9.68848 -23.8578 1.21287 -1.14628 -2.17556
1731 1 20.7694 4.9788 -3.95892 -1.81725 4.2726 3.88952
1732 1 14.7746 -12.2235 6.96284 4.01233 -2.71441 -5.25636
1733 1 -11.7384 -16.8582 8.04727 -3.22109 1.97119 0.099124
1734 1 -7.74667 23.7565 -23.1985 0.117269 -2.62515 3.15828
1735 1 1.1824 19.5516 -16.7418 -0.475003 1.15874 -1.2515
1736 1 18.6514 4.06174 10.6915 -2.74473 0.0301814 1.55237
1737 1 -18.2466 0.54265 -6.80916 -5.1828 1.31641 -6.67583
1738 1 4.1795 9.88626 -22.7916 3.30109 2.26213 1.94276
1739 1 -7.04145 -19.4625 15.6495 2.45204 -1.91395 1.49407
1740 1 2.89231 19.5899 17.5687 2.71985 -0.78187 -0.805797
1741 1 11.068 11.9846 23.8948 5.04262 0.577251 1.31153
1742 1 -0.222501 -6.58042 20.996 -1.15189 4.72543 4.51085
1743 1 20.1306 -15.3364 9.56596 -0.160051 2.09616 4.13932
1744 1 15.5795 21.7746 -7.49253 3.09077 -2.41627 -5.3197
1745 1 6.42617 13.7198 -5.98262 3.00977 0.180332 4.02134
1746 1 17.4208 23.7083 -12.4309 -0.327474 1.76102 5.42195
1747 1 3.82944 -17.2065 -6.62097 -2.08694 -1.23929 0.0572879
1748 1 15.6638 0.147653 -3.36779 1.5618 2.46563 -2.21617
1749 1 22.2251 10.1611 15.1676 -0.583809 -0.407513 -2.66719
1750 1 16.3285 21.1571 11.2478 3.07285 7.37502 -0.425879
1751 1 2.08685 -10.0341 13.4208 -2.66665 0.283123 3.05047
1752 1 23.3828 17.815 -19.4631 0.611003 0.901473 -2.11147
1753 1 -23.2392 -15.7406 -21.0764 -1.33817 0.79403 -4.44237
1754 1 -24.7571 9.73348 -21.6808 -2.62441 -2.59195 -1.32936
1755 1 -9.45006 -0.592614 -7.88434 1.13837 -0.668941 -5.52619
1756 1 -15.5344 4.3374 7.49374 -1.95988 0.0420528 -0.279194
1757 1 18.7381 -12.785 -7.82051 -0.409044 -2.34863 -3.9772
1758 1 20.3813 -23.8682 6.37747 -3.27537 -1.57479 -3.58327
1759 1 22.1159 9.90478 10.8032 1.17484 1.42717 -0.207165
1760 1 -16.5579 -13.7587 -22.7976 -5.33699 -0.784027 -5.05518
1761 1 22.1848 -17.1386 -21.0592 -3.42792 0.188087 -0.237302
1762 1 3.82337 19.7229 4.14216 0.263487 1.31825 -2.30047
1763 1 -2.68417 3.76718 13.2772 -4.72803 -2.04462 -1.64779
1764 1 -14.9566 18.4729 -13.4039 5.99693 6.26009 -0.264409
1765 1 3.62213 -18.038 -3.90232 -1.32218 2.37427 -0.713183
1766 1 -18.4254 1.13145 15.9106 -0.921701 -0.00579666 -3.81183
1767 1 10.0964 24.3987 18.5115 -0.996557 -0.409689 -1.63568
1768 1 13.3045 -3.71799 8.21441 0.245485 1.80073 -2.18333
1769 1 -23.0541 16.2827 15.8232 -3.27067 1.37795 -0.824046
1770 1 -9.08584 -5.22906 20.7016 1.09073 -0.412438 0.0554785
1771 1 -0.100511 22.6526 9.33315 -2.19883 0.393075 3.20119
1772 1 12.0596 -22.6288 0.402266 -0.663238 0.385683 -4.69516
1773 1 18.8014 13.9156 7.45975 1.69906 1.87627 0.54905
1774 1 17.7943 -17.9485 22.6597 -2.08887 1.56837 1.8331
1775 1 9.33344 13.692 -9.98396 -2.16253 -2.53243 0.48631
1776 1 10.4245 13.1437 -2.29412 2.13707 -3.58497 -0.0645426
1777 1 -23.4844 -10.3055 15.5483 -4.30208 2.44906 3.35901
1778 1 -16.4815 -7.69322 -14.5059 3.93842 6.31478 -2.35144
1779 1 5.77969 3.80095 -6.26325 4.66296 -1.70552 -0.273916
1780 1 5.70433 6.7132 -5.80691 1.22224 2.70207 1.99409
1781 1 8.40441 18.3449 -23.6701 2.6067 -3.72219 -4.26149
1782 1 -22.4895 -13.3747 -11.279 -4.25123 -1.78594 0.628539
1783 1 17.1453 6.53821 -6.21117 0.491971 -2.36933 1.05886
1784 1 -8.75611 14.2105 13.5012 0.623183 -2.41119 1.35628
1785 1 -6.7145 6.43994 -8.59777 4.04763 0.736409 -3.83558
1786 1 -4.86755 0.646996 -7.46516 0.682983 0.878861 -1.32937
1787 1 6.9211 18.5949 -13.2367 3.88163 -0.814735 -1.92512
1788 1 -15.6923 -16.7276 16.7718 0.138064 0.121208 0.158242
1789 1 23.6643 -1.29807 -5.71351 -4.9752 -1.8387 -2.61456
1790 1 7.77352 2.82067 -13.6304 -0.800937 -7.29382 -2.19997
1791 1 1.09196 -7.26191 -15.6589 -0.603758 -1.43333 -0.877909
1792 1 -14.8252 6.34228 5.74362 0.531466 4.10145 -2.24795
1793 1 19.4248 5.91288 -22.9114 5.02848 0.843636 2.209
1794 1 16.953 2.50022 -19.9763 -0.786106 -0.336002 -3.40012
1795 1 15.4156 -0.730939 -10.9571 3.19555 -1.45448 1.9232
1796 1 -22.5886 -9.91469 -23.9441 -1.49389 2.96446 -0.595724
1797 1 2.4367 16.5782 15.1265 0.422284 -2.19846 0.768872
1798 1 17.8879 -6.25842 -20.0684 4.67731 -2.51622 5.15233
1799 1 -11.5938 9.74398 -13.8134 0.753849 -0.102496 0.0277148
1800 1 -0.588921 1.29958 11.1058 1.507 4.48999 -0.670899
1801 1 -12.3429 -19.7762 -3.60743 5.12795 3.09372 -4.83353
1802 1 -18.9134 -19.0086 -10.2455 -3.24592 -4.7736 2.5275
1803 1 -15.4394 14.314 -8.4508 -1.29447 3.88286 2.29895
1804 1 -3.77929 -22.4011 -13.8043 -3.73075 -1.03881 2.79169
1805 1 9.80082 4.8564 -6.20616 0.84901 1.64131 -1.17885
1806 1 11.937 -3.99493 15.9324 2.02065 2.88786 5.41337
1807 1 -18.6498 -9.76373 23.6572 -3.90288 0.950713 5.25119
1808 1 22.0997 -11.6802 19.4673 0.292646 1.74537 2.69258
1809 1 9.83159 19.3179 0.144996 -0.171139 1.09921 -1.52949
1810 1 10.7113 -23.3553 -6.62229 -1.35335 -4.20115 -5.24472
1811 1 0.154108 4.46366 20.1181 1.77447 1.39746 -3.03406
1812 1 -11.9616 -3.68341 -21.3095 -2.05823 0.203259 -0.151452
1813 1 -16.8766 7.67663 18.3376 2.09032 6.37687 3.66295
1814 1 11.3983 4.38935 -11.6339 1.32236 1.92309 3.20198
1815 1 12.3422 -4.77262 22.5117 -3.40922 -0.657855 -2.33926
1816 1 0.111536 16.3963 -11.0898 1.40516 1.46915 0.587109
1817 1 -1.38154 18.1236 -18.0108 1.0831 -4.57999 3.84013
1818 1 -22.1144 -9.08124 6.69631 -5.80343 3.14949 0.00876474
1819 1 -13.8767 -11.3529 18.8617 -1.17804 0.631171 -1.08164
1820 1 15.8462 11.6042 -11.8939 4.74729 5.39287 -1.26728
1821 1 20.1372 22.7851 12.0572 -5.01304 -0.985307 -0.947531
1822 1 16.3188 -2.56885 -2.38269 2.02797 -2.98599 -2.04386
1823 1 6.07121 47.3834 9.75394 -0.2332 -0.988599 -2.41386
1824 1 -17.1369 -18.0799 8.63148 -4.77738 2.14663 -2.70111
1825 1 7.50858 -10.956 -5.10012 1.27904 -1.32173 -2.38983
1826 1 20.1151 9.43307 2.30913 -1.40292 2.16612 1.50139
1827 1 15.8972 -21.4619 -3.18009 -3.75534 -1.58693 -0.822873
1828 1 -13.4573 -21.5985 -22.3133 0.868768 1.61896 4.17166
1829 1 5.31872 18.1204 6.05007 -5.23769 1.63828 -1.66197
1830 1 -15.6108 2.77999 -17.0101 3.32284 4.61222 2.40789
1831 1 13.0238 -15.7808 -3.50237 0.78754 0.109452 5.65292
1832 1 -23.3871 -11.9571 22.9941 -1.16788 -4.13527 -1.54026
1833 1 -10.4306 2.86271 17.9906 -0.887718 -1.79401 2.00549
1834 1 7.37076 -8.97633 -21.1462 -2.03894 -1.03665 -3.02101
1835 1 5.50544 23.0463 18.4903 1.42389 1.16893 -1.78359
1836 1 -11.1908 -21.9704 -18.3431 -0.137937 -1.21674 0.140397
1837 1 13.8803 -21.0607 8.86242 3.3238 -1.40648 -3.70249
1838 1 19.9806 20.5041 2.41861 2.80556 -1.24443 1.81476
1839 1 20.0418 21.6049 5.21577 0.67007 -3.12625 1.43596
1840 1 -20.957 -12.4139 0.727684 -4.93942 -1.6549 -2.97325
1841 1 8.37344 -23.9615 -11.1564 -2.57019 -5.23013 4.94751
1842 1 13.6037 -20.6341 2.09924 2.66022 -8.47373 1.38872
1843 1 7.94758 -3.62409 -21.7184 -2.49776 -0.389193 0.371767
1844 1 -5.21993 -3.50066 5.55594 0.569988 -3.22327 -2.85334
1845 1 21.6577 16.3899 -23.5333 -2.76917 6.78889 -1.68728
1846 1 11.2405 -21.0738 6.02943 2.78697 3.34935 2.90771
1847 1 19.4577 -14.9506 19.0298 -2.24331 -4.09792 -0.708592
1848 1 6.28633 6.76868 -16.4242 3.29715 -5.26708 1.07041
1849 1 13.2946 -23.22 -12.6873 -3.78875 3.0659 1.12988
1850 1 16.4684 -19.5046 -7.39251 -1.53668 6.87241 -2.43541
1851 1 -6.46972 2.55039 -0.274112 -1.27375 -5.77491 0.303292
1852 1 1.06016 0.554834 -20.0115 -1.18972 -0.0289028 -0.610505
1853 1 3.62741 -11.7756 6.77044 3.25986 -1.27995 1.00742
1854 1 3.47758 -24.8196 11.0432 1.10609 0.2593 3.41308
1855 1 0.60449 22.2451 -15.0905 1.41624 -1.33814 0.272029
1856 1 8.30816 -4.21347 -18.8027 -0.924845 4.3847 0.924718
1857 1 -0.542475 -20.8338 2.03141 -6.40231 -1.94663 -5.45867
1858 1 1.96592 -15.7396 -11.8231 -1.27763 0.265598 -2.20666
1859 1 6.54604 -14.6467 -15.6394 -3.76481 -1.1161 -0.629724
1860 1 7.57045 -0.573641 9.09179 1.59037 0.927282 -0.117459
1861 1 -16.2653 -20.971 -18.5272 2.23677 1.07205 1.39147
1862 1 -12.2465 -2.0184 -7.9077 2.97612 2.07854 3.09257
1863 1 -4.02863 -14.57 -7.04715 0.773389 1.63976 -4.35971
1864 1 -5.92141 11.9078 19.68 -1.06224 2.98513 -7.19239
1865 1 -9.80703 -4.72111 6.30771 -1.24104 -2.16101 1.23993
1866 1 7.92265 21.0337 12.508 -4.77924 -2.26768 -2.36577
1867 1 6.16057 -8.00429 -2.15976 -3.14281 -4.9205 -2.50091
1868 1 -7.56285 3.48995 17.9263 2.40096 1.87454 -2.35339
1869 1 -1.1674 23.4794 16.1708 0.823169 2.5085 2.17758
1870 1 -18.0346 9.11021 14.3811 1.96793 1.15363 -2.25316
1871 1 18.2769 -12.1253 5.15254 2.56796 2.14434 0.437794
1872 1 -1.64873 -10.4295 -9.85467 -0.23158 -2.08941 -0.259221
1873 1 -9.87745 15.339 8.81375 2.7716 1.02945 -0.242317
1874 1 -10.1721 -15.2661 -21.0076 2.91982 2.37715 -0.0880937
1875 1 23.5138 -6.74146 -12.7604 -0.143953 0.42859 1.88833
1876 1 -22.6952 9.8243 -19.4936 0.882174 -5.20384 1.43929
1877 1 -15.4667 -5.49872 7.73612 -0.235265 -2.19372 -2.84275
1878 1 22.666 22.7013 -1.02015 1.40394 0.843481 -7.26894
1879 1 -20.1957 -16.3576 -17.8549 -3.62581 -13.01 3.27185
1880 1 -0.634199 23.2405 -19.6162 -2.72123 6.52615 1.00561
1881 1 10.2846 4.14739 19.5205 -3.15851 1.72011 1.71957
1882 1 -9.00261 8.05304 18.4186 -4.33221 -2.82045 0.56286
1883 1 -6.49967 -12.9852 -6.39386 0.191581 -4.01559 3.7689
1884 1 16.8309 14.1631 9.54539 -0.448848 5.12478 0.0460145
1885 1 -7.75957 17.9301 21.8292 -2.07295 -1.43636 2.53837
1886 1 18.6531 21.4704 7.61578 3.14712 -4.0228 0.967054
1887 1 18.3663 -6.93542 15.837 2.79354 0.242454 1.45469
1888 1 -10.2041 -18.1054 -13.2504 -3.54603 0.0533729 -1.93476
1889 1 -12.0491 2.06131 9.85301 0.75014 2.73921 0.709512
1890 1 -23.4844 7.21463 23.7809 -4.41902 -6.52636 1.27754
1891 1 -10.3105 -13.4582 -23.4404 5.30243 1.32262 -1.01088
1892 1 -0.391089 -13.4491 -14.7639 1.12933 -1.86672 -0.0990352
1893 1 4.6345 1.26054 21.3814 0.906346 -2.31221 0.302995
1894 1 -0.188984 -18.8617 -4.19406 0.082723 1.60859 1.00339
1895 1 -19.4379 -6.87244 16.8705 5.36991 4.03072 1.84081
1896 1 16.2579 21.2579 -0.879758 2.70503 -1.88115 0.536324
1897 1 -12.5326 -24.7407 -5.76502 -5.30926 3.79568 -3.17332
1898 1 -22.1219 17.2522 13.0695 1.35063 2.49782 -1.86107
1899 1 -6.09437 19.2694 -5.54791 2.36821 6.63922 4.57022
1900 1 -11.5835 0.755739 4.50234 -0.575764 -0.146921 0.305266
1901 1 -10.3957 -13.7161 -18.5548 -1.55596 -2.41993 -1.17715
1902 1 20.2488 0.349561 -20.213 -1.57862 -0.401076 -3.72277
1903 1 0.471764 -16.0907 -14.0649 0.998674 2.01443 3.04988
1904 1 -8.91721 -20.423 17.6035 -0.126223 2.02233 0.981969
1905 1 -14.0521 8.50715 -6.01991 -0.569311 -1.17609 1.42121
1906 1 -19.3097 -24.8681 13.279 1.14696 -0.773749 -0.665222
1907 1 -22.7566 -9.17967 13.0755 5.51597 0.668421 -2.69748
1908 1 -16.4805 -5.29557 0.288722 3.36868 2.31274 -4.30954
1909 1 10.3115 -10.06 12.2016 -0.334333 -0.819096 0.51313
1910 1 -8.07246 -11.1091 15.0491 2.16173 -0.779831 1.4029
1911 1 19.6025 -1.79167 -5.84375 -0.496741 0.20428 1.85956
1912 1 -15.8534 4.26512 -0.178725 1.79378 1.28261 2.68348
1913 1 0.201165 18.8875 -1.16801 3.16704 3.48259 -2.87955
1914 1 20.3287 6.69416 5.1635 -1.3157 1.82005 -0.10395
1915 1 19.6858 -19.3958 -15.0848 -1.92351 -0.26215 -2.36428
1916 1 -4.75336 16.3878 3.83553 0.731015 0.867009 -0.50914
1917 1 -23.7716 23.5135 19.3339 -1.39003 0.801667 2.39558
1918 1 -18.4018 -0.922037 -20.5195 -2.35071 2.99887 2.32793
1919 1 -22.0398 10.5026 -14.2618 0.0917873 -1.00449 7.95177
1920 1 23.3562 -15.0137 0.439131 -3.12739 5.08781 0.0825345
1921 1 18.2375 13.3646 -6.13081 -0.917602 -3.7937 -3.49195
1922 1 9.6254 14.1533 19.7825 0.116917 -0.707524 -2.99902
1923 1 12.869 0.807202 -10.5236 1.2322 1.35504 1.5968
1924 1 23.7831 -17.4455 -0.720536 0.706824 1.70553 -4.83231
1925 1 20.6274 -24.1666 18.761 -0.708329 -0.679008 -0.239402
1926 1 13.2418 -2.07942 -6.22388 -4.32823 2.32787 -1.76282
1927 1 -8.80952 -20.8317 -21.646 2.16239 -5.02743 -0.472464
1928 1 24.0071 -2.86191 4.51813 1.342 4.40625 -1.53145
1929 1 7.6361 18.6181 1.76247 0.363324 0.88623 -0.922388
1930 1 -7.85552 -15.5599 -17.9805 -3.7027 1.18918 -1.54825
1931 1 -9.60803 6.32047 -1.89148 5.4149 -5.17573 -3.61631
1932 1 -0.846585 19.1559 6.67833 -4.72403 -4.44439 1.35054
1933 1 -3.01303 19.088 -20.2984 2.33462 -4.61733 3.82426
1934 1 1.31279 -11.058 -1.31939 -0.637011 0.721934 -2.61207
1935 1 18.4686 -15.2655 2.90499 2.2774 -6.38992 -3.28768
1936 1 18.8789 -21.848 23.7606 0.737344 2.78913 -3.09459
1937 1 2.4324 3.22412 18.6929 1.54494 -2.43241 -1.38257
1938 1 2.33533 6.00505 17.1907 -1.18951 2.7857 1.6439
1939 1 10.9594 11.1251 2.61529 1.31698 -0.56771 -2.35411
1940 1 -20.1971 -24.1089 5.73495 -4.66718 1.13737 0.761494
1941 1 -1.18771 -22.9973 -12.5591 -2.24495 -0.506886 -0.741207
1942 1 -2.07702 7.59552 -2.75894 1.45732 -4.53643 -1.26802
1943 1 4.30462 17.5777 -6.77547 -1.34342 0.786777 -0.188441
1944 1 -19.8019 -21.488 -0.855211 -1.71204 3.63853 -2.56348
1945 1 -23.6719 -20.3243 22.3928 -1.64815 -0.568198 1.8889
1946 1 7.45181 9.34344 -6.03979 2.1866 -0.827097 4.15806
1947 1 -17.784 12.3785 -14.4549 -0.240955 2.72702 3.47508
1948 1 12.1169 1.94268 -15.4262 -0.00291972 2.75224 2.22796
1949 1 -8.50015 -7.19419 -8.88846 -1.12347 -1.29074 2.41921
1950 1 23.5052 20.9833 -6.00701 -0.0558936 -0.277985 -3.15696
1951 1 -5.04444 -15.2071 13.3498 -1.71737 1.69559 0.158612
1952 1 6.27915 -15.0334 -12.6678 -0.564192 -1.28766 5.00774
1953 1 16.3774 -18.7319 -2.23733 0.110032 0.473611 -1.83346
1954 1 5.54122 6.52839 10.3076 3.26185 0.418529 3.87267
1955 1 -13.4883 -17.5762 22.1323 1.10809 -6.40252 -4.3779
1956 1 -4.98769 0.86195 6.24984 -3.40529 -0.911145 0.848093
1957 1 14.4952 15.4583 8.51846 0.248722 0.308397 -1.32832
1958 1 13.6164 5.87666 17.2279 1.10238 0.0907778 4.50508
1959 1 23.1982 -4.24281 -2.0404 -2.48927 -2.35095 2.78499
1960 1 -16.0181 -4.1614 -19.6599 1.76482 -0.435884 3.66639
1961 1 16.6665 -11.8962 -5.81097 -3.21092 1.64051 2.84662
1962 1 0.0832572 -12.6476 -3.5355 -0.675219 -2.99952 1.10764
1963 1 -1.2672 17.9539 1.00017 -1.21413 2.99983 0.220952
1964 1 21.1437 24.6741 -16.9362 -4.28634 7.1986 1.11032
1965 1 17.7272 -5.36635 20.5096 -1.00746 4.95314 0.556876
1966 1 -18.763 -16.1335 -11.1536 0.574545 0.829185 1.32423
1967 1 -15.4014 -22.9837 17.9143 -2.77023 -3.10255 -0.0712816
1968 1 -22.6873 12.3173 12.2373 2.13659 -2.80221 2.96458
1969 1 -4.17933 -8.52611 11.1663 1.31896 5.5373 2.1299
1970 1 21.3211 -6.85592 -1.52345 2.50921 -2.0144 -7.78442
1971 1 22.9743 -2.5152 7.19341 0.972984 -0.347008 -0.26248
1972 1 -3.72788 -7.20123 8.70431 -4.5113 0.649408 2.94813
1973 1 12.6055 -16.4163 19.3993 -3.1429 -3.38127 -2.66313
1974 1 15.7397 -10.5308 10.8178 5.94852 -1.85057 -2.747
1975 1 12.0597 -17.4543 -17.6478 -0.0296054 -3.24798 -1.06128
1976 1 21.4866 -10.3638 24.0159 -1.17688 1.55391 -3.50058
1977 1 15.6718 -14.6786 11.4414 -0.282485 -2.17473 0.526584
1978 1 6.03194 -3.75297 23.6313 1.4791 -1.81601 -0.334459
1979 1 -0.0683633 21.3343 12.012 3.79726 -0.316996 -1.49733
1980 1 -21.6985 6.17017 -19.5131 0.18285 -1.9465 1.26668
1981 1 17.6504 24.367 -2.89364 -2.07936 -0.125594 -1.58395
1982 1 -20.7121 -4.32568 22.1657 2.38645 2.57374 -1.69464
1983 1 16.745 -5.01806 -5.31588 1.97136 -0.581323 8.01885
1984 1 2.77372 19.2587 20.523 1.20485 0.775182 1.02025
1985 1 1.79276 -23.946 -9.55257 -4.22837 1.8628 1.32098
1986 1 14.0015 -6.07837 3.02354 0.255135 -3.55938 4.613
1987 1 -21.0776 2.3374 9.99379 5.20443 1.74577 2.62158
1988 1 6.86828 18.9935 8.43384 2.70063 3.0236 -3.07488
1989 1 -11.9331 -15.1148 10.4347 -3.36953 -0.781371 4.83777
1990 1 20.1207 -13.634 -5.59453 -3.61678 0.247896 3.89589
1991 1 -23.1468 -22.773 21.2036 0.298532 0.747678 -1.17848
1992 1 12.7364 20.7785 3.75394 8.46638 -1.93137 0.0892612
1993 1 4.18998 12.5778 -13.1528 -4.94334 0.401792 -1.7351
1994 1 -24.7215 -18.0614 3.93322 -2.61606 -3.2576 2.17382
1995 1 1.85232 1.76639 13.0375 -4.12634 -0.933276 3.66203
1996 1 -10.6804 6.59963 -23.5291 2.05417 -2.76166 -1.9056
1997 1 21.6108 21.7604 9.60336 1.02629 1.85036 -0.0117659
1998 1 -12.9358 10.2576 0.362191 -0.110355 -4.16882 -5.71732
1999 1 -2.04402 -11.4952 23.3934 1.666 0.892606 3.00991
2000 1 3.73645 2.01647 -20.2801 0.304244 3.74168 2.36169
2001 1 -9.47491 -11.6647 -3.35386 -0.551019 1.49329 -3.10292
2002 1 -22.3553 21.0981 -9.08382 -4.49673 -0.471028 -2.31399
2003 1 12.1058 -3.88966 -9.65762 3.28243 1.9112 4.61302
2004 1 0.043977 -21.9074 -22.4072 5.05035 -1.72179 -1.21801
2005 1 3.3086 -3.17451 17.9167 3.61661 -2.68493 -2.87558
2006 1 10.7043 -10.9912 -7.90208 -3.10981 0.395749 -1.57913
2007 1 -11.6592 13.6559 -11.4552 6.02117 1.276 -3.14294
2008 1 -9.39934 22.7366 12.8476 0.12011 -3.17302 0.66473
2009 1 -3.71346 0.977352 -0.923088 -0.608689 2.07342 3.38477
2010 1 -7.93378 2.89768 23.6142 2.04825 -0.278066 -2.54208
2011 1 -1.77881 10.2971 18.1298 5.8362 2.80105 -0.696774
2012 1 16.4015 -19.2872 14.4974 -2.81649 1.79843 -1.63738
2013 1 -13.6524 22.3209 4.18085 -0.900686 -1.72379 -0.000446212
2014 1 -9.45021 -9.29733 13.3471 0.542288 0.764516 4.39683
2015 1 -2.26015 -7.20019 -3.43417 1.07953 -4.85089 -0.99237
2016 1 -5.85895 -16.7014 -6.07298 4.93384 -5.06755 -4.6038
2017 1 12.4588 8.43733 21.9579 2.1733 4.24757 0.823037
2018 1 -16.8239 -1.08773 6.07945 -2.57142 2.48047 1.90613
2019 1 1.04462 22.2386 19.2638 4.10882 -0.893346 -0.691693
2020 1 9.26986 -13.704 -14.9781 -0.423493 0.33597 4.84478
2021 1 -3.95232 11.8044 10.8589 2.59918 -1.55213 1.13388
2022 1 18.2195 23.0707 9.85834 3.56404 7.49722 2.31907
2023 1 -21.3671 -11.6372 7.93638 -2.93608 -3.42881 -2.43711
2024 1 10.0487 9.38807 12.4569 0.728869 0.0258465 3.79883
2025 1 2.85441 -10.7174 24.105 -1.05364 3.65755 -3.38631
2026 1 9.09244 20.1049 10.0003 3.45165 -3.99685 1.33099
2027 1 5.89634 16.6159 -11.0647 -5.21074 -2.16741 1.04528
2028 1 1.38678 -2.25016 -19.195 0.0111706 1.51147 -7.15149
2029 1 14.6275 -8.54572 -3.36728 -0.174225 4.94086 2.23741
2030 1 10.1213 -17.0688 -21.6972 1.74895 5.6194 -2.77243
2031 1 -6.66987 -20.9776 -11.6119 -3.11083 1.09072 -2.15645
2032 1 -8.82769 4.58782 6.19331 0.423628 -1.10486 2.10407
2033 1 10.0707 15.3119 -0.14775 0.984785 -2.4 2.29677
2034 1 -10.4089 -3.10936 -17.8274 -3.74004 -2.25642 1.58979
2035 1 15.2683 -16.4037 23.3172 -2.53444 -4.54683 1.90836
2036 1 -13.3133 7.01181 -22.5039 1.70655 -1.28968 -3.33903
2037 1 -16.5575 8.24285 11.0103 1.3619 0.724756 -3.58782
2038 1 19.3232 -0.211493 12.6233 1.18968 -1.10916 2.96863
2039 1 9.69893 -22.3447 -22.6578 -6.03802 2.8227 -5.78173
2040 1 -6.40521 -23.6157 -5.16711 5.8258 -0.990399 -1.35518
2041 1 -13.0839 -13.3298 23.138 2.11664 2.27088 -1.80622
2042 1 6.46949 -21.5993 22.923 1.00123 7.30034 0.146302
2043 1 18.3639 10.736 13.154 -6.43342 3.29404 3.38953
2044 1 3.20821 -6.42801 2.24183 0.689952 6.9296 -3.06652
2045 1 6.76407 -17.3628 -15.7525 -2.91386 0.455317 -4.1734
2046 1 -7.3367 14.8399 17.4563 -0.27279 5.47123 1.08326
2047 1 -6.85039 -13.4211 7.51509 -1.88442 3.75941 -1.30757
2048 1 2.45729 13.4288 -17.2494 -0.93583 -1.58952 -1.79416
2049 1 17.9877 20.9439 -19.0364 0.592496 2.95066 -1.82144
2050 1 -10.7711 5.93434 -10.1437 -0.271513 2.8652 1.77365
2051 1 -23.2216 8.5407 -4.4748 -3.61529 7.22468 3.15064
2052 1 -8.47936 3.63629 -20.6599 2.15185 3.7785 1.35439
2053 1 -23.0762 12.4572 -18.3321 -2.61137 0.779721 -2.04836
2054 1 14.3498 5.03219 -1.15101 -1.54113 1.97272 -1.67891
2055 1 4.65328 15.1841 6.70722 -1.13812 1.12248 -1.93606
2056 1 -5.6216 23.7391 23.6142 0.759672 0.121128 3.14826
2057 1 16.3149 -4.62056 7.45712 1.8304 -4.27603 0.454416
2058 1 21.772 9.96767 -13.2378 -3.38719 -3.10869 2.18634
2059 1 3.44945 -9.34602 19.7675 1.99525 -2.19552 -5.67163
2060 1 -7.77698 -2.26017 -5.29615 1.42909 3.88687 0.345462
2061 1 -16.5386 -24.6694 -23.5092 -0.236557 -1.99334 -0.263595
2062 1 -17.1292 19.0228 -8.08294 1.11377 -0.110941 1.14946
2063 1 -10.8945 -10.9565 -19.3747 -1.1793 -3.19701 -3.88474
2064 1 -14.8636 -17.4896 11.639 3.7548 4.06817 0.800431
2065 1 13.8035 -18.9729 23.6857 0.551541 1.64616 -1.14758
2066 1 19.1645 6.29498 8.85397 -3.49453 3.49147 -1.62965
2067 1 -23.8266 8.89024 21.4052 -2.91424 0.492545 -2.14861
2068 1 -15.7091 8.51801 -3.63388 -3.41899 2.29561 -2.12436
2069 1 23.1423 -21.3413 -10.0244 -0.502667 0.359188 7.20442
2070 1 23.8392 0.855404 -0.727189 1.65494 -0.157034 -3.99083
2071 1 -20.9393 -13.5927 22.3384 2.93973 -6.6093 -0.146869
2072 1 -19.1046 6.10625 21.5937 -7.09505 -0.525726 2.73944
2073 1 -18.8294 7.51442 -16.6471 3.61491 -0.850673 1.29187
2074 1 1.88942 10.6238 -13.3069 2.32819 1.15734 -2.83292
2075 1 -7.12635 -14.788 22.8103 4.23662 -0.715046 0.330105
2076 1 -13.531 24.3996 -9.13688 -2.89649 3.17011 -1.43514
2077 1 -17.701 -4.43432 4.49391 2.75865 -1.38618 0.475146
2078 1 -12.8192 1.67438 -22.2205 -0.559139 0.798164 1.41719
2079 1 5.63264 -14.563 -18.598 -3.00534 0.662504 -2.98142
2080 1 23.6283 -24.0048 -16.6237 -2.98138 -1.59758 3.75096
2081 1 -23.7994 19.3674 -15.2882 -4.26551 -5.40049 -5.03452
2082 1 -7.37001 17.2953 3.05705 8.83237 -0.439908 1.41788
2083 1 19.5641 8.62739 -9.06762 -2.63464 0.012489 -0.92084
2084 1 15.3423 18.0678 20.7221 -4.38403 1.84019 -0.292676
2085 1 -20.5881 -20.7769 -8.58468 -0.0350924 0.515861 -1.5298
2086 1 -11.0304 -13.4628 5.95084 -0.600448 0.0116443 -1.12642
2087 1 -10.1882 6.04738 -16.5781 1.25272 0.0761288 1.47228
2088 1 8.92127 20.5285 20.4905 -0.923829 0.603416 1.38844
2089 1 10.0888 14.2281 -19.6488 3.9284 1.69113 3.60559
2090 1 15.4103 7.62045 18.199 3.50806 0.563964 -2.82536
2091 1 -8.80037 7.6292 13.4977 -3.42965 -3.54245 2.03625
2092 1 -18.1201 22.6439 -23.1851 -2.43773 -0.441017 -1.21998
2093 1 -3.16435 12.6292 -2.04741 2.20565 0.104411 0.938413
2094 1 23.1433 12.1072 -2.95501 -2.31261 -2.00652 2.53046
2095 1 -21.5394 -8.79661 3.70819 0.500828 -2.00695 1.14234
2096 1 9.02179 -5.53684 0.405794 3.67081 2.28699 2.47985
2097 1 -4.19907 6.33149 10.2879 0.167056 -4.22545 1.46818
2098 1 -15.7398 -16.2365 -5.98486 0.540252 4.71818 -7.42411
2099 1 14.7082 -9.32381 6.83636 -1.40119 0.991247 3.00493
2100 1 -1.29304 -4.56454 22.8598 -2.07005 2.23144 2.88323
2101 1 -22.9312 -7.67537 18.2181 -1.8797 1.77246 0.425084
2102 1 6.15494 8.01744 -8.58559 1.19991 5.11128 1.59237
2103 1 10.899 -16.1937 -15.2809 -1.65456 0.520083 4.37578
2104 1 -22.0818 -4.66432 19.6181 5.27908 0.374643 -5.27231
2105 1 13.169 9.82062 -11.836 2.8843 4.65203 1.65973
2106 1 -20.2141 -15.3656 -20.5788 -1.14668 -0.0118849 -2.48261
2107 1 -8.11536 5.27684 -12.4834 -0.310804 1.98696 -1.89475
2108 1 -10.446 10.5685 2.05137 -0.17689 -0.640562 1.44987
2109 1 -4.24599 8.30707 20.4226 -1.64362 -1.17521 4.66778
2110 1 2.81174 9.21769 0.820038 3.16707 0.468105 2.6815
2111 1 23.1599 -10.527 21.6967 5.90653 -4.60103 2.08668
2112 1 -10.8271 3.61785 11.9318 -2.41722 -1.74175 1.46656
2113 1 -17.7972 -3.45614 21.3341 2.79368 -0.364336 1.27136
2114 1 0.018478 -23.2537 20.3011 3.31057 1.81741 1.08176
2115 1 16.6193 -13.6423 -9.90915 -2.38727 -3.79677 -1.34832
2116 1 19.6093 -4.1392 4.4323 -2.95165 4.46209 1.48299
2117 1 23.6946 22.6254 6.40158 -3.70484 -1.00925 -0.573229
2118 1 -11.2371 -1.47276 -3.17768 0.325036 -3.94283 -0.714786
2119 1 -10.3476 16.8116 2.26399 1.42855 3.65928 0.154265
2120 1 15.9685 -18.3921 11.0035 0.353339 1.28723 -1.81592
2121 1 9.04339 -20.1519 23.4523 4.0992 0.618349 -6.91447
2122 1 11.7019 8.09577 -9.39759 1.16321 0.360164 -1.46117
2123 1 22.251 -8.45514 -18.278 0.479828 2.07827 0.109453
2124 1 21.6821 -0.952373 -18.2925 0.629995 3.63191 -3.05507
2125 1 -2.19099 -14.6183 14.839 -0.785079 -2.42167 -1.91555
2126 1 11.5129 -6.27116 -3.42924 -2.1609 0.656025 0.84167
2127 1 24.0692 -8.95443 -22.5362 3.46604 7.20404 -2.25785
2128 1 -18.127 -19.3786 -1.88787 3.4711 -3.98418 -6.67082
2129 1 -13.7008 -22.6793 12.5827 0.853779 3.46805 -2.89413
2130 1 -22.6768 8.70936 -7.42259 -1.23109 4.05266 -1.063
2131 1 18.2794 -7.06492 -1.35326 -1.04048 -0.846228 -2.32621
2132 1 11.6184 -20.938 -24.3191 1.34232 -3.44737 -0.546266
2133 1 -13.8328 -13.2678 6.69806 0.156505 -0.9812 1.23787
2134 1 12.0808 21.6375 8.39852 -1.92674 3.58352 -1.60512
2135 1 17.3529 9.72302 23.7064 -2.52271 2.37157 5.92476
2136 1 -5.03687 -21.1528 5.47038 0.207708 -1.57625 6.77683
2137 1 17.9696 16.5652 -24.1335 -4.03108 2.78018 3.80236
2138 1 17.6253 22.887 -14.9993 -0.51161 3.71327 1.98576
2139 1 -8.1138 3.51906 -16.5978 2.33183 -0.408172 -0.952413
2140 1 9.48464 -14.1283 17.5968 -3.11184 0.140814 1.30771
2141 1 -21.7102 -21.7005 1.10305 -3.08357 -3.83869 -0.469598
2142 1 -17.446 -8.88765 17.2857 -1.17721 -1.89745 0.618635
2143 1 19.7051 4.52438 -16.1687 -8.13782 2.3783 -1.32466
2144 1 4.12929 -1.84764 5.6778 -0.393336 -1.61834 -5.16445
2145 1 20.1662 9.99405 22.8129 0.270624 0.534196 1.694
2146 1 2.97164 9.44584 19.0803 -0.798819 0.0621378 -1.08471
2147 1 3.92837 5.40404 14.8977 0.477183 -1.86862 1.25896
2148 1 11.7384 -22.5111 19.0934 -3.77844 0.868033 3.5088
2149 1 19.4512 -4.30086 -4.57665 1.87316 -1.03668 3.56741
2150 1 17.889 -9.92691 0.929055 -0.452299 0.59734 3.15479
2151 1 6.92067 4.68494 -11.456 1.96293 -1.14366 2.95624
2152 1 8.81814 21.7633 -4.91217 0.50554 0.560468 -1.91255
2153 1 -8.32226 -11.4823 -0.708118 0.100561 -1.80001 -0.934944
2154 1 -10.4336 17.0153 -23.6702 -2.77716 0.242815 -2.9792
2155 1 14.8245 3.8352 20.8327 -0.406527 -5.28257 4.07822
2156 1 -20.9932 17.8051 -8.62311 -7.39878 2.64704 -2.9316
2157 1 -2.63258 16.1089 19.5 -4.03897 -1.07504 2.67075
2158 1 -16.9624 13.1686 14.6471 4.08355 -0.491058 1.28522
2159 1 4.88923 -21.5294 12.3699 -2.03643 -2.75111 3.24647
2160 1 -20.3514 -2.02856 20.5098 -3.6336 4.36933 -4.14987
2161 1 -0.35002 10.0337 -5.16519 -1.17508 1.16508 1.99225
2162 1 20.8943 10.5457 -5.72366 4.89434 4.16914 3.97489
2163 1 6.44459 -7.56598 12.8954 0.544375 -0.747931 0.580413
2164 1 16.6185 2.68878 -9.29645 0.773265 -7.66984 2.15653
2165 1 18.1937 19.6413 -13.7054 1.52138 -5.64548 4.36766
2166 1 -14.5591 19.0023 -16.326 2.8042 -6.28441 4.39873
2167 1 -14.2047 -10.9099 -17.6316 0.0177968 -3.93785 -3.35402
2168 1 -20.22 17.9138 3.06789 -2.95306 2.99897 2.26928
2169 1 10.9057 -7.02849 -21.0732 2.8638 -1.34749 -1.18313
2170 1 -7.96999 -15.6954 -0.296396 4.78216 2.03383 -1.86384
2171 1 -3.94408 1.95226 3.4696 -0.179544 -1.93789 -0.18094
2172 1 0.0341784 20.0393 -4.92464 2.15741 2.08458 1.66455
2173 1 20.9335 0.650273 -14.6094 6.02937 1.54707 -2.94371
2174 1 4.96476 8.38422 -3.5204 -3.76804 4.35369 -2.50037
2175 1 10.269 -24.0147 11.3285 3.80694 2.84749 -4.7985
2176 1 9.11606 -19.4777 15.7915 -2.8394 -9.12639 4.30517
2177 1 19.2445 16.3222 18.6124 -4.52623 -5.45161 5.71941
2178 1 18.1836 -15.6842 -8.45923 -0.926233 -1.82783 0.256537
2179 1 11.5729 -3.46307 5.98376 -3.71904 -2.81933 2.7118
2180 1 11.2922 -7.16577 -11.0637 1.9026 0.884674 1.7195
2181 1 -16.6889 -21.0277 21.337 -3.19714 2.99925 -0.721161
2182 1 -3.00898 -0.633452 11.6539 -3.40383 -2.77431 -2.76882
2183 1 5.86933 -4.47241 11.1989 -1.06933 0.366884 -2.02019
2184 1 16.1374 16.6037 -18.7437 -4.62176 0.444359 -0.802846
2185 1 7.16417 7.48917 18.5549 -0.454024 -1.90945 4.00482
2186 1 3.44723 -9.63385 -17.6855 -2.963 4.68756 -0.900203
2187 1 14.8699 -5.47806 9.83139 2.55416 1.00196 -1.38482
2188 1 -13.0246 4.43761 8.72574 -1.19465 1.49817 4.18743
2189 1 2.73886 17.4547 -10.4105 -3.76713 -1.10812 -0.141867
2190 1 -1.04439 2.83502 -12.5917 -3.91576 1.21707 0.958342
2191 1 13.3241 10.0649 3.97988 0.976138 -0.0358009 -1.57557
2192 1 0.839755 1.64319 24.4959 3.00161 -1.85369 4.8627
2193 1 16.9107 -14.0036 -14.2072 -2.23472 -2.9038 -1.53834
2194 1 -20.509 1.99984 24.099 -5.8673 -1.20803 -1.7228
2195 1 -10.5555 -17.9356 -9.26663 -1.41402 -3.81414 -3.16515
2196 1 -3.48099 5.79162 -11.5045 4.64099 -5.58177 -4.43783
2197 1 17.1087 23.1116 21.6822 5.76706 6.03508 -0.253122
2198 1 2.89985 11.4867 -4.48784 -0.974125 6.81097 -3.02899
2199 1 -17.8833 10.5358 0.958186 2.10988 0.509068 1.2799
2200 1 -3.47984 -23.0023 1.98585 0.245607 -2.07362 -1.01191
2201 1 13.7718 -12.4555 -21.565 4.77633 -1.11623 2.38002
2202 1 17.8791 -18.5141 -19.176 -0.875289 3.71165 -1.2116
2203 1 7.32676 0.194297 -2.93999 -2.90843 -3.43387 -2.2208
2204 1 5.10762 -0.44058 -1.36579 4.13591 0.964678 0.242103
2205 1 -23.3343 8.36796 -15.2768 2.846 -3.60597 0.245526
2206 1 -2.33367 -9.49932 -14.7287 -0.181159 0.133843 2.85124
2207 1 -23.4405 -7.84062 -2.14225 3.59079 5.66437 0.277846
2208 1 17.7252 18.9748 -5.18186 -4.78352 0.647186 2.3971
2209 1 -24.5982 23.0331 22.0522 -0.637813 -6.27777 2.625
2210 1 21.1645 -18.589 -1.71748 -1.83083 -7.26669 -0.714549
2211 1 -17.7272 4.01713 -20.2959 -4.30667 2.47377 -1.14469
2212 1 -17.9291 -5.11743 -6.16992 1.15392 2.0063 -0.39131
2213 1 18.9889 8.65939 -5.5064 -2.5705 0.970428 0.812978
2214 1 11.0049 9.52412 19.6092 -2.41788 4.47585 5.48847
2215 1 9.71489 17.5513 -1.9917 -2.44283 1.25763 -6.48581
2216 1 2.1102 -1.48677 -13.2754 -3.66963 -0.348796 1.88502
2217 1 11.8722 -13.1296 21.1402 6.29946 -2.54223 5.64577
2218 1 -17.6423 -6.39881 21.5885 -4.11883 -5.10666 2.91273
2219 1 -10.7211 -22.3859 16.0934 -5.21352 -3.53375 -4.39031
2220 1 0.330098 16.7215 -14.009 -3.57763 0.852679 -1.38211
2221 1 18.6489 4.6296 18.8558 1.29951 -2.41886 -1.15522
2222 1 1.77277 6.41825 3.65573 1.8851 0.592257 -3.04348
2223 1 -20.4259 12.7645 -23.4044 3.68901 1.33349 2.09235
2224 1 -14.6009 13.9803 -3.96305 0.487354 -0.349598 -1.65253
2225 1 1.15066 -16.8327 -22.5311 1.9473 5.10546 4.25959
2226 1 19.0382 -0.769744 15.5846 -3.89492 -3.53777 -1.72361
2227 1 8.4315 2.55806 -3.8014 -1.8292 1.55782 -0.58979
2228 1 -8.3523 -7.4386 -23.0353 -1.94586 -3.59847 1.19951
2229 1 17.2307 5.05336 16.5858 5.80147 3.25041 1.88604
2230 1 2.35343 19.9627 -3.00729 -0.892379 1.7949 -2.39098
2231 1 -12.2024 21.7232 9.53933 5.18012 2.51712 -3.03501
2232 1 -22.7102 22.4034 -16.6052 -1.88653 0.794863 -2.43192
2233 1 -10.9186 2.31551 -16.9695 -5.62735 -0.922528 1.10865
2234 1 -4.13108 2.62855 -5.28406 -6.51867 -0.320759 -0.91908
2235 1 7.6659 -24.3906 12.0541 4.45644 -4.70574 1.06951
2236 1 21.6651 5.80488 -18.5194 2.08225 2.98636 3.86457
2237 1 -0.927365 -22.4812 -19.5623 -0.501074 1.41943 2.29003
2238 1 15.0051 14.6258 -15.9043 -2.22273 -4.63642 -3.0414
2239 1 -15.6382 -9.539 23.2796 6.75075 0.208328 -2.22791
2240 1 14.6969 17.2227 16.4951 0.238729 -3.59856 3.4833
2241 1 -22.716 -2.39426 -17.8078 4.07379 4.02965 3.14017
2242 1 -10.4918 -15.0629 19.8384 -3.34219 3.94896 4.45957
2243 1 11.4894 23.3857 -9.57242 0.973251 -2.02319 -3.89185
2244 1 23.5784 21.8556 -15.2702 0.607342 -2.96123 -4.34809
2245 1 21.6847 -19.0725 9.97311 -1.11516 -1.8954 -0.50399
2246 1 2.31138 17.1142 -16.1889 3.67448 -0.474838 1.45288
2247 1 23.3056 -12.2011 9.66692 -2.23865 -1.74322 -4.27128
2248 1 -1.98599 -7.04579 -13.2523 -1.6051 1.12892 -2.5315
2249 1 -15.1755 11.9885 -16.871 0.0135723 0.315585 -1.23874
2250 1 0.27875 0.464692 8.04306 -1.89522 0.845701 -1.79617
2251 1 -11.5368 -9.0065 -12.015 4.74646 -2.72719 -0.598822
2252 1 -24.4991 -12.1889 0.305535 -8.67793 3.22623 -4.69307
2253 1 6.53735 -18.5395 -3.55209 -3.22154 0.0209875 -1.42626
2254 1 4.9461 17.7729 14.1822 -1.55409 -1.39893 0.897324
2255 1 1.82608 -1.98852 -16.1263 1.26948 -4.29496 -3.59804
2256 1 15.1547 18.8149 -21.9499 -1.70708 0.858565 -6.31671
2257 1 -0.625184 3.46874 -7.71918 -2.80696 -2.12069 -1.43437
2258 1 -9.59264 14.7366 -22.1164 0.373139 -1.30668 1.54161
2259 1 -21.074 -8.72383 22.688 -0.0351751 -4.46537 -2.18399
2260 1 20.6316 18.1 -16.8629 0.666303 -0.976538 0.601319
2261 1 14.0986 -4.45884 -7.76294 4.8764 -2.65962 -5.20191
2262 1 18.1042 -22.9378 -1.80858 -2.89628 0.383289 3.94454
2263 1 1.87226 -16.1318 -2.28324 -2.77931 -2.55412 -1.04468
2264 1 -3.70186 18.9599 3.78787 0.75716 -0.148246 3.20645
2265 1 -1.62514 2.37311 18.5306 -0.799519 -0.120923 1.92779
2266 1 -22.1498 7.8964 13.3399 1.09769 0.900643 2.00049
2267 1 -10.7113 -15.16 -0.811791 -1.52613 -2.14194 -0.220513
2268 1 13.6631 0.479886 -5.56219 -1.07055 -5.20862 -1.96625
2269 1 17.9478 9.60651 -22.0718 -1.57809 3.97008 -2.43834
2270 1 -5.87538 19.848 2.01508 4.29516 2.72046 -3.39967
2271 1 23.1803 -16.707 -8.70238 0.911527 4.60959 -3.61838
2272 1 -0.0794166 12.2284 10.3503 -3.4268 0.343232 -1.94511
2273 1 -23.2544 -19.6092 15.6812 6.61484 -4.81425 5.58734
2274 1 -5.41809 -0.11534 19.272 1.35344 4.60391 -1.70823
2275 1 -11.825 23.2025 -15.4897 2.66884 0.734376 -4.78925
2276 1 -0.551863 11.1104 3.79925 0.562322 -1.21175 1.16652
2277 1 -13.1373 3.85428 22.359 -0.479022 0.534942 3.93203
2278 1 -14.3503 -14.2674 -3.87653 2.38863 -2.7522 -0.837362
2279 1 -11.7942 0.81769 7.42041 0.457236 2.34489 -4.16854
2280 1 12.0871 -11.0924 -2.5694 -7.28439 4.89213 0.353371
2281 1 19.9577 12.7201 23.2579 -1.70344 -1.03763 -3.21748
2282 1 -5.76661 23.6115 6.4693 1.17424 -2.61656 -0.575529
2283 1 22.2472 -12.0428 7.06919 -3.8872 1.16019 0.721717
2284 1 -20.9601 22.1355 -22.9577 -1.42046 3.41926 1.15641
2285 1 -21.7701 16.4264 1.16214 1.5163 2.85062 -3.48672
2286 1 4.0803 -9.19055 2.93047 2.16543 -5.15908 3.05651
2287 1 21.0173 15.9924 16.3519 -5.86852 1.08684 -0.248241
2288 1 22.8193 -8.17458 -6.49691 -2.89531 -1.12071 -0.0197039
2289 1 -3.27163 12.7308 -22.5905 -3.32663 2.29378 2.78618
2290 1 15.6163 -8.2099 21.9577 0.424269 -0.20501 1.83805
2291 1 -0.266679 19.431 20.0131 -1.54062 0.299366 2.42257
2292 1 -14.0701 -10.3864 -2.20909 1.20482 1.16872 -4.59388
2293 1 2.0599 5.68317 11.0781 3.13894 4.52356 -0.116275
2294 1 -19.9275 9.71354 -18.2176 2.52247 1.42799 -0.736406
2295 1 -13.5412 10.1557 23.4062 2.61934 1.58549 -1.61395
2296 1 -22.2313 -9.18549 -17.7554 0.195739 3.68255 1.28692
2297 1 9.79014 6.22941 -20.3865 -0.276599 1.13144 -1.42375
2298 1 -3.10426 -21.2375 -5.86297 1.23825 -0.94543 1.23499
2299 1 9.2917 -12.1558 -3.12636 -0.457283 3.11265 -3.21849
2300 1 6.97427 12.4329 2.37251 -0.72892 -0.753541 1.19447
2301 1 5.27982 -24.1185 22.0826 2.91193 -1.31999 1.70169
2302 1 15.587 10.7102 -16.0713 4.84258 -1.06829 4.44402
2303 1 -12.1015 18.4842 -12.6321 2.92224 -0.836219 0.975294
2304 1 8.83225 17.1254 7.83578 -0.853984 5.22781 -3.32231
2305 1 -14.879 18.0375 12.228 1.19064 -0.542211 1.85811
2306 1 3.64396 -4.85976 22.4623 -0.384298 3.25691 -1.27229
2307 1 -15.2376 12.4965 22.661 2.25298 4.14632 -2.2993
2308 1 5.7334 3.06968 -18.4214 -1.26469 -0.192363 -2.24743
2309 1 21.5424 17.9347 22.6874 3.59653 -2.88494 -3.87582
2310 1 5.04545 -17.8423 8.29196 5.44789 -1.61317 -4.90895
2311 1 6.72372 1.08429 2.44825 0.450507 -3.1478 2.6588
2312 1 -20.4667 -21.3744 8.94138 -6.37243 -5.0688 -2.4655
2313 1 -8.68493 13.351 -17.742 1.80795 -1.54285 3.18565
2314 1 -16.8234 5.71846 9.73789 -5.18621 -4.29067 2.73865
2315 1 -10.6404 13.3823 15.472 -1.06571 -1.04834 0.603787
2316 1 -18.6582 -12.0332 2.38791 -4.09868 -0.486801 -2.19349
2317 1 -4.13851 -10.3548 -8.37599 -2.90804 0.34481 1.73976
2318 1 20.4587 -7.06458 -4.57323 2.27282 3.006 1.8596
2319 1 5.44067 -9.58077 7.21973 5.06728 1.6087 0.704455
2320 1 21.5389 2.82802 -19.0718 -0.37651 1.76782 2.31773
2321 1 -2.58561 23.1218 23.9058 -0.20924 -1.78163 6.039
2322 1 -4.66321 19.3004 18.5967 -0.34098 -5.17011 1.23151
2323 1 3.94 -3.82652 -4.31678 -4.18366 1.10884 0.481926
2324 1 7.54196 -18.6044 -18.0495 2.17347 -4.42337 1.31752
2325 1 15.498 -20.7376 -15.8384 -1.83708 0.758178 -7.5844
2326 1 21.6237 -10.5125 -14.6608 -2.21545 1.02948 2.07193
2327 1 12.887 -0.0871449 -17.4268 1.86397 -4.06413 -2.93841
2328 1 -10.6126 -8.62954 -4.85147 -8.11631 0.351272 2.29556
2329 1 6.92226 5.72489 12.4682 5.86683 0.977025 2.99724
2330 1 12.4382 -21.723 16.346 -3.9718 2.1663 -0.277142
2331 1 -16.8478 -15.324 12.7608 -3.04431 1.12804 -0.240045
2332 1 20.1027 -16.5053 12.4686 2.28491 3.26489 -2.11849
2333 1 11.6673 -19.486 -14.0783 0.290112 -4.15384 -2.07495
2334 1 -10.4759 17.7755 14.11 1.61706 -1.75545 2.30729
2335 1 -3.57305 18.9035 23.0273 2.40168 2.00049 3.49407
2336 1 16.5224 -11.5882 -21.5932 1.04623 3.41653 3.42792
2337 1 8.83344 6.09981 0.80393 -4.68109 4.95445 0.690114
2338 1 0.257664 -4.19179 -21.3068 -1.10666 0.597228 3.16952
2339 1 7.49947 10.3311 -3.23315 4.45947 -1.06478 3.11082
2340 1 8.42175 8.70918 14.8208 1.79987 2.05256 -1.83019
2341 1 7.31414 -17.9067 -22.0304 -4.33722 6.38429 -1.08745
2342 1 8.79897 -14.252 0.859167 0.104124 4.65336 -1.58131
2343 1 9.20555 21.7136 2.00023 1.12416 -0.686059 2.98188
2344 1 13.4285 23.4274 3.99267 0.0139421 0.809506 -3.32065
2345 1 7.17647 14.6852 -15.3343 5.63657 -0.15661 1.57995
2346 1 -4.39619 -19.9165 9.45403 -1.28269 3.90422 0.912017
2347 1 -14.2042 10.8817 -14.3414 5.28958 -4.71173 0.523946
2348 1 8.15001 -1.6289 4.11938 -1.72072 -3.75736 0.253571
2349 1 -9.8757 21.5709 15.2487 -0.613191 -2.43714 3.1159
2350 1 11.6674 7.35951 -12.2389 -2.56243 -3.75248 1.31892
2351 1 17.1641 10.5823 -13.8368 -1.19195 -3.00495 2.65244
2352 1 -1.84071 20.5243 -22.5184 -2.26192 1.98548 -2.42032
2353 1 15.0724 -1.92581 6.32791 0.249759 0.508628 3.07258
2354 1 19.525 -18.2768 -23.4821 -4.37553 2.62832 -2.65677
2355 1 -8.19895 -0.266757 1.30859 2.92608 -4.30591 -1.76023
2356 1 14.811 -22.4565 -8.64091 2.69659 3.7778 3.79042
2357 1 -2.20628 -2.57702 1.75591 -1.59722 1.15422 -5.48794
2358 1 3.38238 -10.7111 -12.0008 1.26037 -2.89744 1.33602
2359 1 9.22477 9.85736 7.80302 -2.69415 -1.99024 -2.54798
2360 1 13.6987 16.0224 2.68982 -3.54861 -1.11708 0.151467
2361 1 -22.3601 8.78602 -11.8423 -2.96053 -1.502 -0.552769
2362 1 -20.4455 11.0306 13.4873 0.400448 2.35169 3.54814
2363 1 17.198 -11.6241 -1.298 -1.62699 1.65322 1.54543
2364 1 2.14055 -2.71754 -0.0847637 -3.76366 2.28337 -1.78
2365 1 22.9066 -8.5536 -3.36694 -1.44859 -0.875514 0.0771563
2366 1 10.5266 4.01763 1.70475 0.443344 -2.49923 0.0239316
2367 1 5.59751 17.214 10.5337 -3.97767 -0.835015 3.12176
2368 1 -7.3193 -19.3762 -6.15046 0.162322 0.300928 -0.810807
2369 1 19.4771 3.55288 15.3264 -2.71364 -1.60827 -3.47708
2370 1 -22.9087 -8.59107 -6.19637 1.51686 -10.0188 -1.01861
2371 1 16.8908 -19.9013 0.160027 -3.07617 3.04005 -0.727963
2372 1 -24.6646 5.50021 -0.768388 -1.3907 -3.54702 2.79408
2373 1 13.2054 10.628 16.7095 -1.79903 0.299613 -0.226516
2374 1 -5.5127 8.14647 -1.55913 -1.99647 5.84606 4.10152
2375 1 10.3651 22.3808 13.988 -4.8224 -0.72962 1.34256
2376 1 -14.7882 -1.2758 22.9903 -0.922058 1.60551 -3.38896
2377 1 -6.31737 -7.33717 -5.26072 0.199705 -0.184755 6.19582
2378 1 6.52836 -1.92397 19.8921 0.883197 -0.296975 1.23557
2379 1 -22.4639 12.5361 9.16311 0.197761 5.02078 0.193168
2380 1 8.92556 -13.3864 21.555 -6.64622 0.386177 1.79689
2381 1 12.1139 -8.76362 -4.85365 -1.31286 1.37251 -0.522118
2382 1 -13.9391 16.1468 -16.8693 1.12275 3.96521 -2.16072
2383 1 22.794 -18.464 6.30478 1.81037 1.45981 0.281576
2384 1 7.53068 -12.5939 24.0667 -2.10814 -1.4764 -5.04411
2385 1 -0.883671 6.91584 2.51748 0.0577051 0.413854 -1.02388
2386 1 2.11333 -3.30974 7.1612 -1.30342 -1.9124 -1.97279
2387 1 -12.7217 -6.39502 12.699 3.13205 1.00267 0.442401
2388 1 9.04439 23.5117 20.9249 -3.90014 1.65145 -4.37607
2389 1 8.04819 -10.8599 10.6498 -2.51287 2.58193 0.438229
2390 1 -21.8678 -5.4939 -8.46149 -6.44785 2.38871 -1.05708
2391 1 -7.72597 -2.12031 7.81427 1.53357 -4.10513 1.63844
2392 1 10.2319 -22.4984 -15.6848 -0.9718 1.51705 -2.27099
2393 1 4.54627 -17.7063 20.944 3.33712 -3.02056 1.27225
2394 1 15.8521 15.2019 -5.50085 -0.308078 -1.82214 -1.64363
2395 1 4.4704 16.8179 20.038 -0.207883 -1.87102 6.75046
2396 1 -16.1843 -20.7551 -0.27637 -0.635366 1.01193 -3.8331
2397 1 -16.178 -7.76164 19.5878 -3.16572 -0.46415 2.09391
2398 1 -8.57992 -1.77938 14.5346 -4.54914 -1.21218 0.392199
2399 1 -13.1283 -10.5095 10.5392 -0.965187 4.29556 -0.940954
2400 1 12.0824 -7.90018 16.0822 3.92639 1.67305 1.45203
2401 1 -17.5347 21.0005 -3.71778 0.762299 -4.67818 -0.272549
2402 1 17.3216 14.2931 -19.7866 -0.571407 -5.91474 -0.484794
2403 1 -10.7079 0.199665 -23.9248 -0.237784 -0.166467 2.34027
2404 1 -21.1775 -6.21935 -23.1574 1.60793 -5.41198 -4.38687
2405 1 -4.96361 -11.0392 -21.7826 -1.76716 0.130727 2.29486
2406 1 23.7876 8.0426 -12.0056 -0.687089 -2.92473 1.13274
2407 1 -13.1218 -13.3525 15.0022 2.72343 2.60814 -2.49091
2408 1 -21.433 -3.67115 -12.8382 0.350864 1.40271 -0.226397
2409 1 6.56798 11.1623 15.0221 -1.63056 2.47638 3.55412
2410 1 7.03502 -20.892 -23.0913 3.14016 1.49352 -5.81327
2411 1 9.53605 11.6764 -18.1478 2.20507 -2.7678 1.25525
2412 1 9.85018 18.8753 15.9201 2.67337 -1.94691 -0.487809
2413 1 -6.12773 21.8964 4.1716 1.56857 -0.795447 -4.12072
2414 1 12.985 -6.77079 -6.63607 7.12579 -1.02237 -2.92225
2415 1 22.8092 -22.5413 24.3431 -4.65475 2.10628 -0.372964
2416 1 7.10638 12.4377 9.5662 -3.00121 0.597794 0.112502
2417 1 -3.76548 -4.73265 -0.115544 0.0261029 1.31507 4.08175
2418 1 13.153 2.45516 -7.76879 1.43722 2.37911 -0.090695
2419 1 22.7124 8.19238 -18.1399 5.37347 0.768351 -2.40258
2420 1 -1.35629 -5.98167 -8.83863 1.38704 0.573852 -3.69935
2421 1 -23.5898 16.6713 -7.54395 -2.60421 -4.90412 2.25973
2422 1 -15.0639 3.66837 17.1006 1.2993 2.41209 -0.108049
2423 1 13.4018 20.3147 6.37669 -1.15124 2.63722 -4.83997
2424 1 -24.3875 15.743 7.20321 0.621701 -1.17933 3.09185
2425 1 -15.4313 9.09864 -23.0614 2.48277 -2.00864 -1.76889
2426 1 0.210602 16.4591 20.0313 0.616154 3.62585 3.49323
2427 1 13.951 3.16202 4.23478 4.89855 1.07213 -0.752374
2428 1 12.7049 -16.5741 14.5068 -2.12525 -0.990355 1.17511
2429 1 -8.72055 -9.3408 -13.4445 3.46209 0.625668 4.36881
2430 1 -13.5325 -6.89649 16.1007 1.79524 -0.1125 1.78835
2431 1 -18.8119 17.9864 -10.6091 -2.02266 0.45203 1.29821
2432 1 19.2281 13.7339 -17.6786 -3.10267 1.26285 2.22827
2433 1 19.6736 -22.706 20.8411 5.06148 -3.14785 -4.00475
2434 1 -0.165123 -21.8925 -2.96184 -1.35861 -0.967288 -1.28281
2435 1 -14.8321 22.2717 10.218 0.308451 -0.0728152 -0.642185
2436 1 -7.11709 10.0449 17.6357 -5.01067 -4.11524 3.84918
2437 1 -14.2482 -5.21318 10.6144 -1.46498 -0.345771 3.22803
2438 1 -4.3936 -22.4931 -21.6998 1.28821 -4.12 3.49789
2439 1 -14.5387 18.3889 9.46992 -3.36975 2.89137 4.25144
2440 1 6.37483 -3.86091 -15.4388 -1.49239 -0.308731 1.35835
2441 1 -23.0712 14.3885 20.0026 0.319897 -3.39857 -4.76299
2442 1 -2.66501 -10.7455 -17.2204 -1.59938 0.137702 -1.3165
2443 1 6.59303 11.965 -20.8974 0.373406 0.171951 -4.98421
2444 1 12.9024 20.8648 18.95 -0.487268 0.377028 2.58622
2445 1 1.94012 2.50376 21.8947 2.01853 0.309492 1.99618
2446 1 -1.77178 -5.8325 16.4487 0.0927989 -5.48054 -6.33689
2447 1 -1.22229 -13.266 17.0399 -4.43307 3.70786 -0.528339
2448 1 0.723488 -13.9845 -9.85951 0.39547 -2.63859 -2.64306
2449 1 18.0565 -22.7012 12.3062 -6.62348 0.814086 -0.942758
2450 1 7.14104 11.3019 22.5518 -1.26868 1.29845 -2.42733
2451 1 6.85065 -21.9793 4.75611 -9.47167 -2.52433 -6.39337
2452 1 13.1325 16.2393 -14.2039 2.57156 -0.208062 -2.4446
2453 1 -1.10495 9.19299 13.6306 -3.01159 -4.17637 1.3726
2454 1 -5.08065 9.16949 -18.0302 1.15441 2.27906 -0.829234
2455 1 11.557 9.11483 14.9636 1.9827 -3.38505 -1.52358
2456 1 19.7505 19.9083 21.9414 -0.83387 -1.89148 -2.07305
2457 1 -4.33843 1.82828 12.0564 8.32502 0.743261 -0.721433
2458 1 -23.0166 21.0772 -1.72392 -0.206657 -0.525585 -5.0034
2459 1 -19.4959 15.6123 -7.73784 1.08965 -6.58481 -0.0105171
2460 1 8.69822 10.6006 -14.5722 -2.36739 0.913716 -7.83017
2461 1 -20.7842 17.6187 -3.96244 -1.35169 -1.20374 -0.836077
2462 1 -12.2622 23.7471 2.26408 0.974556 0.164259 -2.18022
2463 1 -13.7042 -20.7989 23.7211 3.11315 0.364484 1.15007
2464 1 7.68287 19.6213 -15.8457 5.16127 3.15381 0.438283
2465 1 -8.54866 -15.122 -11.2792 -5.49515 -1.9897 1.60143
2466 1 1.7158 4.20598 -3.59196 -2.6439 -4.35927 2.90816
2467 1 1.41073 -19.1822 10.7931 4.14902 -1.25594 6.39825
2468 1 -20.0783 -23.2337 -4.92883 0.0499928 7.25391 -3.70601
2469 1 13.9145 -23.0913 -24.5176 -2.47947 -0.664632 2.26822
2470 1 11.9164 -19.3246 -9.42348 -2.25847 -1.11006 -3.10227
2471 1 -1.67947 23.6908 -22.1936 -0.5455 -4.02272 -0.0476121
2472 1 -19.5581 -0.741801 14.0617 0.293136 -1.45598 -1.39342
2473 1 13.3 9.3448 -7.45863 -1.05706 -1.56698 -5.22557
2474 1 -5.35781 -9.75707 -16.9787 -1.37519 -1.423 2.37751
2475 1 -17.0264 11.035 10.3549 4.65338 3.12065 0.369508
2476 1 -6.93221 -19.635 -19.5004 4.9269 -0.732652 -5.93146
2477 1 10.4451 8.33423 -0.989166 0.0701559 1.89547 -2.32263
2478 1 -4.23125 -22.0064 -1.00717 1.81628 -0.549017 1.77717
2479 1 -20.8351 -4.22823 2.36119 -4.05272 0.474273 -4.43995
2480 1 0.186533 21.1198 -8.16373 -1.5816 1.89367 4.88191
2481 1 -15.8047 -8.32711 -10.0315 -1.62039 2.23579 0.505893
2482 1 6.89562 -4.56359 -1.17135 0.713556 1.01678 5.97574
2483 1 -0.41083 9.47545 -11.7133 -2.50922 -2.51401 -0.360099
2484 1 1.64169 -15.9243 -7.76772 0.959464 0.295501 1.92585
2485 1 -2.01467 -19.0868 5.02627 2.62482 0.737903 -0.952124
2486 1 -4.13706 -18.6927 6.7407 -0.72502 1.30591 -0.478588
2487 1 2.65283 18.7473 -0.128492 -1.03286 -0.775746 0.0225296
2488 1 -8.95751 18.4105 19.3482 2.49043 -2.10007 -4.75181
2489 1 6.11557 20.926 -11.3159 1.10531 4.88578 -4.94246
2490 1 -12.3824 21.723 18.0695 0.844256 -1.75316 -1.92536
2491 1 12.172 -22.2363 -4.48962 1.08699 2.21122 0.955803
2492 1 23.3319 13.4964 2.29252 -3.58134 -2.82029 -0.62666
2493 1 20.1589 22.6766 -21.694 -1.96558 -7.41395 -0.596002
2494 1 -14.1376 -15.2985 -23.5307 -7.26219 -0.779367 -0.537765
2495 1 14.4015 -12.0546 -10.274 3.32078 0.38265 -2.31677
2496 1 5.06391 2.63106 -22.9142 -1.86395 -1.67312 5.30465
2497 1 4.69277 7.12218 20.2761 1.01953 -1.13534 -0.492355
2498 1 -4.97504 7.14162 4.95187 1.47816 -2.22413 2.79121
2499 1 -24.2633 -14.7966 9.00853 -5.94853 7.56684 3.0842
2500 1 9.43591 21.7662 7.57343 -1.89305 1.17649 2.68051
2501 1 5.36775 12.9558 4.94953 -1.2271 -0.0260577 -0.689627
2502 1 -6.65506 -12.0993 10.0738 -0.313825 -2.07221 -4.22844
2503 1 17.1683 14.3477 -1.66504 0.388857 2.67931 -0.198156
2504 1 9.56811 11.3009 10.3774 -1.44896 -0.0908437 -4.76041
2505 1 -10.6876 17.2959 22.1932 -3.95785 -2.43311 1.5421
2506 1 -23.3658 10.3484 -9.65426 4.54302 0.288057 1.56864
2507 1 9.01386 -2.77026 -16.3932 1.13304 2.80959 2.02715
2508 1 13.4387 21.7576 -5.28443 -5.75342 -3.32062 4.87671
2509 1 -3.7579 -7.77141 4.25042 -4.11036 -1.35874 -1.73225
2510 1 -22.7193 1.35932 -2.81652 0.571294 -3.19312 0.821175
2511 1 4.80589 4.69053 18.2696 -3.43975 -0.962919 -1.48579
2512 1 -10.3388 10.049 13.0749 0.560449 1.73517 -2.89139
2513 1 20.8379 8.56365 7.47763 0.54442 1.97285 0.0488175
2514 1 22.4999 10.3641 -24.3581 4.10518 -2.16994 0.877089
2515 1 2.26968 -20.8568 2.87026 3.88791 -3.31724 -0.0884188
2516 1 3.9373 10.614 -19.9617 -4.57975 -1.53119 1.78652
2517 1 -11.0062 -14.1291 16.5145 -8.90166 5.15606 -1.64583
2518 1 -1.86102 -4.28328 -2.46247 -2.74727 -3.81273 2.93126
2519 1 -23.2014 19.6971 13.8996 3.07632 -1.21422 -1.5991
2520 1 -23.4565 0.484362 -7.21518 1.29685 -2.092 -3.99123
2521 1 9.75648 5.83061 15.1726 -5.23268 2.94811 -2.26256
2522 1 -4.49096 9.25603 1.02651 -4.64569 0.0558675 4.07466
2523 1 -18.0601 -23.1351 -21.6108 3.50904 2.40931 -3.61049
2524 1 9.92484 22.1141 -21.463 -0.602445 -3.30586 1.28083
2525 1 -13.4738 -13.9662 -8.7694 0.985081 0.366397 3.15845
2526 1 -10.4205 -5.03209 -15.6488 -0.203024 3.37763 2.13568
2527 1 5.41822 4.73982 8.35282 -0.68326 2.62399 -3.32001
2528 1 -8.88375 11.9437 6.71754 -3.03549 -1.14665 0.892638
2529 1 -20.0841 -8.34872 -3.3893 3.56317 1.36002 -1.88767
2530 1 4.14299 -12.9904 -15.7257 -0.121907 -1.26966 -1.04148
2531 1 -19.4949 -9.26124 -17.074 -3.60181 -1.41486 -2.96337
2532 1 -14.7805 -16.5067 1.79234 4.54487 -6.49411 0.820789
2533 1 -13.2213 22.6253 -2.78354 -9.32108 2.09523 -1.21433
2534 1 -18.4676 -10.4904 -2.16049 4.01844 -1.92873 -1.44853
2535 1 15.4109 -6.31939 15.9622 -10.2369 -4.87358 -3.34095
2536 1 23.8245 -19.9855 -23.7065 -0.54362 -3.12754 -2.84551
2537 1 -1.4494 -23.514 13.6694 -1.90344 0.223564 2.29231
2538 1 -6.70064 4.35273 -22.9014 -0.132762 3.13648 3.11512
2539 1 13.2597 -10.988 17.4207 2.99367 4.82941 -1.14823
2540 1 20.0546 -9.4348 16.4382 -3.18866 -2.05898 -3.08911
2541 1 5.92864 7.22178 14.5508 -2.31272 -3.17356 1.48868
2542 1 -12.2481 -7.30232 -21.1449 3.08014 -2.48802 -3.45979
2543 1 -17.2427 -7.69934 -7.50461 0.271888 -4.6516 3.65212
2544 1 12.2777 3.03585 7.37865 1.835 -3.39624 2.34168
2545 1 -12.3762 11.1937 -20.6293 -4.59573 -0.666513 0.758117
2546 1 -15.2759 2.53131 13.2303 -3.40857 -2.41991 -1.97869
2547 1 -12.7289 -3.35517 5.96387 -0.306522 0.914031 -1.17455
2548 1 16.6513 -5.55786 -7.97791 6.76119 1.52966 -1.70912
2549 1 7.16326 12.1709 -16.922 2.97104 0.900547 3.29648
2550 1 -22.5935 -17.7395 -18.0201 1.02162 0.341843 -1.24679
2551 1 -6.0305 11.7802 -14.9913 1.01664 -0.985259 -1.06871
2552 1 -1.24717 -13.9586 8.52492 -1.31978 3.1266 -2.29078
2553 1 1.50878 23.572 15.1382 0.9364 -0.96162 1.95299
2554 1 19.2984 23.9465 -7.09762 2.79638 1.27215 2.09611
2555 1 3.86576 14.6251 -6.87231 1.32927 -2.32257 5.4722
2556 1 -9.39227 -13.735 10.098 -1.88009 -2.61466 0.603497
2557 1 17.5144 -21.1712 -13.0375 -2.16485 3.49978 -0.688726
2558 1 -20.2669 8.30291 -20.7386 1.3128 -3.93431 3.45778
2559 1 -17.5435 6.70752 5.22015 1.23354 -2.92126 0.226765
2560 1 21.2206 -21.8018 8.53493 -1.35902 -2.67091 0.441197
2561 1 -10.0602 -2.12272 11.9821 2.10511 3.28639 0.464001
2562 1 -18.9219 -4.52207 -11.4557 1.46419 -3.13099 -4.7573
2563 1 20.0318 -3.7655 -21.702 1.61483 2.47103 0.333931
2564 1 -11.022 -15.1723 -10.1186 -1.42587 4.63351 -2.74821
2565 1 14.1505 16.5064 13.5771 -2.82884 0.0105483 -2.21266
2566 1 22.8531 -10.7758 14.1306 -0.15734 0.559387 0.549248
2567 1 -13.1381 -0.317692 -18.3751 2.10766 4.25924 1.43097
2568 1 20.3645 -9.11689 -20.1722 -1.56943 0.215126 1.7548
2569 1 -24.6127 -17.6726 -12.3824 3.32274 1.30642 7.26675
2570 1 -20.5861 17.0823 -16.3348 2.74589 4.33589 -3.93823
2571 1 12.9131 0.234709 21.8713 2.10391 -8.94241 1.95385
2572 1 -23.0326 -17.109 -5.02772 -1.37395 2.08327 -2.74306
2573 1 19.4058 -23.656 -4.39454 -0.257019 3.55458 3.39631
2574 1 -18.2671 -22.6742 -7.26905 1.69111 -0.677751 5.05713
2575 1 2.97534 16.5791 2.03184 -7.36279 1.32051 -4.05844
2576 1 23.1716 19.4008 15.6265 -4.7738 4.78892 -1.46042
2577 1 15.7671 20.7768 -3.78765 0.911476 1.31512 0.422601
2578 1 -17.8954 -14.6551 -3.70838 0.472937 2.89688 0.0585923
2579 1 -10.4918 8.01945 3.17493 2.65525 -4.53064 1.19039
2580 1 -23.4883 13.834 -21.1026 4.60399 3.01068 -2.44462
2581 1 -7.36507 15.167 22.33 5.34046 -1.16178 -1.08465
2582 1 13.5591 24.042 9.23531 -1.98642 2.16198 -0.70876
2583 1 5.59678 19.3119 -0.582858 1.04394 -0.601995 2.31555
2584 1 -11.3831 -19.8146 -11.107 -8.56705 -2.43035 -3.40575
2585 1 14.9837 -15.5819 20.4023 -5.42363 -3.49063 4.47449
2586 1 -14.3832 13.9999 12.7828 5.16836 1.08811 3.24166
2587 1 17.7104 -18.6787 7.12908 1.06704 0.377578 -0.871662
2588 1 16.51 -0.871428 -16.985 -0.0069318 3.51501 -0.970823
2589 1 -0.650966 -7.6108 9.0661 0.346271 -2.48125 -0.998417
2590 1 13.8577 3.78479 -10.4593 -4.02846 -1.72265 1.11365
2591 1 -4.08592 -22.4719 12.862 -0.409436 -2.10144 3.1527
2592 1 -0.775937 -16.8725 7.98953 1.2628 1.60071 3.27322
2593 1 -24.1397 -4.97176 -23.059 -0.874546 -2.02849 1.00754
2594 1 21.9779 -7.84918 17.5142 1.17577 4.16495 -0.425222
2595 1 -1.75669 -17.135 -18.2669 0.0804893 -4.5019 4.1844
2596 1 -15.3103 10.6857 -20.5341 0.327083 0.847649 -1.32388
2597 1 -19.5041 -2.37005 -17.3361 0.735748 2.91229 -1.67031
2598 1 19.8651 0.0795893 -3.86034 2.4605 -2.38334 4.48334
2599 1 -5.77857 3.16098 7.99853 -1.85304 1.00621 -4.23207
2600 1 3.71456 23.3654 0.446552 -1.68026 -0.360533 -3.07487
2601 1 -1.30117 6.85555 5.38929 0.403845 0.353369 -3.85409
2602 1 -5.52268 -11.4685 -1.06115 -3.10939 3.74954 1.95403
2603 1 -23.0082 19.3559 -6.67334 0.899679 -3.3684 0.271945
2604 1 13.2524 -12.7646 -0.5307 7.34544 6.7885 -3.52121
2605 1 -18.2191 8.2602 -5.66879 3.37354 1.3491 -2.27219
2606 1 16.8689 15.8567 20.0621 1.56306 2.21703 -2.43204
2607 1 11.2851 2.04267 -23.679 -1.7909 -0.206593 -0.891289
2608 1 12.7356 -18.4074 -22.6057 0.597434 3.43531 -0.0806018
2609 1 -14.0271 -4.76497 -17.649 1.38111 -1.98714 2.36415
2610 1 0.393618 3.81892 -17.2846 0.0196269 0.52978 -3.69115
2611 1 -22.1221 23.3733 -20.819 -0.160582 2.53994 -2.99599
2612 1 -16.6229 -20.4902 17.8627 -1.72615 -1.73025 -2.56043
2613 1 -22.3532 4.64631 16.211 0.255847 -1.27543 3.32878
2614 1 -12.6344 12.2256 -17.8753 0.883168 -10.244 -1.12333
2615 1 -3.11263 2.81748 16.0536 -1.24535 -3.49178 1.50112
2616 1 23.706 -1.81209 -10.0558 -2.6363 3.09882 3.20209
2617 1 -4.55777 11.9509 -17.5587 -3.96458 0.951423 0.916531
2618 1 -8.10058 -17.9726 -11.261 4.44959 -2.71823 0.389838
2619 1 -1.53944 9.65856 -22.6722 2.49085 0.258547 1.56274
2620 1 -9.48943 14.725 6.07444 3.87645 0.564958 3.67416
2621 1 4.78908 -23.3258 6.66662 -0.493567 0.863638 5.86955
2622 1 -1.75407 -18.5098 22.2717 1.54006 0.520295 3.22338
2623 1 -19.8293 18.6936 -22.3086 -1.07401 -5.20583 -2.44187
2624 1 -18.6077 18.6288 -5.4735 -0.602946 1.08854 1.35794
2625 1 -6.76681 -5.00543 22.5302 -2.98368 -2.86673 -0.153933
2626 1 -3.622 4.23436 22.4486 1.13478 -2.36296 -0.268382
2627 1 16.0355 23.9509 8.15674 -1.60049 3.78611 -1.56189
2628 1 12.9699 -8.2243 -22.9423 2.28796 -0.754228 -4.73659
2629 1 -21.6527 -1.92465 6.72737 8.81973 -3.15421 4.57643
2630 1 -12.7402 -8.77004 18.0839 -2.80436 -3.5188 3.55402
2631 1 18.1275 14.436 1.07519 -1.45877 3.39166 -3.98049
2632 1 19.0994 -1.97778 -17.6678 -0.24053 -5.95961 -4.56202
2633 1 -4.60409 -16.3226 -12.5515 -1.07016 -5.66668 5.03624
2634 1 -6.01999 11.6414 -23.1201 -0.487386 -2.21586 -5.04044
2635 1 0.274134 10.1992 22.6637 -3.96584 2.08134 -2.32505
2636 1 -14.5384 -20.6895 15.0688 -4.83425 -0.656221 -1.4476
2637 1 9.5595 -14.8696 -17.8272 -5.52067 2.41969 3.94926
2638 1 12.5417 4.80491 -5.51939 -3.90723 4.73335 -5.30867
2639 1 -0.718016 -9.11102 19.1692 -0.180995 -0.290311 0.549575
2640 1 4.65292 13.5451 -19.1787 -0.487474 0.0406394 -4.01049
2641 1 23.3697 6.60405 -14.3936 5.64035 0.305184 -2.06411
2642 1 -6.34907 -19.0238 3.62439 -1.91404 1.23675 2.14958
2643 1 -1.77878 -14.689 -23.4526 -5.20137 1.869 -2.64534
2644 1 19.698 -19.399 -12.155 -1.5181 0.921545 -0.5381
2645 1 5.02748 -22.8094 15.9524 -0.0172372 1.31285 0.00675805
2646 1 -3.61066 10.0398 -3.20766 -1.24679 -1.54266 -1.22166
2647 1 -10.8478 5.2274 3.80076 4.83079 2.08135 3.1085
2648 1 17.1275 1.10307 3.35416 -2.3571 -2.27444 1.97763
2649 1 -18.0857 20.8196 -10.1833 -0.571106 0.875359 2.25968
2650 1 -3.69482 9.15524 14.8745 5.52841 1.32965 2.26986
2651 1 -16.9265 -18.9496 15.6384 -4.50143 3.87695 6.52072
2652 1 -20.9691 -5.7451 -14.5471 -0.110243 -1.40842 0.828084
2653 1 -8.1687 8.93842 -2.24541 -0.249791 0.611706 2.03473
2654 1 19.3051 -9.75643 -1.72572 -0.744498 -5.34283 5.07272
2655 1 -6.23598 -9.52755 1.1795 4.99323 -1.75293 -1.37539
2656 1 -4.3081 7.58589 -20.3315 4.34246 1.43009 0.526475
2657 1 -10.9581 -7.34154 7.38722 0.47888 -2.04413 -1.99087
2658 1 -5.42496 1.86117 17.2326 -2.76362 4.32465 -4.51612
2659 1 15.6495 -4.93804 -24.0536 0.193998 -0.870887 -1.03844
2660 1 -12.5627 22.5648 12.3757 -2.78423 -0.676072 0.18593
2661 1 7.54691 6.42821 23.2447 0.0102647 -2.89755 5.32848
2662 1 -22.9505 -23.4094 11.5204 2.3502 0.108478 -1.89061
2663 1 -8.35192 8.97142 23.1759 -0.281394 2.89325 0.261137
2664 1 -15.2398 16.9895 22.9541 0.911896 3.43782 -3.0191
2665 1 -21.9727 2.40386 2.06978 1.22286 -6.33435 -1.09332
2666 1 20.232 -21.9031 1.65199 -4.94911 1.45807 3.70449
2667 1 -8.50276 -5.17221 -4.96969 -5.9115 -0.672301 1.87994
2668 1 -8.14866 -18.182 -22.3866 0.206918 3.86838 -0.070395
2669 1 1.68384 -8.63702 17.4304 -0.342784 2.05797 -2.76857
2670 1 23.2937 22.8051 -17.9156 4.04208 -3.60566 2.43161
2671 1 11.5158 19.9152 21.3881 2.31821 2.64503 2.74647
2672 1 6.65838 -6.03786 8.99729 4.24276 -0.0520891 -0.928789
2673 1 -13.7258 -21.7906 -1.66702 -3.19196 -1.13621 -0.840371
2674 1 -8.6957 -21.2361 -1.23268 4.78177 4.22061 3.16978
2675 1 18.5674 4.60536 -10.2017 0.265821 1.59519 -4.95767
2676 1 21.0698 21.3249 -19.3932 1.00408 -2.89014 5.31233
2677 1 -0.817611 -23.6209 0.907897 1.06279 -2.4934 -4.47912
2678 1 4.45548 -18.6044 -15.0265 3.17018 1.38552 2.51179
2679 1 9.22493 -0.372005 1.90513 -1.91991 -0.325851 0.288835
2680 1 9.09141 -3.20739 -6.95447 -3.38795 -1.30279 1.74679
2681 1 -14.3857 -7.79287 -17.6028 -0.384846 1.37997 2.36712
2682 1 -21.4536 1.1783 13.6023 -1.6953 -0.657799 2.72968
2683 1 -16.7287 5.41675 -17.5801 0.2296 -5.26578 4.30428
2684 1 24.1507 -10.7541 3.70241 1.29033 3.20673 2.06444
2685 1 -2.09609 -8.60116 6.46345 -0.444931 -0.174732 3.04783
2686 1 5.87852 -22.4269 -17.6511 -0.194501 1.49272 5.9537
2687 1 20.5061 -15.5981 -13.2747 -0.0370177 -0.743787 -0.886074
2688 1 -17.5164 -2.63632 -0.662396 -2.72819 -4.40563 -2.53463
2689 1 -7.6728 -2.95277 -8.96469 -3.22801 1.11004 -0.564895
2690 1 -14.2138 -13.3952 -18.8826 0.135525 2.67574 -1.09207
2691 1 -20.0835 -22.724 20.735 -1.62603 0.430939 -1.62969
2692 1 3.85659 0.284942 -11.9701 4.48561 0.553005 -3.5007
2693 1 8.92651 18.7559 -19.2475 2.25351 5.89083 4.43707
2694 1 -4.67222 -11.9309 20.0209 2.96781 0.818497 2.72172
2695 1 15.3749 7.37352 12.6654 -1.91253 -2.41418 6.43547
2696 1 22.8214 -17.6285 23.4787 -0.0324567 0.5199 4.24487
2697 1 5.80516 -0.273041 -5.11907 0.639753 -2.40777 -1.17122
2698 1 14.9887 -12.9709 21.4589 2.13198 1.2359 1.69117
2699 1 -16.5123 14.279 -1.83226 -4.59741 -0.143129 -0.423573
2700 1 -8.70197 -20.5723 3.30818 -0.817273 -2.8081 2.37194
2701 1 -20.3152 23.5355 -0.276036 2.63369 -3.64569 0.65363
2702 1 -7.56094 17.7928 -19.5772 0.266483 -1.52424 -0.788327
2703 1 14.0114 -6.25089 -12.1083 1.7921 1.89314 4.27552
2704 1 1.67374 -23.9423 2.67399 -5.41276 3.174 -1.40914
2705 1 -3.15698 -5.64183 6.0955 -0.395442 -1.09307 -1.57184
2706 1 2.89449 -22.7536 23.234 -4.9502 -4.10361 -4.202
2707 1 -9.63269 -13.4224 1.21318 -0.887068 0.348165 2.47353
2708 1 -14.0581 1.3649 23.7758 3.48406 -3.75363 -0.675994
2709 1 20.1567 -3.92109 21.3444 3.53432 -5.06997 -1.43672
2710 1 -4.45191 15.873 17.095 3.57611 3.92298 0.901411
2711 1 -14.6558 -5.60575 -24.4712 1.39459 1.66594 -2.00493
2712 1 17.4499 13.2799 4.52643 -3.43454 -3.30742 -1.90092
2713 1 23.2591 2.72418 -7.49651 3.82123 2.34021 -1.45124
2714 1 -19.6065 4.575 -11.2962 -2.37389 -0.0557097 1.27247
2715 1 -12.3052 10.4452 20.907 0.454983 -4.21593 -2.89365
2716 1 16.6397 12.1415 1.61455 0.232496 3.82134 0.623875
2717 1 11.699 19.4011 10.1651 -0.0095685 2.46603 -3.57648
2718 1 11.3296 -15.3522 -23.6632 -3.0775 0.500436 -0.692595
2719 1 21.0692 -9.84316 3.16676 -2.19237 -0.964147 -0.137683
2720 1 -13.3906 -9.44754 -20.0203 -3.66265 3.59367 -4.18688
2721 1 4.31233 -12.0821 11.2703 1.08233 -0.304471 6.84379
2722 1 -10.6807 19.5193 -7.24906 4.44922 -1.98583 2.54723
2723 1 -5.19469 15.9961 14.1604 -1.84045 2.16958 0.140085
2724 1 -4.25483 4.88508 6.34904 -1.43063 0.294321 -0.155961
2725 1 -2.09087 8.56528 -18.5082 -2.52768 8.51074 3.21442
2726 1 -11.2727 -7.87537 -23.8092 -0.158688 -1.72949 -1.18236
2727 1 -14.2132 -18.683 -1.29379 1.58301 7.15868 -1.70697
2728 1 21.8706 -2.82795 12 0.330297 -2.47236 -2.68637
2729 1 -3.75384 -22.1904 -18.647 -3.92303 -0.759747 -0.139186
2730 1 -8.41623 -16.5321 10.0733 -1.20534 0.948434 1.60816
2731 1 -24.4361 23.0018 -8.20855 -1.77344 -2.21796 -0.274976
2732 1 2.00084 1.56352 5.85817 -2.10298 1.56105 2.62904
2733 1 -7.80805 8.76642 -18.4982 -1.33626 -0.193059 -3.53549
2734 1 17.7916 -9.83192 20.4887 0.076817 -0.514216 -3.26921
2735 1 -4.42455 7.58468 -15.6949 1.2202 -1.24261 1.98839
2736 1 18.086 14.7854 22.4827 -0.644016 -0.979027 -4.58488
2737 1 -21.091 -17.3326 0.616368 2.13704 -0.0408321 -2.51224
2738 1 -6.16469 9.08812 13.6653 -0.777525 -0.956477 1.08229
2739 1 -13.2165 -7.53834 20.4155 -0.207531 4.5741 0.886049
2740 1 -12.9782 -14.435 -21.2186 -2.7534 -0.597664 -0.784217
2741 1 -7.88269 7.23066 2.47651 2.74581 0.740344 2.66656
2742 1 -15.1195 13.3209 4.84079 3.28373 -2.80319 2.23717
2743 1 0.332723 -19.1605 -7.08401 -0.738388 -1.23116 3.54668
2744 1 -16.1499 -18.2716 -21.3461 -0.578755 3.44841 3.00431
2745 1 -10.8282 20.882 2.2175 -1.40759 2.98433 1.90561
2746 1 4.90306 -11.8847 -4.45945 -6.90562 -0.585215 -2.02185
2747 1 -0.362343 2.59356 14.783 -1.10543 -2.23008 -3.01691
2748 1 -5.82168 -1.44939 -10.8569 1.86049 -0.138197 -2.10089
2749 1 -13.4656 -7.95145 23.1512 5.28312 5.08124 3.15217
2750 1 -14.0094 23.3765 -21.3334 0.864727 2.15212 7.17315
2751 1 8.06389 -24.2411 7.99782 1.66089 2.24265 -2.13597
2752 1 -9.55255 18.9881 -9.91162 4.8723 5.90027 3.21111
2753 1 -0.812443 -6.75813 12.6208 -4.48424 1.18436 3.19023
2754 1 -12.5439 24.2358 -0.493879 2.97416 -3.86918 -1.14002
2755 1 1.67952 -13.8049 17.0734 -3.55673 -0.214329 -1.67466
2756 1 23.1453 11.6147 19.8073 -2.06258 0.7364 -1.75403
2757 1 17.6754 -17.1303 19.858 -5.02445 -2.03137 2.32408
2758 1 -20.9842 -15.2855 -9.43718 1.57756 2.70842 -3.74665
2759 1 -18.015 -15.5013 7.56235 0.282307 -4.20117 -2.28905
2760 1 0.0276967 12.4519 -18.168 2.28285 0.409651 1.32377
2761 1 -5.95514 -14.3741 18.8761 -4.74703 0.245411 1.71123
2762 1 -10.4938 8.91913 9.20564 2.15961 -2.44348 -5.60858
2763 1 -5.60248 -11.78 17.0793 -2.48965 -3.72118 -2.93775
2764 1 9.35815 21.5718 -13.8727 2.57316 -1.83109 -4.97466
2765 1 7.92771 -16.1651 -19.5899 -0.607806 0.715122 6.13359
2766 1 10.04 7.97386 17.4271 -3.18616 -2.15909 -0.153425
2767 1 -13.2399 -18.9395 -21.7938 3.81002 4.45506 0.14526
2768 1 -5.1239 24.0207 -0.385299 -2.5925 0.0981722 -1.61954
2769 1 -16.0987 15.5723 15.8729 3.60632 2.76687 -5.2592
2770 1 22.6241 10.1833 3.45073 -1.86935 2.39106 0.474733
2771 1 -18.2108 -14.3329 -17.5143 7.6081 -5.87446 1.55237
2772 1 -14.3208 17.2205 -19.6457 -2.06077 -3.19895 -2.33064
2773 1 9.33478 23.7332 5.11978 -1.24762 4.9923 -8.99628
2774 1 22.724 1.20835 -17.0209 -1.56721 -4.29731 -6.93159
2775 1 -3.10786 -18.9374 14.8696 -5.16399 -2.13958 -0.711982
2776 1 9.62743 7.72221 -7.11596 -3.09139 -3.81157 4.88232
2777 1 -13.5321 15.3133 4.07417 7.53136 -2.79476 1.84803
2778 1 -21.5175 16.8962 20.0528 1.24616 0.739283 -3.52494
2779 1 21.7275 13.8033 18.2788 4.72005 0.267868 -2.06456
2780 1 -12.7196 -0.596805 -5.62163 -0.591111 1.10008 2.43118
2781 1 13.8427 22.5081 11.6406 1.30441 1.16487 3.03931
2782 1 7.82005 -10.1835 13.5329 -4.33337 4.7296 -5.36927
2783 1 11.4247 -9.14215 -14.15 1.60935 1.65584 0.340825
2784 1 -11.2377 1.3938 -0.549284 3.06483 -0.993867 -1.92492
2785 1 21.9622 -3.02038 -14.0554 0.836896 3.43706 -0.595028
2786 1 5.99852 -4.16091 2.81756 0.24163 2.4283 2.81266
2787 1 -14.5385 13.6474 0.282154 -2.90496 1.58132 -4.80426
2788 1 -20.625 14.5336 12.831 1.228 -2.2556 1.28547
2789 1 9.44794 -5.60109 -5.12018 -2.90979 1.28065 -1.18121
2790 1 -7.41881 -5.24822 -14.6822 -2.13993 -0.54414 -1.08679
2791 1 21.986 14.5765 -5.83092 -0.501216 2.5327 0.875694
2792 1 -7.80866 -5.44072 3.31647 0.670495 -0.16494 -5.53943
2793 1 -2.13652 1.544 6.68368 1.77511 -4.40847 -3.86529
2794 1 6.555 17.8429 -8.38776 -1.66965 -1.42931 3.49193
2795 1 20.9575 14.5422 -19.8843 -0.455782 0.643176 0.498137
2796 1 17.8146 -15.1099 13.3741 -0.525591 3.94415 3.99272
2797 1 18.5161 -11.1931 -23.9727 2.45991 -3.71209 4.75823
2798 1 -21.539 -0.400174 -4.91645 2.53194 -1.49628 -0.720821
2799 1 -0.864192 -16.7723 -6.32574 3.93176 -4.29877 3.81031
2800 1 -12.4253 -14.7975 -17.1994 -1.92335 -2.78393 2.71791
2801 1 2.40658 17.3213 7.03637 3.29387 3.17596 -0.648922
2802 1 7.59917 11.0044 -10.9872 1.88397 1.98779 1.03956
2803 1 23.3754 -4.9751 -15.3848 2.66772 -9.49616 -0.880167
2804 1 -17.8151 14.8801 -10.3211 2.16095 0.326888 -3.63281
2805 1 -15.3572 7.14211 -10.3929 5.52887 -0.918557 -4.84036
2806 1 -4.02782 18.7769 -16.9181 1.7753 -0.14585 2.43908
2807 1 -20.5776 17.1575 -1.34835 1.28486 -0.97892 1.94879
2808 1 4.75949 -23.8605 -10.4956 -0.431835 2.00302 1.13156
2809 1 -11.3726 15.9624 16.3321 5.98704 3.38212 0.0146171
2810 1 6.57859 22.6937 -13.6094 -0.724588 3.61112 -3.79506
2811 1 -13.6245 11.1625 3.92535 1.07752 0.90648 -2.21501
2812 1 -9.60456 -1.35814 22.3511 1.22731 1.57148 -0.642558
2813 1 0.492997 -9.71668 -17.4792 3.75823 2.95771 0.119516
2814 1 22.3114 -4.71872 -5.94954 0.463576 -3.12436 -3.34704
2815 1 23.6108 8.20762 7.46044 0.027135 -3.9731 -5.92508
2816 1 3.13436 -15.6773 19.4221 -2.86541 3.33669 -2.81276
2817 1 5.41114 -16.2749 -23.4388 3.66337 2.45904 -3.35101
2818 1 0.554932 -3.21436 2.48965 3.60083 3.32828 1.55243
2819 1 18.3517 11.989 15.9313 5.04217 -4.14481 -3.15726
2820 1 -16.0817 20.7047 8.41689 5.42914 -1.71607 -7.91442
2821 1 18.4147 -9.56721 -12.5105 1.29536 1.23219 0.608314
2822 1 -15.1197 -3.02593 4.35215 1.10479 8.11294 1.49094
2823 1 12.4581 -14.8155 4.63066 -1.55046 1.52032 -1.77478
2824 1 8.47107 13.5589 15.9168 -2.1471 -0.95961 -1.80008
2825 1 14.9945 18.2706 -10.5667 0.882956 3.03407 0.904349
2826 1 8.49051 -19.4893 -1.42336 -0.315389 0.0180599 1.79947
2827 1 4.82957 -10.2767 22.0058 0.850654 3.73627 2.61433
2828 1 2.46891 -4.8529 -18.1898 2.52226 1.30847 -0.805751
2829 1 18.2888 -21.2878 8.70553 1.3208 4.11853 3.88777
2830 1 -22.2027 6.35686 0.555807 0.867184 -4.07209 0.785868
2831 1 18.3508 5.26068 -13.0908 6.40632 -0.997499 -1.64218
2832 1 -23.5925 -18.1678 -7.63631 -4.04843 4.97309 -4.67135
2833 1 -22.1948 1.51105 6.79695 1.32079 -0.298755 -2.52154
2834 1 -9.25514 -16.5803 21.9861 5.16133 3.04177 -1.58979
2835 1 -5.43622 5.3016 -0.427696 -1.29842 2.21902 4.17918
2836 1 -12.4426 17.6735 -5.57493 -0.848115 2.4654 2.7002
2837 1 -16.5164 10.8247 -8.67098 1.7465 3.38367 -3.67776
2838 1 17.7409 -12.1751 22.1826 1.27443 -3.94452 2.53831
2839 1 -17.8156 -3.28539 -22.1524 0.440497 1.19208 4.73005
2840 1 4.31287 -19.9005 -22.8122 1.7686 0.413412 -1.22699
2841 1 17.9312 -16.8083 -4.11674 3.65256 1.66167 -4.52751
2842 1 -3.76818 -12.5435 -10.3806 1.36048 0.422807 0.722426
2843 1 15.4342 3.5828 -22.1731 -2.45458 0.547519 4.31474
2844 1 21.7711 16.6724 8.00112 -0.572882 1.30449 -1.28776
2845 1 19.3631 3.94065 -20.63 -4.16111 -5.13087 -2.1086
2846 1 -22.8514 0.652338 4.10387 1.65838 -1.09275 -3.2276
2847 1 7.40643 14.3407 0.3991 -5.27623 -4.90275 2.2954
2848 1 -17.0511 -23.8341 -9.82805 4.94491 -1.75786 -6.02187
2849 1 -23.4792 -23.8162 14.0773 4.28624 5.09067 -2.91008
2850 1 1.15724 5.03957 -9.58138 -1.35483 2.14414 -2.78892
2851 1 -5.73817 21.8839 18.2142 3.09762 -1.24614 3.76172
2852 1 2.76005 -5.43811 -0.225019 1.7026 2.88938 0.978668
2853 1 -3.1537 23.1436 20.8839 -1.31127 3.479 1.85202
2854 1 5.9494 -6.94943 -6.9709 2.39895 -1.25609 1.70693
2855 1 -17.7503 -6.42756 -19.8217 1.30587 -1.87663 4.94436
2856 1 16.2811 -16.08 -0.603366 0.234325 0.690676 3.83979
2857 1 18.8023 10.1472 10.1079 1.19526 4.06179 -6.96641
2858 1 11.1895 -1.3771 -20.9724 -2.75441 1.10628 -2.42187
2859 1 -23.8259 -22.5072 -18.5937 -0.0648282 2.13502 2.05685
2860 1 -21.7182 6.2799 19.3516 -0.684061 -0.436616 0.387147
2861 1 13.8833 11.0593 22.4145 -0.347161 2.37717 -1.0109
2862 1 11.8823 -2.53551 -16.1917 0.566249 -2.07615 3.82285
2863 1 20.7321 -17.4583 -18.7066 2.85761 4.19076 2.05968
2864 1 -15.0189 11.4458 15.7865 -4.40893 -1.10384 -1.59386
2865 1 4.78452 11.2558 0.699739 1.90721 -0.752248 2.35789
2866 1 -18.3386 23.0514 -7.48934 -1.9505 3.27609 -1.15478
2867 1 -16.9205 16.382 -14.3225 2.73421 -1.24683 -4.56517
2868 1 2.41551 -24.8086 21.0758 -2.06546 -3.70663 -0.401878
2869 1 -20.2779 -17.4092 17.6414 -2.92582 6.12243 4.07378
2870 1 -12.5066 16.3049 -10.5558 -2.32441 -2.63754 -2.35826
2871 1 -14.5035 19.2423 24.2157 -1.67357 0.340093 2.92362
2872 1 6.66121 8.60801 8.75213 -4.58633 1.94245 3.25834
2873 1 -10.712 -1.92883 4.46828 1.18362 -4.52877 0.0923108
2874 1 0.409967 -10.3215 -11.9393 3.4165 -3.86949 0.339337
2875 1 21.7437 -4.25965 -8.6566 -3.88094 -0.70724 1.78905
2876 1 20.5594 -22.4643 -22.6622 -1.53089 1.51104 1.79764
2877 1 11.1856 -5.65598 4.10657 1.16402 4.81654 -2.60517
2878 1 -17.8442 22.3354 -13.8089 1.87504 -1.35202 -0.331928
2879 1 1.54074 17.8316 4.28098 2.31043 -1.42759 -0.853895
2880 1 -1.0604 -0.215547 15.027 -4.47976 -4.61863 1.74795
2881 1 -16.1709 15.0077 -20.3793 0.846584 0.493526 -0.344881
2882 1 -21.3491 -16.4108 22.2797 -2.19249 2.37419 3.7376
2883 1 11.7534 -14.6707 0.764297 2.69822 1.92667 2.45258
2884 1 8.85248 -7.37545 24.0841 1.40846 0.357935 -5.57775
2885 1 -7.42219 2.40594 -6.79636 -2.55572 0.380086 2.61942
2886 1 11.5302 23.2969 1.34122 2.41963 -3.51442 1.12656
2887 1 -24.8286 18.2602 21.1773 -3.88461 1.47522 1.8731
2888 1 -10.9501 4.03415 -22.3715 -0.909159 -2.12755 -0.29857
2889 1 4.70197 -2.81347 9.05285 -3.31122 -0.0521125 -0.277473
2890 1 -2.68983 -6.97021 -23.0538 -1.23767 -0.565281 1.13264
2891 1 7.47769 -4.5297 15.3459 -0.83934 0.839242 -0.801928
2892 1 23.3163 19.2545 -11.5821 0.16541 1.40523 -3.82749
2893 1 -11.5649 -15.8649 23.8253 -2.68766 -3.69282 2.66137
2894 1 -7.32549 6.25838 16.8154 -1.12212 1.44067 -0.366866
2895 1 -18.573 19.307 19.9909 2.65698 0.772674 -3.25317
2896 1 -12.8957 4.47237 18.7713 -0.64356 -2.60128 2.21998
2897 1 -2.83891 15.1962 -1.40202 -1.97208 2.60758 -3.78957
2898 1 -8.95456 -9.16804 -20.8702 -2.06224 1.66978 0.217704
2899 1 -5.17614 -21.0574 19.921 3.10196 1.41061 -5.49566
2900 1 15.4124 1.45695 -24.1358 2.91387 1.17625 2.27918
2901 1 -12.4525 -17.4923 -17.4529 -2.21575 3.00409 0.0850294
2902 1 -21.3403 1.18133 -22.2325 8.50327 -1.7583 3.19748
2903 1 -15.6457 -13.446 4.44477 -1.46909 -4.24033 3.61271
2904 1 -5.85207 12.6903 -1.98719 1.31151 3.29933 1.01258
2905 1 -17.3968 21.799 20.9379 1.72985 -1.8422 -3.15331
2906 1 13.0243 3.20705 18.683 0.785154 -2.48849 -1.59953
2907 1 -16.0415 21.3613 -6.27621 2.20948 4.86212 -0.68172
2908 1 1.01293 10.7366 17.4954 -1.51788 -1.92307 -3.35698
2909 1 -10.217 -4.96816 -23.2852 -0.157128 -0.626027 1.34151
2910 1 -13.9947 7.32419 18.3033 -2.2573 -4.07536 2.05887
2911 1 1.29933 3.49955 -19.9578 -7.70804 2.1542 4.09152
2912 1 10.5983 -15.5875 -7.11726 4.64477 -1.0132 0.527475
2913 1 16.6133 6.00909 -3.22707 -1.74616 -2.47292 -2.56111
2914 1 0.618712 -0.867917 12.7988 -2.42582 -6.97458 -0.438752
2915 1 -14.7179 -11.5818 -23.5863 -1.02107 3.78055 4.23797
2916 1 18.1327 19.9336 -7.86719 -0.566303 0.305626 -0.629744
2917 1 -7.83877 7.22646 5.3274 2.56142 -0.635668 -1.29338
2918 1 21.107 6.72579 -6.16057 1.57547 1.15395 1.02646
2919 1 23.2488 -15.0273 -4.3139 2.31792 0.628888 -0.229687
2920 1 22.9872 13.5178 6.84301 -0.683024 -0.487709 1.41221
2921 1 -18.0218 19.9653 10.4173 5.15659 -0.964182 -4.94726
2922 1 -16.5859 -20.804 -24.5437 1.25583 2.61893 1.2195
2923 1 -13.6123 0.138897 19.3621 -4.18561 1.72443 1.27877
2924 1 -0.655176 -16.639 23.8122 -1.20931 -2.68041 -1.83389
2925 1 19.3117 -7.62508 13.3639 0.381756 -3.46885 -1.03914
2926 1 -7.88386 7.90761 -12.9775 -1.06035 1.00652 -1.60517
2927 1 12.7294 5.59967 1.30377 4.09096 2.99487 -1.82195
2928 1 -22.895 -23.5352 -9.07303 -1.10202 -4.42345 2.65827
2929 1 6.02885 -13.0981 7.46529 1.74976 -1.77659 1.06981
2930 1 -20.2034 4.95923 -0.955866 1.97556 -3.10597 -1.19653
2931 1 1.09538 -8.57576 22.9586 -3.28725 1.6758 -3.80796
2932 1 8.9044 18.2743 18.5495 -3.5599 2.05931 -0.974755
2933 1 22.6385 -5.73356 11.5762 -5.63352 0.0765218 -1.27011
2934 1 9.28579 2.28322 -21.3324 -0.262877 3.73609 6.01398
2935 1 8.39719 23.5991 -0.234302 -3.36154 -1.83945 -1.24053
2936 1 23.2198 8.59003 -6.46311 -1.13735 -0.577791 1.86812
2937 1 -16.7754 4.58202 -14.6998 0.175528 0.931462 -6.78144
2938 1 -7.44183 -6.41091 -2.50833 -1.33342 0.866217 -1.92789
2939 1 -11.535 18.8503 4.11039 -0.773568 -0.412917 -3.1324
2940 1 14.9837 17.2782 -0.809939 -3.34801 1.73645 0.0115175
2941 1 -5.78995 2.96922 -10.0848 3.91547 -0.451603 1.73198
2942 1 -21.5757 12.4742 21.5802 2.76881 2.87207 -4.43588
2943 1 23.8792 7.56009 10.2157 1.37474 -4.05499 -1.00318
2944 1 7.18783 -22.5154 14.4019 -1.64286 1.5636 0.334285
2945 1 -7.20159 10.0312 -9.54158 6.15785 -0.168463 4.09315
2946 1 11.5147 -0.123981 12.5266 2.42462 -1.40307 3.50841
2947 1 18.9604 -14.1527 -23.1032 -0.0627324 0.866078 -0.900202
2948 1 0.842276 -21.536 -0.387442 -1.38527 -4.00023 0.518418
2949 1 -10.569 -20.1636 -24.0877 -5.08897 -4.19793 -1.00561
2950 1 -20.1638 15.8511 4.97761 -2.07965 -1.13164 -2.63713
2951 1 12.3063 -17.0383 -11.1321 2.42423 -2.31201 3.49096
2952 1 -11.9811 21.6307 -22.3724 2.33949 1.66948 0.462183
2953 1 15.2036 4.18374 1.71554 2.60574 1.92056 2.20765
2954 1 -15.4305 -2.55938 9.38756 -0.603132 -0.213349 -2.00908
2955 1 10.3878 -10.0504 16.7906 -3.63031 2.75732 -0.921105
2956 1 -14.1102 18.8236 -2.42797 2.13288 -3.75871 0.105328
2957 1 1.12306 -18.4344 14.9731 1.05356 -4.12856 -2.07541
2958 1 7.90466 -8.6454 -11.8555 2.23836 0.560179 -3.72826
2959 1 -17.4143 17.0741 -21.6797 -1.00113 1.0495 1.95979
2960 1 -12.8425 -1.42859 -22.6797 2.71369 0.183407 -3.4322
2961 1 -12.4652 -11.7826 -22.0253 0.762021 3.5231 1.18155
2962 1 -8.29187 -1.69606 -16.2504 -0.955757 5.36283 0.929825
2963 1 -24.1252 11.2544 -5.3826 -3.9019 3.78782 -0.69525
2964 1 -0.182176 -19.3161 -21.504 -2.35233 -4.23844 3.89637
2965 1 19.0497 -1.76895 -14.0796 4.73181 1.34273 3.0724
2966 1 -3.17491 -22.9634 18.2302 1.90648 -0.905793 -2.54962
2967 1 1.05323 9.53016 9.55946 -0.171401 -4.27779 -5.40029
2968 1 -3.77381 -12.6369 1.25587 -0.991708 0.232183 2.61169
2969 1 -3.93787 -1.77036 17.4282 -1.31008 3.35614 1.66895
2970 1 19.461 -12.5883 -14.122 0.386128 -7.65313 3.9779
2971 1 -2.24366 19.7835 10.5774 4.88334 1.21704 -1.94606
2972 1 -9.08994 8.17737 -8.90154 0.976393 4.59547 -5.82349
2973 1 -11.6707 15.0786 20.9045 1.92524 1.59062 0.948244
2974 1 23.5002 0.0605 19.6804 0.709153 -4.31628 -0.494142
2975 1 17.9849 10.1881 -1.44939 1.62726 3.69733 -4.28064
2976 1 -19.4647 20.12 -14.6991 1.85098 -2.85567 -0.889881
2977 1 3.77733 -9.91966 -2.35308 1.71724 -2.0748 -1.29722
2978 1 13.0186 19.2018 -17.0071 -2.28458 2.84106 -2.11488
2979 1 7.30655 5.63914 16.5722 0.893724 0.0445228 0.999537
2980 1 -2.3192 12.0666 0.634572 7.95552 -1.29051 1.96789
2981 1 -12.1759 8.8986 16.4481 -1.06176 2.53312 3.68002
2982 1 -13.3002 -6.32651 6.17927 0.0155802 -0.906179 -1.4112
2983 1 -7.78426 13.7911 -24.014 1.43154 -4.27849 -4.27813
2984 1 -0.379743 -0.828083 23.1815 -5.75996 0.87054 3.43228
2985 1 -13.1248 -12.883 12.0048 -5.91209 -3.33958 -1.31413
2986 1 -6.38959 18.1787 -21.9338 -0.117836 3.98204 0.328357
2987 1 -22.2142 -22.1071 -6.61299 -2.05813 -0.486991 0.888054
2988 1 1.03529 -23.0811 -5.38927 -4.73295 0.376515 -0.783521
2989 1 21.6024 17.9719 -13.4079 0.998547 -3.2792 -7.75206
2990 1 11.9964 -18.9328 16.1862 -0.0953169 0.0444331 7.57821
2991 1 2.4409 1.57634 10.1822 -5.38434 -0.553303 6.05949
2992 1 22.1437 11.6475 -10.8612 0.577549 0.216529 -2.01857
2993 1 23.4968 16.9584 17.2165 3.85315 1.49298 -3.05998
2994 1 17.86 2.40646 13.2202 0.344034 1.04534 0.198462
2995 1 -2.98462 11.0398 -5.95922 1.71691 -1.91058 1.17895
2996 1 13.2765 5.61237 5.91075 2.06002 3.72442 -0.167508
2997 1 -6.79111 -17.6746 6.32245 -2.30105 1.16271 3.40801
2998 1 3.05221 -15.4267 15.0574 -4.52669 2.87956 0.0661904
2999 1 12.4002 -19.0201 -1.79296 -2.84407 -2.85195 -2.79314
3000 1 -2.29774 12.5793 16.2787 3.13386 -0.345195 -1.4019
3001 1 11.8644 12.7437 9.95007 -1.73205 2.64892 -0.264432
3002 1 -20.4496 16.4261 17.4326 1.73282 0.908094 -1.09064
3003 1 16.5323 11.808 11.0221 -5.55406 1.79937 0.239703
3004 1 17.6202 18.5668 -17.2777 -0.494844 2.68307 -3.01078
3005 1 3.19832 3.97813 -7.62087 -5.4512 -1.41313 1.65255
3006 1 21.3002 9.18303 -20.4905 3.0283 -1.79971 3.24729
3007 1 -6.18271 -20.5768 -23.129 -4.58541 -1.42921 2.17138
3008 1 -3.59479 -19.8953 23.941 1.85903 1.96794 -4.12887
3009 1 -15.652 -21.8659 9.95859 -6.73882 -3.27998 1.91944
3010 1 -16.5404 -19.1614 -15.0462 -1.5176 5.28417 1.7982
3011 1 -8.50451 -2.31953 -11.7733 0.883031 1.15211 -0.923604
3012 1 1.58807 -22.6738 -18.3627 1.33381 6.07386 4.24979
3013 1 12.032 -18.6826 21.2906 0.127413 0.270708 -2.14774
3014 1 -24.2734 11.4205 22.492 0.429488 -2.11883 4.52076
3015 1 -4.48606 10.9805 8.1197 2.13202 0.485869 -0.16496
3016 1 19.5162 -12.4239 -20.7654 3.25931 2.20418 0.606177
3017 1 -13.8039 6.35165 23.3777 3.46056 -0.265649 3.60358
3018 1 -22.0393 -1.21812 -13.7698 3.05323 2.27615 1.53682
3019 1 -21.7357 -20.5893 11.4929 4.83548 0.581425 3.82206
3020 1 -14.1818 -10.5638 7.63629 1.49505 -7.67053 -6.28662
3021 1 -17.84 23.2962 -1.867 -1.29895 -0.712409 1.29488
3022 1 15.6175 -11.9039 1.08914 1.59204 2.45255 -0.131905
3023 1 3.91787 17.5138 -3.93825 -0.756897 4.02673 -1.05028
3024 1 23.4572 5.64391 2.16447 -0.848157 0.512098 -2.76663
3025 1 4.83365 -22.7465 9.36421 -0.667998 -2.91065 3.42254
3026 1 0.763461 -21.361 7.50206 -5.11099 -1.5798 -4.40034
3027 1 13.7793 2.92428 11.1839 2.4626 -2.65618 2.90422
3028 1 -14.6224 11.6857 19.937 -2.77072 0.48391 -0.502666
3029 1 6.6787 3.15178 13.2281 -1.02058 1.86945 0.375561
3030 1 -16.0321 20.7853 -12.3572 -2.91995 -0.98445 -6.08029
3031 1 -24.2945 -8.81054 -19.7701 0.0248711 0.648637 -1.05194
3032 1 17.978 -9.28624 -6.15497 0.345383 2.39153 5.29919
3033 1 -11.6419 3.46706 6.15364 -2.20069 -4.2415 -0.723784
3034 1 -11.538 -7.44876 -16.8937 2.42943 1.59548 -3.55908
3035 1 19.9374 16.1679 5.89187 -0.313734 -0.00578126 -0.529638
3036 1 12.6096 17.4751 21.3413 -0.717831 0.942278 1.52696
3037 1 -3.82035 -10.6104 7.66417 0.421113 0.686918 0.602597
3038 1 -17.5271 -23.1591 -17.4883 1.86654 -4.50816 1.7932
3039 1 16.4309 -20.7277 19.1725 2.57268 4.62068 -0.749613
3040 1 5.46509 -18.8097 13.6901 -0.518129 -0.147222 -1.24673
3041 1 -20.6485 19.9274 -0.334207 -2.23371 1.59247 -0.548181
3042 1 -8.0725 19.569 14.3395 2.63797 2.44809 -1.9036
3043 1 5.84411 -11.6778 -17.8276 5.58594 2.69567 2.101
3044 1 -5.04136 14.8999 -4.98358 0.403517 -3.50364 4.5246
3045 1 -0.400376 -4.83793 6.23212 0.707848 -4.40717 -0.213956
3046 1 17.2908 -9.48267 -18.2365 -7.83572 2.54271 4.49583
3047 1 7.34853 19.5033 4.75669 -3.53595 -0.806229 1.08356
3048 1 5.68373 -12.4814 19.4027 0.374 -3.49832 -3.67706
3049 1 -11.4101 -20.3643 -14.5197 -0.538796 -0.0371582 2.82817
3050 1 1.49067 -23.202 17.828 0.350782 -2.50787 0.787586
3051 1 -17.1066 0.481697 -12.2199 -0.825341 -0.496344 -3.89378
3052 1 -21.3492 14.4575 -13.8349 1.9072 2.1365 0.134424
3053 1 20.4032 -21.2946 -1.09598 0.5636 -3.39461 -5.86543
3054 1 21.8495 -2.50996 23.6598 -1.08908 2.12103 4.42486
3055 1 19.5348 2.71369 4.49325 3.64686 -0.462926 -0.302165
3056 1 -23.2801 13.6136 14.9351 -2.17105 -0.254571 -0.497453
3057 1 18.0285 5.53957 23.324 -2.89286 1.39202 2.65321
3058 1 12.1085 -6.2094 9.13545 -1.30481 -0.261031 -1.53899
3059 1 -10.7867 -22.7256 -4.88568 3.85576 3.20894 0.484016
3060 1 -21.3861 21.6566 -4.96706 -2.34047 -3.58554 3.43331
3061 1 -9.31165 22.9051 -16.7793 -9.52836 4.57161 0.689846
3062 1 -9.40376 15.8245 -16.7 5.42028 3.36386 1.40493
3063 1 10.9198 24.1406 -14.0745 -3.34881 3.61551 2.37544
3064 1 -2.85825 10.9467 -20.0121 3.49305 0.813614 -2.51157
3065 1 5.77056 -12.3497 -11.8298 -0.662193 -0.541337 4.07587
3066 1 21.7644 -0.556953 1.296 1.97329 -1.71036 -3.94973
3067 1 17.1967 17.1455 -13.1258 -5.92855 2.87015 1.34121
3068 1 21.2664 16.4962 -1.747 -0.961286 -0.671928 -1.05261
3069 1 7.6134 -7.79263 -4.74234 -1.2326 -0.296805 2.07733
3070 1 22.4918 -6.60941 1.37826 1.73533 -0.797003 0.372774
3071 1 -3.50161 -3.62325 -6.4768 0.798188 -3.47568 3.36334
3072 1 2.70157 8.5133 21.7297 -0.71399 1.20575 0.776674
3073 1 2.32156 22.8368 -2.02724 -3.22206 2.29416 -3.72
3074 1 -9.38866 -9.3112 8.90975 -0.0979223 0.331793 -1.62391
3075 1 20.3558 8.60313 -23.287 -4.38277 4.19358 0.200404
3076 1 -10.6607 19.1251 10.407 -5.22323 3.00383 4.12539
3077 1 -14.1072 -22.6149 -7.45326 -0.881669 0.272914 -2.4555
3078 1 -21.3506 6.32401 -15.9865 0.208742 1.44292 -1.11591
3079 1 11.8431 -3.2196 -3.90736 -1.47391 0.588606 -2.74271
3080 1 -21.0419 11.4392 -7.55908 6.06246 3.11378 -1.30993
3081 1 -18.6518 6.92874 7.74373 1.10468 4.57469 -4.68092
3082 1 -1.85883 2.39124 24.3275 -5.18812 4.09498 -4.34552
3083 1 6.9003 -13.9014 -8.0423 0.912884 -2.1284 2.7855
3084 1 -16.8214 -23.5655 7.9565 0.530789 -3.61023 5.07778
3085 1 -15.9319 -3.27135 -6.76017 4.37299 -0.355126 5.18061
3086 1 15.1977 20.8505 2.12191 -0.0434524 1.11571 1.86203
3087 1 -8.64834 -21.9021 11.6034 1.70495 0.30712 0.0736462
3088 1 9.55634 3.48509 16.9398 -0.40277 6.14518 -4.55781
3089 1 8.06723 -19.9443 13.1983 0.0636179 1.48526 -1.80879
3090 1 15.7881 -2.38197 -5.00731 -3.14588 1.20738 1.94291
3091 1 -2.84081 0.205498 22.8075 -2.14227 -1.60256 1.97553
3092 1 -8.75911 -8.1119 20.6715 -1.64486 3.31911 2.18633
3093 1 -12.8667 4.9109 -20.4873 1.0609 -1.9098 3.37747
3094 1 14.422 6.7097 20.9144 -1.22096 -2.06632 0.331083
3095 1 -16.0949 -12.5778 -2.22435 0.756738 0.318313 7.92024
3096 1 5.03264 5.55242 -21.8673 -0.757919 4.12466 -2.35559
3097 1 -7.28711 -11.8057 -19.8807 0.379523 0.32563 -3.26019
3098 1 -10.8151 -18.8018 4.49392 2.67616 7.2436 -4.68085
3099 1 -20.5444 7.08087 23.8462 -0.412822 -1.99182 1.0174
3100 1 17.6678 -8.9429 -21.3772 2.32089 -2.26287 3.42295
3101 1 23.1332 -14.3119 -20.1629 -0.630207 2.38045 4.33568
3102 1 4.52057 3.5971 23.0589 2.96769 2.65957 -0.584135
3103 1 -6.063 -12.7285 -23.7836 2.77903 2.26577 1.95664
3104 1 -20.2314 -6.70126 6.93742 -2.42362 -2.20903 0.0369134
3105 1 -24.3401 -6.1987 20.5498 -1.28222 -1.91284 3.11277
3106 1 1.44334 -11.6713 -5.96546 -0.116789 1.65534 -0.112668
3107 1 20.4317 -15.2696 22.5842 0.669193 -3.08641 -1.7294
3108 1 8.50522 -16.6768 -5.1529 -1.23914 0.52743 -1.23681
3109 1 2.85525 -0.319629 1.51315 -0.445395 -1.48856 0.369
3110 1 6.21196 6.77349 1.98033 -0.670806 1.01918 3.66892
3111 1 9.99094 -19.5339 -16.4052 -3.03585 -0.463176 -6.42276
3112 1 -0.390054 -13.415 -21.1462 4.33138 4.06895 -2.80206
3113 1 8.9207 -11.9905 -17.6929 0.464912 0.548011 -3.97794
3114 1 3.5984 5.3643 -15.9784 3.38486 -1.43202 3.04464
3115 1 -17.6414 18.4148 -16.1106 -1.74321 1.4664 -2.46722
3116 1 -11.0419 15.7549 -0.640772 4.19499 -1.59354 1.05766
3117 1 15.2678 -11.3884 -3.19992 0.301725 -1.41927 -1.15679
3118 1 3.85478 5.82486 5.98499 -2.91856 -2.58395 -0.89393
3119 1 -9.00742 -9.2765 3.76793 3.23305 -2.46785 1.69099
3120 1 -11.676 -5.43769 -19.1447 5.14508 0.279579 1.19943
3121 1 -2.27885 -21.6017 15.8229 3.12098 1.87443 -1.81677
3122 1 -13.4063 23.0509 21.5745 -1.32232 2.61916 -3.09579
3123 1 15.4769 13.8176 12.8801 7.60801 -4.51083 -5.30478
3124 1 -13.3213 11.1624 -6.29378 -1.97619 1.00553 3.49855
3125 1 -1.8683 -15.2088 -1.90853 3.30738 -1.08723 1.25438
3126 1 1.57461 7.47172 -8.00577 0.330361 2.5562 1.48361
3127 1 16.693 6.16272 3.72469 2.03566 -6.2225 -1.58976
3128 1 2.27095 9.29487 -16.0465 0.49662 1.54045 0.645591
3129 1 -2.31648 -10.7972 10.509 -2.99023 2.59331 2.77765
3130 1 22.8028 -9.46778 10.1605 -1.1793 -0.619674 1.01542
3131 1 -9.50437 13.2717 1.16693 -0.561286 -1.79687 -2.47384
3132 1 2.01894 9.27563 3.72675 3.01882 2.45962 -3.94333
3133 1 -1.78252 14.2233 -11.4985 0.701663 0.727831 -0.109757
3134 1 21.4829 6.88383 -1.90425 -4.80714 2.0158 -5.31539
3135 1 -19.208 -12.2208 -4.69026 3.08069 -0.198038 -2.71079
3136 1 -18.614 -21.4842 6.74873 0.683869 -4.54424 -5.92214
3137 1 6.21657 -5.994 -17.8946 -1.57284 1.66325 -0.974534
3138 1 19.5404 -4.19995 24.272 -0.414945 1.25618 1.29417
3139 1 5.9547 10.3137 -13.5109 9.11355 2.11884 -0.942955
3140 1 0.121491 16.3328 -19.8212 2.14166 -2.91177 2.1014
3141 1 11.0952 -1.51212 -8.29837 -2.13717 -3.63476 -1.38054
3142 1 3.44654 22.033 -20.6472 1.03702 0.0710962 -1.34935
3143 1 21.9344 24.9117 -22.292 0.517646 2.51989 -5.46348
3144 1 -1.34773 15.1678 1.42283 1.60248 0.901101 2.73416
3145 1 18.72 -17.9566 9.80843 3.78429 2.84374 -0.451055
3146 1 -0.8606 7.43521 -9.65347 3.88981 -0.950741 -1.88102
3147 1 -2.27727 -19.0938 0.837622 -3.65331 6.93846 2.76558
3148 1 7.69867 -6.64869 5.11073 2.80922 -2.11277 0.281402
3149 1 10.2867 8.9197 -16.0793 1.08028 0.182508 -0.141251
3150 1 -22.7341 13.1499 3.18805 -2.39071 -1.30545 -2.81467
3151 1 -11.5231 -24.2376 -16.2187 -2.50589 -3.56639 0.686282
3152 1 -13.7901 13.6017 -21.4734 -0.796166 0.983299 1.55413
3153 1 16.8749 7.05614 -22.377 -3.51131 -3.29459 0.33574
3154 1 6.18034 20.9726 2.55597 -2.0009 -0.291564 3.21437
3155 1 -6.04047 -11.6167 3.01283 1.51904 1.35228 2.30332
3156 1 20.467 -3.64935 7.37377 -0.887318 3.78445 -6.34707
3157 1 11.0309 3.18738 4.49101 0.728059 -5.00547 5.16391
3158 1 19.2495 -19.7018 -7.80712 -0.84428 -6.31087 -2.21001
3159 1 18.971 4.33352 -6.0199 2.56241 1.92257 2.23121
3160 1 -12.2165 -24.1025 23.8801 -2.26542 0.0614952 -8.679
3161 1 -9.88788 -18.4133 -2.9805 -2.448 1.00011 1.44855
3162 1 -14.9978 -14.4262 -15.5059 0.308803 -3.91162 -3.55317
3163 1 22.6431 -0.0957576 14.7268 -0.717015 -2.36712 1.01533
3164 1 -20.6075 3.6583 21.6233 5.0182 3.2272 -1.92224
3165 1 -6.24476 20.1188 -15.6167 -2.30911 2.23602 -5.32458
3166 1 16.1677 -9.85851 15.2877 -5.30861 -1.05499 5.55553
3167 1 20.375 -14.692 -19.2364 5.57042 -6.78108 -1.05375
3168 1 -19.4076 -20.0865 16.618 1.15662 -2.12057 1.64145
3169 1 12.9806 -22.1145 -20.116 3.46723 2.69383 3.71733
3170 1 5.73248 21.6919 23.2397 1.27003 -0.594565 -1.45108
3171 1 -5.93842 14.1971 -21.6677 -3.47373 -1.6311 1.11481
3172 1 -7.55455 2.07999 5.54648 -3.61382 0.943589 0.752933
3173 1 11.0028 16.6477 9.69996 -2.21586 0.511738 1.49646
3174 1 23.5711 13.9028 -12.1518 3.9194 -0.213048 -0.268616
3175 1 18.6387 3.75902 -2.37853 -1.28683 -1.85688 -2.06763
3176 1 20.8013 1.37895 16.3468 1.49933 3.50879 -5.12797
3177 1 0.444598 -11.8756 -23.4948 -4.26075 1.48854 -2.28652
3178 1 17.7525 18.1308 13.5642 0.846128 -0.150947 2.21897
3179 1 1.06281 -0.294169 20.7578 2.91528 1.80294 -1.83899
3180 1 -0.466331 13.9533 3.65337 -5.94844 -2.87187 -2.57464
3181 1 -20.377 -17.4442 -24.247 -3.65631 3.33069 1.04551
3182 1 -17.9822 -24.7867 21.2532 -3.59572 2.36447 1.76599
3183 1 23.4511 16.7793 -5.23504 -0.908298 -6.26744 -3.85445
3184 1 14.6202 -3.30717 3.77411 -1.54425 0.377842 1.42043
3185 1 -15.2622 19.1807 -21.8159 4.6457 -0.963921 -0.188481
3186 1 -4.54096 20.3949 6.09782 -0.943984 -3.4531 -3.76446
3187 1 -21.7358 -14.5615 2.73177 0.797061 -5.16461 2.34248
3188 1 -20.1557 13.3286 -11.2456 -1.19365 2.43547 2.23847
3189 1 15.7427 11.0306 7.21796 -2.06013 -0.0138143 -4.65844
3190 1 -21.4375 19.9202 -17.0502 1.21055 -1.33493 -2.70633
3191 1 7.452 -5.8125 -8.76038 -6.21156 -2.406 -1.45778
3192 1 23.2605 9.792 0.579763 2.86931 -0.507696 6.84718
3193 1 -17.859 23.4874 1.30631 -1.1782 -2.25365 2.13728
3194 1 -18.5156 -6.75206 1.38351 -0.859543 -4.65671 1.1121
3195 1 -16.9439 0.534959 3.54192 -2.00067 -3.07867 -2.38153
3196 1 0.0360845 -2.20816 -2.3578 5.01709 0.786563 0.182675
3197 1 -2.92884 9.20978 4.47285 0.79375 -0.220431 2.09504
3198 1 9.40685 1.91572 -17.0744 -2.83485 1.97486 4.51673
3199 1 12.6408 -23.0179 7.51219 -3.56554 6.31806 -2.88129
3200 1 -24.3127 -3.6018 -4.49658 0.518515 -0.127345 1.49055
3201 1 -15.6483 -3.32083 19.4356 -5.02349 -3.6086 -0.523827
3202 1 -18.7776 -11.9954 -9.83713 4.60394 -3.87588 0.429899
3203 1 18.0459 9.33021 20.8651 -5.03443 2.85527 2.44051
3204 1 -15.8311 -9.5711 9.8131 0.15597 0.137245 -2.27587
3205 1 -13.0727 3.85765 -4.03894 -4.12802 -4.36638 -0.206075
3206 1 14.8023 11.737 -4.35628 -1.66279 -0.454547 -4.48095
3207 1 0.411092 -6.84732 -18.8599 -4.89456 -1.75906 3.15797
3208 1 5.98925 -7.12995 2.70233 -1.14464 1.92952 2.30597
3209 1 11.3386 -15.9787 22.2356 -2.88391 1.83984 0.0953089
3210 1 -12.761 9.40708 -2.73764 -1.24297 0.810824 1.46348
3211 1 -1.75799 17.7311 12.4004 -2.64264 0.827319 4.05496
3212 1 -12.2703 6.6044 -18.3398 2.04173 -4.33212 0.986783
3213 1 -1.8097 1.86011 -15.326 1.4003 0.964828 -2.60849
3214 1 -1.73295 15.5622 16.2058 -0.441438 1.41699 2.22734
3215 1 10.8749 2.66909 11.7236 0.769077 2.81969 2.46363
3216 1 23.1132 -0.61709 10.6899 -3.61554 1.27661 4.8626
3217 1 10.1077 2.32013 9.06586 2.33925 1.8022 1.88655
3218 1 -5.03103 21.2426 -7.25144 3.83395 1.45338 2.73241
3219 1 -7.38118 -19.8353 -16.6203 -1.44066 4.13561 -1.03231
3220 1 -4.22151 -9.41808 17.0335 -3.3665 2.60964 -1.04281
3221 1 -4.93008 -7.97464 -2.74543 2.38879 -0.326589 -1.7091
3222 1 -16.2911 -19.1284 1.94162 4.1311 -0.836078 1.83382
3223 1 -24.2153 7.83037 18.8554 1.69732 2.84263 -0.961939
3224 1 -4.57089 -7.44877 0.0566523 2.44188 1.00825 -1.11841
3225 1 -9.09015 -6.93146 14.9403 -3.5985 -1.07668 -0.623818
3226 1 -22.6962 23.4078 -10.9579 2.40467 2.02427 -1.08947
3227 1 6.15769 20.7418 -4.9655 1.17497 -2.268 -3.16473
3228 1 -11.1365 11.079 -10.0365 4.49887 1.63091 1.1548
3229 1 -7.35827 1.23308 -4.08266 -1.93724 0.492846 2.76088
3230 1 -23.3426 11.8985 -23.38 -2.63636 2.29362 3.44055
3231 1 -18.4064 -16.6678 -1.05544 -1.76241 -2.32868 -4.18527
3232 1 -23.0751 15.2626 4.67089 1.87206 -2.90431 1.38319
3233 1 -2.28687 16.4981 7.13657 -0.95585 2.4177 1.42904
3234 1 9.66949 -7.03313 -13.5605 2.94656 -3.20592 -1.85816
3235 1 -6.65733 11.8588 -11.6162 -0.950282 1.52888 -2.02385
3236 1 16.7151 19.2715 7.78169 3.71306 0.862555 0.452801
3237 1 -3.9008 -13.5194 23.7632 3.05965 1.12576 3.60911
3238 1 21.9276 19.4097 -4.12281 0.102779 2.83836 1.59235
3239 1 -14.3624 -17.4709 8.79696 -0.952522 0.0299604 1.54551
3240 1 -13.6313 -21.3476 -17.1485 -2.41704 -1.89964 -0.949871
3241 1 0.303464 -20.4932 16.7394 0.29427 1.58629 0.438513
3242 1 22.584 -11.3915 -17.6639 2.55118 1.10532 -1.60058
3243 1 8.43599 15.4949 22.0391 -2.13587 -1.27953 0.00150629
3244 1 19.4539 14.2511 -13.9912 -0.731275 0.481533 3.67678
3245 1 -7.95233 19.9542 9.22319 -1.96864 3.59572 4.01677
3246 1 17.357 4.08016 5.49255 -2.29879 1.07783 1.02183
3247 1 -5.17184 8.00557 -10.4784 5.27862 5.0028 2.86879
3248 1 7.79929 0.931338 -0.226807 4.13158 -1.9207 -0.621636
3249 1 9.67232 -2.54424 13.0743 1.80456 -6.78346 3.45769
3250 1 13.8191 5.38224 -16.8424 -0.588222 2.49493 1.43307
3251 1 0.463586 16.4375 11.4344 3.51014 -1.83029 1.40271
3252 1 17.3005 -22.3376 14.9379 1.67755 2.06819 0.972883
3253 1 10.674 15.6247 2.66422 -2.37654 3.46243 1.4702
3254 1 20.576 3.64832 -8.24125 -2.43778 -4.57483 2.15648
3255 1 -18.7508 12.0683 -19.53 1.60482 1.08286 2.35583
3256 1 -6.84766 17.9866 -9.40656 2.26662 2.26599 4.5891
3257 1 -12.1366 6.8582 20.4482 0.608271 -0.413822 -1.38386
3258 1 -19.7677 -6.62959 19.6354 7.22165 -0.00558672 0.589156
3259 1 17.2139 19.1271 2.80547 -2.18157 0.935338 0.650517
3260 1 19.1901 47.3043 -6.62111 -3.40348 -1.00627 -1.63317
3261 1 -14.6646 -1.90174 -16.3535 -0.262499 2.20637 -4.71737
3262 1 9.21065 6.8812 11.3514 1.08701 -0.604412 -2.61956
3263 1 23.1952 4.44166 20.4221 1.51024 3.15086 1.15471
3264 1 10.6728 8.90369 24.1149 1.23337 -4.12082 3.20068
3265 1 7.31005 -6.64949 -15.1142 5.05057 -2.55103 2.67663
3266 1 10.2078 -0.76062 21.4468 -0.0371294 3.17057 -1.51563
3267 1 -17.5262 8.08594 -0.172277 -1.199 -2.75075 1.37547
3268 1 7.47027 -21.6393 10.544 -2.02055 -2.49745 -1.90137
3269 1 6.99054 18.7313 -3.00153 -1.58537 0.879654 4.12558
3270 1 18.4231 -16.3621 15.966 -0.628312 1.86537 2.6535
3271 1 7.42643 -10.6799 20.6679 4.58401 -0.525632 -0.512202
3272 1 2.69873 12.1154 -7.59323 -0.264592 2.6651 -1.16182
3273 1 -16.874 9.73304 -15.5892 -2.16774 -1.94721 -3.46858
3274 1 13.5565 -19.493 4.80395 -1.36182 0.616677 -1.7606
3275 1 20.177 7.81522 11.3201 2.20834 2.24517 -2.36074
3276 1 9.35296 2.99921 14.0598 -3.45601 0.0203204 -1.84756
3277 1 -2.49798 -17.1669 2.98695 -3.3217 2.46334 3.77014
3278 1 0.488408 -7.0027 -22.0651 -0.886248 -3.72965 1.19779
3279 1 7.5427 -0.94739 17.3494 -0.0766926 -1.11563 -2.10702
3280 1 9.88328 15.8699 12.3456 0.241537 1.25921 3.94545
3281 1 -4.49871 -14.3997 10.634 -0.830179 -3.29893 2.50819
3282 1 5.6406 -1.01145 -14.9092 -1.45213 3.33494 -0.384714
3283 1 -3.66166 0.393535 14.4087 -3.22102 3.94339 -1.20875
3284 1 15.0025 23.3702 -19.7053 1.60855 -0.79459 0.678655
3285 1 0.329752 19.5015 -13.8932 -2.76993 -0.335446 0.00985224
3286 1 -16.1155 19.3539 4.33509 1.07492 -1.79724 -4.51652
3287 1 -3.61415 -15.4863 17.284 1.29769 0.911308 -1.52138
3288 1 0.803765 7.70114 -19.3035 1.86846 -1.58413 4.31118
3289 1 -18.1894 -21.5542 10.9899 2.40336 -2.64291 -1.24615
3290 1 -13.1238 18.0469 16.8286 -0.869191 3.67415 0.347536
3291 1 21.2572 22.4912 -13.4687 0.00319523 -0.409803 0.839289
3292 1 -21.8071 21.5701 1.68441 -1.61654 -3.11476 -0.195886
3293 1 -9.36103 11.6402 23.8421 4.53669 2.8802 -1.17305
3294 1 -20.3733 1.83981 -15.464 -0.87804 1.9059 3.75505
3295 1 5.4943 -24.5587 -0.40952 5.34929 -2.66259 -3.99935
3296 1 -17.7419 -13.2327 16.7358 -0.573186 1.00623 1.31596
3297 1 -16.7373 21.0174 23.7254 -3.69147 1.03009 -5.25479
3298 1 6.95576 -8.87764 -18.4798 -1.06012 3.79701 -2.07714
3299 1 -13.5478 20.1281 -6.85722 1.11846 -4.44626 -1.83397
3300 1 -2.64197 5.40351 -8.51792 1.76262 1.22607 -0.325253
3301 1 22.7316 8.92271 -9.56548 -0.0794383 -0.606124 5.0868
3302 1 -18.7539 -11.0094 21.1223 0.577683 -2.09669 0.266523
3303 1 23.1553 -23.2575 -13.9873 -0.383081 -1.87078 -4.20419
3304 1 0.210747 15.2489 14.0814 -1.08827 0.122277 -2.96476
3305 1 2.70756 6.43991 -5.62553 -0.506467 0.211796 5.04533
3306 1 -7.63452 10.5276 -20.7752 2.53812 3.82528 0.00164668
3307 1 -17.7152 11.3718 20.4271 -1.51591 3.39653 4.20246
3308 1 -16.7712 18.2635 -3.29501 -4.08524 1.0976 -0.957152
3309 1 4.58774 -1.44071 11.4618 -2.54014 -0.857799 -3.4395
3310 1 16.2316 21.7242 6.31061 1.58919 1.76958 -3.93993
3311 1 9.33422 3.69218 -9.99467 2.49749 0.989863 -1.84551
3312 1 -24.1284 5.93831 14.4356 0.877248 -0.133793 5.07056
3313 1 15.126 10.2125 13.3396 2.24718 -1.78906 1.57639
3314 1 -0.0812864 -2.60719 10.679 2.50172 0.893434 5.28354
3315 1 21.9315 -11.2729 -21.922 0.979556 2.32805 -0.870687
3316 1 3.50817 -5.54606 -6.70092 2.38261 2.69245 3.86732
3317 1 3.72016 0.226024 7.5207 -0.841873 -3.78166 0.12181
3318 1 -11.078 0.0893329 17.8872 1.74671 0.446695 -1.22958
3319 1 1.2792 1.00455 -15.9097 1.65308 -2.89716 2.72992
3320 1 4.18592 4.6729 -10.2346 -4.0113 0.719308 1.81011
3321 1 -9.18377 -17.6581 18.971 -2.84651 -3.41029 1.6877
3322 1 13.7019 -11.4515 24.4122 0.328539 -0.840893 6.07686
3323 1 -3.08758 17.9318 15.0369 -5.44189 -2.32575 2.05429
3324 1 14.4883 -16.4816 -9.43054 -3.93516 -4.7863 -2.8316
3325 1 -11.0454 14.3289 3.73174 1.05494 1.43556 0.200377
3326 1 -23.0893 6.24211 -22.1546 2.25712 -4.83716 4.73486
3327 1 6.94022 -22.6267 -8.84835 3.15454 2.55372 -4.56793
3328 1 1.59835 -17.8719 -9.76586 0.936166 0.454079 -5.28955
3329 1 11.6905 6.48151 -15.1058 -4.85927 -2.75979 -5.55501
3330 1 -7.6619 18.5039 -13.6447 2.51575 2.43906 -0.66076
3331 1 -19.7301 -4.06837 -1.90675 -4.70587 -2.45869 -1.21426
3332 1 -4.87638 6.66486 22.634 0.220063 0.407196 0.23211
3333 1 6.35075 -7.95691 22.6262 0.503539 -0.12752 -0.861895
3334 1 -22.3032 20.6247 16.7429 3.31847 3.64863 -1.17323
3335 1 22.651 0.303563 -3.49942 3.32938 -2.93621 0.19165
3336 1 13.6153 -16.1544 1.92239 -4.71322 -0.101098 -3.6178
3337 1 -14.1645 9.9112 9.75238 1.92759 1.72826 2.84496
3338 1 11.8624 20.8516 16.0781 4.98031 4.76477 -3.5234
3339 1 11.5215 17.7401 -20.5786 -0.193569 2.16 -1.45396
3340 1 17.4524 -0.110127 -20.8714 1.39244 -4.133 -1.93746
3341 1 20.6392 20.2984 -15.1485 -2.43082 4.71551 -0.474852
3342 1 0.183139 0.388199 2.24698 -4.32606 -1.28451 -0.0221322
3343 1 -22.7372 -4.87824 -16.7558 -2.15022 3.94495 -0.407993
3344 1 17.019 -18.5792 17.2632 -1.19269 0.522193 2.98312
3345 1 13.8833 23.0364 -23.3353 -3.32219 2.31198 5.02382
3346 1 9.03315 -22.1409 1.25732 3.02261 4.35488 5.09226
3347 1 -23.6019 12.9492 -14.3628 0.39941 1.21533 -4.39473
3348 1 -11.0592 -19.1487 1.7046 0.785676 -2.40892 0.980717
3349 1 14.6284 18.2134 -13.6135 1.93032 0.98801 0.964809
3350 1 -3.88181 -7.3239 15.1444 -1.00635 -5.78362 -3.20556
3351 1 -20.8787 -9.40185 16.7895 0.605325 3.97126 -0.121673
3352 1 5.30321 16.011 3.92333 -4.57042 4.69788 -0.356678
3353 1 -23.089 4.09541 18.8418 -0.182423 -1.12639 -1.015
3354 1 -14.9156 8.19247 -0.900867 -4.55262 0.750059 2.91552
3355 1 -17.3948 -19.4216 -4.55745 0.189397 -1.56494 -3.74124
3356 1 -8.73672 21.5505 5.18504 0.315342 0.192148 2.52705
3357 1 6.77229 -6.63685 19.9724 -4.28504 1.51476 2.31175
3358 1 -1.08981 19.8568 14.2 -4.73973 1.77952 2.80153
3359 1 -4.42203 21.8459 11.5596 5.62367 1.68561 -1.9369
3360 1 -7.22382 -16.5341 17.1043 3.02813 -5.42326 -3.13748
3361 1 -4.21522 23.1486 9.17885 0.505982 1.06769 -1.30447
3362 1 -6.38433 3.54409 -14.1854 0.6672 -0.551553 0.744602
3363 1 13.0738 -4.68981 -14.5542 -2.31383 0.610824 -2.36552
3364 1 -21.2043 -8.84792 -0.757022 2.6021 2.08508 -1.18889
3365 1 -0.102001 -9.21638 11.567 0.487659 -4.9226 0.0928264
3366 1 -21.234 -22.2978 -19.4337 -0.177245 -1.55891 2.27022
3367 1 1.36204 -20.0702 -19.3453 2.18336 0.23603 -0.224485
3368 1 20.7514 -20.2416 17.2228 -1.20102 1.2559 3.62729
3369 1 -3.20993 -3.1215 -11.5679 4.19428 3.74334 -0.649153
3370 1 -18.9374 -14.7013 -14.7181 -1.87375 -4.33999 -0.123565
3371 1 -8.31506 3.93931 13.4163 -0.823976 -0.703813 -2.50494
3372 1 6.73004 -3.14577 -8.87787 3.39 -1.11185 1.23123
3373 1 13.2473 -5.78528 19.6097 -4.73521 -0.212756 4.73328
3374 1 22.618 -13.5725 -23.0219 0.948366 1.58381 3.55455
3375 1 20.3588 -11.6988 0.624141 -2.92656 -2.36667 -0.053598
3376 1 -15.3248 9.53617 13.4508 1.2555 1.27845 3.5321
3377 1 5.98403 -12.5213 13.5416 -2.01502 3.4032 -0.614466
3378 1 -6.23049 -18.262 -0.0839947 -0.0979933 6.32728 -2.13547
3379 1 9.25595 -5.72644 8.2991 -2.73053 -0.50327 -2.69323
3380 1 1.07893 16.4207 22.7525 -1.39729 -1.23499 4.35813
3381 1 -3.883 -15.9984 -21.7363 4.40171 -0.0787887 -0.694973
3382 1 -20.4443 13.271 15.6679 -3.04979 1.64511 -1.6557
3383 1 -20.613 22.358 -18.6346 3.59337 -4.34962 0.261468
3384 1 16.6207 -18.7648 -11.6337 -1.78971 -2.47347 6.10388
3385 1 -4.45656 -19.3341 -7.17817 1.68151 -1.10976 5.87676
3386 1 11.05 -10.4676 -23.3551 1.53682 -0.324774 0.448223
3387 1 -18.2316 -2.67526 2.11275 -4.01037 -3.09908 0.719403
3388 1 -21.5063 -2.99629 14.7214 -1.76787 -1.82046 -0.291693
3389 1 -13.2041 -11.4596 -12.1471 -1.46888 3.00096 -4.48345
3390 1 23.8086 -21.8562 15.2128 -2.08188 -5.34758 -3.77648
3391 1 -8.97203 -13.2272 4.04817 -0.723826 -2.1886 -1.34143
3392 1 -7.0285 0.915595 -17.0157 -2.13274 -1.19067 1.88984
3393 1 -12.5517 15.0549 -19.298 1.97482 -0.644754 6.51028
3394 1 -12.6053 -1.00293 12.7821 3.77123 3.42639 -3.90154
3395 1 13.5349 -16.3615 10.4157 0.904727 -1.92205 -0.128434
3396 1 -21.83 6.07931 -4.99724 -4.50584 1.02965 1.02973
3397 1 -3.68339 1.98866 20.6621 1.22158 1.1047 -1.98404
3398 1 -7.13184 -19.9597 -3.4287 0.960311 -3.25807 0.676515
3399 1 0.813174 -5.7341 3.90686 0.221997 0.211958 -0.175079
3400 1 15.9772 -22.1779 -22.4643 0.103809 2.12732 -1.93467
3401 1 -20.4605 -22.4627 -12.5914 3.31618 5.6132 5.25029
3402 1 14.7477 -16.4295 -17.5071 2.34548 -3.90256 0.728015
3403 1 -14.3528 -22.5189 1.27873 -0.259555 -3.86556 0.377443
3404 1 -18.6728 -9.45553 0.692174 -1.77471 3.78504 0.787544
3405 1 16.6564 5.08612 13.8001 1.70622 -3.07736 0.0711053
3406 1 3.74033 -4.54257 4.81649 0.493883 -4.24447 -5.07685
3407 1 12.0747 0.0787782 -13.1227 1.62211 -5.03069 0.198881
3408 1 -17.6777 13.2528 -24.492 3.73246 -4.34963 -2.16593
3409 1 -3.44965 -18.9238 19.1555 0.449954 3.07397 -7.98953
3410 1 -19.9837 -8.98082 13.8572 4.58931 -4.12058 -3.47703
3411 1 -5.24535 -5.59972 20.0197 1.99342 1.33772 -0.903982
3412 1 5.8766 -3.53921 -11.4906 -5.24148 0.699164 0.322761
3413 1 -2.87614 -16.384 -15.6404 -3.03403 -1.30541 2.2426
3414 1 -17.5551 5.14088 -7.21338 -1.07014 1.25884 5.6558
3415 1 -16.5108 0.169273 -15.6847 -2.10498 3.03408 2.55603
3416 1 20.2849 -21.1055 -5.73151 -0.677078 -2.65947 -1.54291
3417 1 -23.1404 -10.2937 9.76852 -4.35409 -3.30462 -1.89082
3418 1 20.7956 18.1143 14.3426 1.5106 -2.23025 2.96626
3419 1 -11.6607 -11.2805 1.29742 -3.03984 -1.35079 2.09524
3420 1 -18.9585 9.84259 8.11754 2.55878 -1.7276 0.288317
3421 1 10.4846 16.4675 -13.4629 0.398179 2.60514 -3.60962
3422 1 5.89937 -14.1932 -3.13717 3.41301 -0.0321053 -1.22754
3423 1 -13.2379 3.21423 1.18965 1.10775 4.92506 1.25656
3424 1 0.569243 -9.52744 1.1143 2.61178 6.61211 0.805929
3425 1 23.911 -9.90506 17.9976 -1.45271 -0.806286 8.21259
3426 1 -20.1395 -6.17627 4.10453 1.05872 2.74579 -0.167357
3427 1 23.6802 13.6635 -16.5809 3.3332 -1.40168 5.04287
3428 1 -3.65548 11.8479 13.7391 0.746502 4.29406 -1.18123
3429 1 2.63156 -17.5547 17.1376 4.15425 -1.66518 -5.53718
3430 1 -13.2362 -15.5735 20.0595 0.282583 1.19658 2.16131
3431 1 -9.92029 -5.4572 -1.04113 0.621528 -1.91654 -2.75916
3432 1 -2.2004 9.34129 7.96942 -0.898459 -0.29132 -5.08028
3433 1 -7.068 -2.47628 -21.2213 -2.29851 2.40119 -1.08622
3434 1 13.328 16.3359 -9.00371 0.398016 0.586917 0.22098
3435 1 -4.33719 21.8341 -14.1183 -4.48658 -7.07513 -1.90505
3436 1 -4.34447 9.16138 17.727 3.24808 5.20741 -1.06534
3437 1 12.1347 15.7688 -6.40886 3.94284 -1.15971 0.755357
3438 1 -18.8167 9.70785 3.71701 -0.434735 1.81721 -1.64464
3439 1 2.28614 -13.7267 12.6661 2.39699 -0.0380602 0.569093
3440 1 3.94883 20.1639 -9.66189 1.93162 -1.98465 -0.515566
3441 1 6.01963 -15.174 -5.90248 1.64688 9.31198 0.139618
3442 1 -7.07918 -0.407914 4.03031 -1.60739 -1.76004 5.27772
3443 1 22.6137 3.30639 0.371884 4.29195 -1.60118 -0.758394
3444 1 -19.1303 12.6171 2.81123 -0.677595 1.80675 -1.6733
3445 1 -11.7003 0.568487 -9.21328 -0.267485 -1.87166 3.85368
3446 1 -3.46228 -20.9485 -16.1319 4.20161 0.580635 1.62225
3447 1 -5.13848 4.14235 -7.47158 -0.631389 2.76741 -4.07497
3448 1 -19.569 3.88003 15.2965 -1.50688 -4.0297 -4.34883
3449 1 6.19768 23.5144 -16.4776 0.515936 0.879192 1.56311
3450 1 -3.65729 -13.928 -13.596 -6.26412 -2.35184 -3.72512
3451 1 3.86116 -11.7891 -20.1509 1.06677 5.93263 1.43449
3452 1 -10.8849 -0.583613 -11.8199 -3.52533 -0.60286 2.57064
3453 1 15.308 10.6497 -21.1145 -0.939158 -2.04935 0.64108
3454 1 -21.3224 17.4581 10.4011 0.754741 -2.06994 3.00314
3455 1 -18.5171 14.1775 20.2214 3.04801 -2.14399 -0.20232
3456 1 9.11667 23.1346 -16.4528 5.38378 -0.237869 -0.352328
3457 1 22.5103 13.638 22.0094 -2.64731 -0.392907 -3.28169
3458 1 14.2737 6.14059 -22.8114 -3.56081 -3.02055 -4.31057
3459 1 -1.93809 18.4428 17.7452 5.01151 1.56562 -1.24131
3460 1 -0.219808 20.6411 16.8918 0.447745 2.14184 1.93055
3461 1 -13.0087 -23.843 19.5024 -0.0422157 0.876568 2.37266
3462 1 -11.5822 22.0585 -8.50896 2.35298 -1.00352 3.85338
3463 1 22.9358 7.20526 -22.9109 1.81279 2.1922 0.804313
3464 1 -18.2642 -19.8112 13.3021 5.22371 -1.82263 3.42005
3465 1 1.20704 -4.90829 11.7981 4.3503 -3.38458 3.04784
3466 1 -9.93156 3.58728 -7.55309 0.36733 0.636639 -3.93424
3467 1 13.6126 12.6388 14.7002 0.587956 -1.80376 5.92446
3468 1 -7.27209 -7.79433 23.0551 -3.65464 -1.85763 2.02155
3469 1 -2.10768 -8.27918 1.80461 0.0992682 -0.187072 -1.96087
3470 1 -16.782 -18.8757 -8.24478 1.56291 -7.92214 -7.05717
3471 1 -17.2548 -18.2833 -17.8413 -3.67177 -2.73459 -1.44054
3472 1 -14.7798 8.10564 -14.4419 -1.40166 1.54639 -3.83703
3473 1 23.8688 23.1431 -20.9567 5.52615 -2.91743 0.913023
3474 1 16.279 -2.06453 13.0864 2.97102 -0.996507 3.52735
3475 1 -22.6844 -13.8606 18.8076 2.25514 -5.09985 2.54522
3476 1 3.98008 14.2909 15.9076 2.9811 -1.85303 -2.2361
3477 1 -19.3002 -0.755426 -14.9269 -3.53793 -3.78495 -1.73963
3478 1 10.6395 -13.3155 3.11044 2.29665 1.65184 6.09896
3479 1 17.5526 -6.52711 9.35755 0.864288 -3.64721 -1.81259
3480 1 -23.1421 23.7601 -5.65106 1.5971 0.466431 2.52381
3481 1 2.96625 -22.3266 -22.7585 -2.14994 6.72498 -7.62872
3482 1 17.5287 18.6378 -0.287551 -2.36623 -2.40723 -0.330541
3483 1 11.3355 21.5594 -1.10714 -2.28916 1.9719 -3.16066
3484 1 3.03368 11.0724 7.91756 0.609532 -3.64745 1.76788
3485 1 2.19893 8.84151 -4.16539 0.155125 -4.7505 3.57959
3486 1 17.6791 23.1364 18.8537 2.79476 -2.64489 1.01008
3487 1 9.97838 -10.8074 -12.2746 -0.235806 0.851224 0.75855
3488 1 16.7832 14.0983 -12.7939 3.90375 -2.70616 2.56033
3489 1 18.4152 1.63863 -7.25975 -3.18238 -3.5187 -5.47687
3490 1 -17.9228 3.76783 5.55555 1.38312 -3.20264 -3.09261
3491 1 -9.3212 7.87086 -21.0765 -0.124115 -5.18824 0.754971
3492 1 18.636 -1.50452 4.20666 -0.927042 0.78656 1.79492
3493 1 5.15714 12.0484 17.639 0.726388 -0.944331 -0.318887
3494 1 -16.2926 3.09553 22.7212 4.6973 -1.36934 0.808759
3495 1 22.5671 -3.78259 16.8987 0.611125 0.0607256 -5.14312
3496 1 -9.39243 8.46286 -15.2336 5.11448 -2.40758 1.85424
3497 1 -16.4142 10.5027 18.0305 -1.52994 -2.41137 -0.306095
3498 1 -17.633 12.6965 5.76254 4.58491 1.86015 -3.37479
3499 1 -22.5538 19.9644 -21.4944 -2.35512 -2.43395 -3.98405
3500 1 19.9366 16.2069 -7.24256 -1.05322 -0.0515999 -2.75028
3501 1 -16.8261 16.4899 -7.0813 -1.86107 -2.91231 0.0490074
3502 1 -6.06108 21.971 -4.45654 4.03915 -0.538181 5.45114
3503 1 17.9816 -21.9706 3.52199 -3.63423 -0.66468 -0.896665
3504 1 17.0682 -1.10799 0.0150655 0.236798 -0.189395 -2.93487
3505 1 0.678575 -13.4893 3.11725 -4.68272 -1.86835 4.18348
3506 1 -22.8175 19.2565 -3.95355 -0.828643 0.930773 1.77418
3507 1 8.66093 8.74301 -9.62557 -0.0726088 2.11159 3.04072
3508 1 -2.73851 -11.6259 -20.1141 -2.95015 0.135783 3.74648
3509 1 -22.5597 -20.6461 -21.9128 1.31985 1.21378 -2.14222
3510 1 -12.0801 4.90223 16.0133 -3.2071 0.571537 -5.8801
3511 1 13.6408 10.5164 -2.22118 1.83083 -0.94143 2.88271
3512 1 -19.0812 2.38792 3.05655 -5.87255 -3.47315 3.79932
3513 1 -20.5145 -20.6758 -17.2788 -0.12664 3.95793 -2.55128
3514 1 -4.22011 18.984 -9.07784 -2.05202 -0.663066 2.39567
3515 1 14.91 -18.4089 8.21194 -3.99104 -0.436783 -1.11056
3516 1 -19.6353 4.79958 -17.8221 -0.692497 0.900542 1.40438
3517 1 -6.89575 17.8638 17.3211 1.71531 -1.2417 1.0983
3518 1 -1.07465 -0.35606 -0.272554 0.537651 -0.289806 1.20538
3519 1 -2.79961 5.43148 16.8064 -0.880396 0.712987 3.46813
3520 1 -4.7275 -14.7597 21.3683 -7.96935 -3.19562 4.9795
3521 1 2.39425 14.5681 -14.6889 -0.925121 1.98304 4.32743
3522 1 23.5442 14.3406 -23.7923 6.4723 3.53635 1.93874
3523 1 -13.5168 -20.3044 8.8138 2.13054 -1.47015 0.605559
3524 1 0.090969 24.1302 -1.06977 -1.62282 -0.485359 -2.52542
3525 1 -17.1399 12.6409 -21.7112 -2.27758 3.70645 -2.0847
3526 1 10.2233 17.8261 -6.8063 7.66849 -1.99969 2.16088
3527 1 -1.70213 11.6885 6.33967 -3.11832 -1.18681 -2.34112
3528 1 -24.6008 -22.6769 0.559958 0.573512 -2.86808 2.29423
3529 1 -20.9995 8.44891 21.2549 1.48373 -2.54008 -3.52539
3530 1 -11.6017 11.0828 7.18746 -0.973897 1.11698 1.62396
3531 1 4.7712 6.44235 22.9877 -0.785322 -7.0393 -0.441892
3532 1 -7.75204 12.6561 -7.94947 1.18116 -1.88743 -0.951097
3533 1 16.2626 10.6219 4.42558 -3.47142 2.24795 2.83597
3534 1 4.95363 -4.24689 19.9755 7.23823 4.61507 -2.839
3535 1 12.3635 -20.4443 -17.8089 2.75998 2.5881 -4.69211
3536 1 22.3908 -16.4463 8.41297 2.89133 0.56795 1.32775
3537 1 22.7445 22.2359 18.7492 -0.24357 -3.79375 -0.800784
3538 1 5.32437 -6.78003 15.767 -0.586711 -2.38837 2.76154
3539 1 14.893 22.8502 -11.9721 -2.06728 1.13431 -0.0718392
3540 1 -1.52671 13.3433 -4.31801 1.34572 -1.28244 -1.51442
3541 1 13.2388 0.399022 -22.5281 2.98752 0.239493 -0.268902
3542 1 20.1795 0.3027 5.67288 5.89426 0.0577152 -0.909264
3543 1 -16.0968 12.5147 -6.03024 2.64404 -4.70214 -0.595179
3544 1 -6.90554 20.2461 -1.94078 -5.29994 -1.35487 -2.71875
3545 1 3.48117 19.8115 12.8571 0.58237 -0.151798 -1.00065
3546 1 19.1985 13.888 -8.81642 -1.89175 -3.62509 -4.3352
3547 1 9.4206 -17.8427 -8.75221 1.58843 -0.293902 2.04094
3548 1 8.87311 -12.5809 -20.5197 -1.96953 4.58572 1.53416
3549 1 -10.6824 8.19612 6.1695 -0.994201 0.603936 -2.93177
3550 1 -15.1169 15.6728 8.56593 -3.33533 -0.874905 -1.83077
3551 1 13.4209 2.27335 -20.4669 2.12429 -0.173522 -1.61362
3552 1 14.5036 17.5544 6.61245 4.27531 1.6628 4.59634
3553 1 -8.88128 14.9464 -4.02806 2.50965 0.124413 1.70502
3554 1 13.9325 13.2709 -13.259 3.63214 -0.924114 -4.00879
3555 1 -24.2259 -19.8941 1.55231 -4.23594 -1.57726 -4.06251
3556 1 -8.40023 -12.9414 19.9139 1.72445 4.49812 4.22611
3557 1 8.71518 7.56254 -17.9998 6.0219 2.23497 0.557594
3558 1 -20.4403 -15.183 -2.56097 2.26949 -2.53679 -3.42084
3559 1 10.2543 -4.29409 10.6848 -1.73107 2.93406 0.37694
3560 1 -18.0268 14.4488 -18.2929 0.26897 1.7602 -4.16242
3561 1 -20.4761 20.8367 4.0521 -0.712683 0.631686 -0.859355
3562 1 19.5859 11.7707 0.581096 2.08718 -0.537047 -3.11047
3563 1 3.21572 -23.2722 -7.01164 1.44821 2.9268 -2.03625
3564 1 19.6922 11.5619 -14.3216 0.130397 -0.596311 0.636733
3565 1 16.4928 -16.8464 -6.53394 2.72896 -4.54371 -0.180628
3566 1 -11.3645 -16.2399 5.28183 -4.29099 -4.84277 1.86548
3567 1 2.47339 -9.77695 5.15355 0.089219 3.26662 -2.58607
3568 1 16.4245 0.158889 14.8613 3.2117 -2.45806 1.49993
3569 1 -3.99488 3.31371 -12.5454 -1.11795 -2.10906 3.55101
3570 1 12.7737 21.9379 23.0487 6.1842 1.04568 1.39232
3571 1 2.54534 23.4463 10.1117 -7.66701 4.81886 -0.761936
3572 1 -14.0128 -16.8951 -19.7614 -0.650972 0.667797 -2.94836
3573 1 18.586 -4.22107 -1.8168 -4.83158 1.78799 -2.55145
3574 1 -15.3379 -3.34953 -11.7544 0.0252209 2.24434 -2.64208
3575 1 -10.7329 -11.9776 -10.8887 0.00318041 -2.70322 2.73952
3576 1 14.9519 3.08038 16.561 2.02149 0.882332 -2.87749
3577 1 -7.30111 8.1411 -5.04538 -0.952866 -0.662926 -0.31456
3578 1 22.0403 7.2169 20.0921 -2.39754 0.941776 -5.47608
3579 1 -17.5772 -11.2996 -7.34461 1.59042 -7.80396 3.16339
3580 1 -0.826848 -11.2206 7.66059 -1.59691 4.36683 1.44642
3581 1 -13.1294 8.27327 4.52457 -2.78471 -0.261869 0.95294
3582 1 -15.4442 -23.3196 14.9274 -0.803961 5.103 0.0220281
3583 1 -16.3998 16.5111 6.38204 -0.456189 -1.03644 1.30842
3584 1 10.2128 6.10915 23.7027 -1.09506 1.45204 -5.09463
3585 1 11.8508 -1.97284 10.272 4.73655 -1.62703 -4.13689
3586 1 15.0662 0.488755 -8.31246 -5.36776 -1.2205 -4.23607
3587 1 23.8269 -13.2241 -15.6543 5.27868 -3.547 4.3122
3588 1 -23.5407 -7.11962 -10.2487 1.56852 -2.00938 -0.475433
3589 1 -12.4312 2.12457 -7.07148 -2.07258 0.692508 0.651152
3590 1 11.1658 1.68344 -4.65656 -0.433085 -2.60697 0.494012
3591 1 -7.51286 -10.7134 23.7749 -0.656816 -6.07467 -2.70611
3592 1 -8.5822 -16.9655 -5.07876 -4.04466 3.71404 -1.62802
3593 1 15.9385 -9.48179 -15.145 1.81596 0.582587 2.02247
3594 1 13.2426 0.525159 5.7127 5.87878 3.81318 4.70425
3595 1 -3.35874 -15.8443 7.40276 -1.4393 -2.49627 3.10779
3596 1 -7.25731 -9.88275 -8.93281 0.524177 2.05513 -1.45303
3597 1 -3.97392 12.6943 5.07619 -3.36297 -0.650507 -0.11306
3598 1 -12.9414 -10.5759 -4.97318 5.54088 -1.61785 -4.73256
3599 1 13.7687 13.3962 -6.29189 3.01817 5.73028 -1.70055
3600 1 -19.9394 22.9088 -9.90093 -2.67429 -2.72421 -1.18461
3601 1 -23.6329 -11.1312 -4.93063 -1.63498 1.9723 1.27058
3602 1 2.15357 22.664 21.7528 6.13432 0.0446581 2.54458
3603 1 -5.33676 -1.68167 10.5092 -4.7467 -4.62031 -4.62858
3604 1 11.4509 12.4096 -21.8807 -0.532303 -0.0967218 0.56053
3605 1 19.011 20.3883 15.1965 -2.60102 1.18722 0.632704
3606 1 3.63164 8.5069 -12.5897 4.01287 0.916556 -2.44332
3607 1 -18.8576 5.67664 18.4442 2.43875 1.41548 -2.29651
3608 1 19.6669 22.2126 -16.9464 4.19841 -1.00977 -6.01682
3609 1 8.3347 -12.1146 6.22078 5.04777 4.57751 3.33326
3610 1 14.5309 9.71648 -23.7711 -1.30204 1.77751 -3.31473
3611 1 -16.4147 21.2941 -16.1945 -1.96495 -2.36287 4.25969
3612 1 -2.66554 16.1337 -4.29084 -0.179119 2.20303 -0.694779
3613 1 2.43625 22.5155 12.737 1.67291 -1.3683 0.884061
3614 1 -1.26669 -4.94383 -5.18561 -0.102847 -1.70724 -0.663329
3615 1 2.56423 20.9509 1.82117 0.16529 -4.5779 1.25793
3616 1 -11.3232 -10.841 22.9163 -1.18198 1.55489 1.51552
3617 1 15.0948 0.153942 -19.27 1.00075 -0.132554 3.69112
3618 1 0.178277 -8.61297 -8.29301 3.07631 1.48199 -1.86855
3619 1 1.42942 20.1624 7.93869 0.929156 -1.61772 -1.65818
3620 1 -4.68158 13.8953 -10.8526 3.22902 3.64807 3.68485
3621 1 -9.06394 12.1165 11.3237 -3.07879 2.92472 -1.68425
3622 1 6.78147 -13.2807 10.2547 -0.791983 5.4506 -1.29647
3623 1 10.3932 -0.985345 18.4589 -0.0985176 7.25132 2.00939
3624 1 21.671 -7.84897 5.03904 -0.388359 2.30231 1.50084
3625 1 8.49041 -16.1707 21.6886 4.37743 5.86396 2.61883
3626 1 -15.037 4.23539 -6.36211 -4.27584 0.413011 -2.98197
3627 1 -3.57934 18.0778 8.88135 3.42685 -1.36825 -3.16454
3628 1 10.1552 -0.409743 8.74868 0.344364 -0.671458 -3.38627
3629 1 -4.65167 -1.7136 3.15424 0.864968 -3.15716 5.05805
3630 1 5.19818 -12.1069 -1.17298 -1.08421 4.17477 -4.59605
3631 1 8.0319 10.1287 19.924 3.77479 1.77606 1.05238
3632 1 -14.4287 -15.9845 14.2038 6.05892 3.93584 -0.0296645
3633 1 9.41931 7.77364 -3.92126 1.33749 3.92094 -1.54016
3634 1 -1.41637 3.16216 8.86939 -1.25497 -0.687009 4.61777
3635 1 0.41501 -15.7354 -19.8345 0.515648 0.136042 -2.38042
3636 1 4.49694 -17.4952 -12.3002 -0.668713 -6.10452 0.0204076
3637 1 -4.5863 11.989 23.0888 -1.49859 -1.64157 0.986847
3638 1 22.2391 -7.7923 22.4442 3.83396 0.0693558 -0.842577
3639 1 6.47505 -18.2439 4.89298 3.46883 -0.0507945 -4.83868
3640 1 18.6547 -16.7802 -11.0972 2.40883 -0.124235 1.01005
3641 1 5.11764 10.9695 20.4097 -1.24566 2.09852 1.56879
3642 1 -3.96059 -15.1266 4.60419 1.5003 0.0118487 0.131169
3643 1 0.6268 4.03966 6.95959 0.971983 -1.79135 -2.68064
3644 1 20.5572 21.0137 -1.90937 -0.894567 -1.64871 5.24247
3645 1 -18.1093 -14.1778 -6.73721 -7.52969 -1.13346 -1.55611
3646 1 17.3373 2.81473 -16.958 2.99141 -1.50456 1.22238
3647 1 18.8417 -19.7436 4.85539 -6.57344 -0.565023 2.82861
3648 1 23.5216 -20.3197 -1.32717 -2.58198 -2.89718 3.44912
3649 1 -16.646 -1.49326 -18.2453 2.79106 -4.00166 -2.86213
3650 1 9.35917 -8.35065 -16.8788 -0.861703 -0.0426217 -3.25151
3651 1 -10.2147 6.40255 11.1231 2.39044 0.789259 1.23616
3652 1 20.8535 -12.4768 15.7723 1.29963 6.70163 2.32272
3653 1 -0.264966 16.3107 -2.50509 4.58264 4.62473 -4.61773
3654 1 -18.7894 21.8752 12.5226 2.81353 -1.09379 -0.81887
3655 1 -8.51048 22.3804 -13.7977 2.76577 -3.0454 -3.83055
3656 1 -11.3823 -19.5615 19.0977 -0.468128 -3.75252 1.5136
3657 1 23.0433 22.8941 -11.1798 1.24019 -1.20439 -1.04622
3658 1 22.8752 12.8928 15.7938 -3.66336 -2.56846 0.253037
3659 1 19.4463 6.69613 -20.0399 2.23908 -4.19146 3.46482
3660 1 16.0208 8.78573 10.1412 -5.90406 -2.1692 -2.44418
3661 1 22.8798 11.0372 -17.9446 1.2179 0.787887 1.64397
3662 1 -1.53918e-05 -0.391902 -22.4128 1.25259 6.46005 -2.40114
3663 1 -19.5945 -13.4729 -12.0166 -1.60025 2.6317 -3.20586
3664 1 7.26528 16.3829 12.6335 -1.65993 2.38379 1.25794
3665 1 11.3052 -9.94955 -18.3023 0.694027 -1.07439 -1.08023
3666 1 3.1599 -17.8323 -24.2092 0.845164 -1.74698 0.318812
3667 1 13.4491 16.5456 -16.981 -3.13983 2.14525 0.991856
3668 1 -13.3093 -2.35395 20.7693 0.246788 5.72339 3.22411
3669 1 0.250823 21.9687 3.19108 -0.527138 -1.25004 2.2496
3670 1 14.0584 6.28735 -9.32184 -2.85024 -3.40196 -6.70045
3671 1 -1.70189 10.646 -14.042 -2.18196 0.873389 -2.759
3672 1 -13.6858 11.3599 12.2279 0.00887186 0.684913 -0.0963206
3673 1 -4.53683 -22.3897 22.6563 0.797352 -0.0556515 0.947269
3674 1 -0.955947 -0.806752 -7.00372 -2.93222 -1.2781 1.90997
3675 1 -14.6902 19.8718 -9.49023 -0.701826 0.21824 -0.508177
3676 1 16.8405 13.9243 -9.9379 -2.33913 -1.9978 -2.68592
3677 1 -6.24878 13.3187 14.7949 4.21218 0.138102 -1.46216
3678 1 -18.3745 6.39917 14.7851 -3.98475 2.1252 -5.0813
3679 1 9.87952 -19.0324 -5.71311 1.15882 -0.0901816 -0.830859
3680 1 12.9902 5.94049 23.4201 0.263332 -0.987043 -4.5446
3681 1 -6.65849 0.423601 15.0668 -3.0026 -2.49129 1.96502
3682 1 23.1774 -21.4225 17.9754 -1.41116 -1.83646 -0.250483
3683 1 4.19166 10.341 5.44006 3.97375 -5.92093 -1.31839
3684 1 15.3407 16.249 -23.1826 -2.79046 -0.220968 2.87877
3685 1 5.27082 -2.7587 0.421776 0.986203 -4.26842 0.124999
3686 1 -22.6319 9.14677 0.824678 -2.46958 -3.45132 2.58436
3687 1 9.28575 -14.6599 9.00859 -0.341315 -0.391745 -1.62422
3688 1 -9.75577 -23.4997 0.248917 4.03513 0.992052 -4.004
3689 1 21.2927 15.3024 -15.9465 8.13144 2.00623 -0.211965
3690 1 -8.83936 6.23389 -6.54003 -0.320026 0.265211 2.81541
3691 1 21.8573 47.5811 -7.36362 1.13985 2.156 0.141251
3692 1 6.7928 0.201982 -18.246 1.80598 -1.96411 -7.50018
3693 1 5.11115 22.6962 -3.03126 0.347162 0.0774755 0.312144
3694 1 -21.7434 3.28823 -7.76944 -2.00699 6.43686 5.10717
3695 1 -7.45934 -6.39761 0.462781 -1.28555 -0.19242 0.270972
3696 1 8.23123 -0.284307 -15.4203 -4.58905 2.63112 -0.345771
3697 1 10.0093 5.56472 5.76498 -3.19436 3.36805 3.16486
3698 1 -22.5685 1.91837 15.9446 -0.610803 -0.636082 -1.24899
3699 1 -9.83774 -5.24861 12.6659 1.14116 -2.92836 -3.54387
3700 1 -4.76181 -18.4346 -16.4166 -1.54522 -4.75213 -2.71803
3701 1 13.9505 -3.16488 11.5931 0.839915 2.10909 1.21249
3702 1 -6.42403 -0.989772 -13.7194 1.35535 -4.76963 0.542196
3703 1 21.227 12.5443 -23.0378 2.03439 -0.787876 0.562686
3704 1 18.8091 -3.02112 11.8459 -0.855234 0.329493 3.06704
3705 1 5.32714 -1.20622 3.18662 1.22211 -3.39828 -0.735132
3706 1 -13.0752 3.68809 -15.5951 0.660199 1.71765 -3.53837
3707 1 18.4533 7.00434 -15.5711 -6.39056 1.0017 -0.560901
3708 1 5.96606 1.75117 8.47992 -1.24603 -1.15521 4.28612
3709 1 -18.7737 15.1437 7.64734 0.837478 -0.607887 -4.73395
3710 1 -7.27975 -7.11761 18.3216 -0.68423 1.2216 -1.94563
3711 1 -12.3629 11.1945 14.8419 2.1349 -1.12291 3.65423
3712 1 17.2365 22.687 -5.48876 1.21634 3.63893 -2.21306
3713 1 2.04386 21.7436 5.37464 0.396582 0.29335 -0.69476
3714 1 -11.9193 0.344973 21.9381 2.26735 -3.07156 2.76717
3715 1 19.8734 19.1106 19.2748 4.17301 0.425134 1.16583
3716 1 7.07734 3.73868 -0.275097 -4.69537 -2.36465 6.49109
3717 1 -3.01787 15.56 -19.0459 6.20066 -4.35849 -1.66469
3718 1 -18.1454 7.16021 2.29471 -2.10037 1.11721 -0.840783
3719 1 -1.22148 14.9327 -6.72836 2.33054 1.40685 2.97753
3720 1 16.8631 15.5836 16.949 -0.921613 -3.29817 -0.127817
3721 1 -1.14743 18.6183 -9.40587 -7.47063 -3.24532 0.75281
3722 1 19.2266 -8.11295 6.47585 2.38764 0.106675 -7.19615
3723 1 7.44179 4.07882 -16.2168 -3.291 0.603178 0.908035
3724 1 -4.80976 0.179111 -3.26577 1.6703 7.50372 1.63836
3725 1 -12.3121 20.1897 -4.1662 0.026896 -0.935113 -3.44796
3726 1 -8.72528 -13.3538 -14.5271 -1.35984 2.44044 -3.64534
3727 1 6.49522 -11.9331 -21.8849 1.65209 1.42013 4.53073
3728 1 15.8752 -10.1339 23.7716 -2.36821 -0.674319 5.66641
3729 1 -22.5791 -7.61381 -12.8767 1.29177 1.21194 0.118881
3730 1 11.858 -4.868 13.1407 0.782669 1.39629 2.65217
3731 1 3.13495 -18.3657 -20.7016 -1.38422 1.2237 -1.96279
3732 1 17.921 18.2686 5.40034 0.011905 -2.63781 1.18508
3733 1 4.13141 -15.0761 -0.94173 0.286765 2.04359 -0.0286615
3734 1 14.0456 13.5056 -9.12598 3.11956 0.0945404 1.49914
3735 1 -7.4093 18.1774 0.192852 -0.105572 -1.31439 4.79992
3736 1 -23.0726 13.0655 -10.361 1.06843 -1.80375 -1.7475
3737 1 0.235327 4.66791 1.07205 -3.90593 -1.3822 -1.80376
3738 1 -6.48614 -6.04254 15.8371 -3.80868 0.37723 -0.602372
3739 1 0.537837 -5.06641 9.12539 -4.85371 -1.58677 -1.43441
3740 1 6.58217 -1.10927 -21.0155 -0.447512 2.73844 -0.586147
3741 1 -19.4416 10.5767 -5.30839 0.201679 1.15178 5.05823
3742 1 -1.86234 -17.3449 -13.1203 -2.81404 1.67814 -4.59011
3743 1 5.34844 -14.0676 15.9753 0.556257 2.07473 4.65435
3744 1 -16.6969 17.4199 2.5654 2.17488 3.40025 -0.302093
3745 1 3.52244 -9.26211 10.6736 -5.96208 -0.113429 -0.151452
3746 1 5.96626 -20.0611 -5.86737 -2.02383 5.25018 -0.144081
3747 1 -17.8011 22.5392 -18.3991 -1.47556 0.60638 -0.231865
3748 1 -14.7005 -1.54918 -20.5037 0.713052 -4.79368 -3.86093
3749 1 -23.8525 -1.61576 14.696 -0.59867 1.82568 3.77839
3750 1 13.5051 22.873 -14.6928 0.890474 4.76459 3.66789
3751 1 -5.94524 -3.94057 1.80782 -5.29943 -1.72582 3.20905
3752 1 -19.6772 14.1854 -15.9462 0.720674 -4.08927 -3.49807
3753 1 5.60654 -5.47734 -22.9221 -5.69 -1.46494 -5.6115
3754 1 -10.6445 6.02718 8.14454 -3.36996 -2.77162 0.330218
3755 1 17.2237 6.78186 -9.17273 2.49912 -1.34333 -0.940502
3756 1 -11.2128 -22.8799 -21.1671 2.36808 0.327138 2.08708
3757 1 0.0530124 21.476 0.209372 -0.307814 4.40844 0.282342
3758 1 22.3991 -7.7814 -15.3046 7.14009 1.46539 -3.34567
3759 1 -12.0745 8.35073 -20.4977 -1.2643 1.55434 -0.660012
3760 1 15.8025 24.383 2.94408 3.09938 -1.06863 -5.62278
3761 1 19.7147 -11.3063 -18.1658 2.70407 -1.96186 -3.60682
3762 1 9.7208 -10.8752 8.28425 -4.79077 -3.59738 1.48576
3763 1 12.9044 9.5484 6.9247 0.366118 2.93918 1.60517
3764 1 15.6187 -11.2818 19.1279 1.44718 2.59692 -1.4988
3765 1 -24.0237 -23.8304 -1.95338 0.964433 1.56349 -3.15248
3766 1 -12.5539 19.5676 12.7549 0.736743 0.586484 0.834984
3767 1 -11.711 -21.8645 1.67312 -5.83134 -3.53782 0.895164
3768 1 -1.67926 6.74282 -16.4027 0.511054 0.188078 -4.81766
3769 1 -22.4845 -18.1802 9.45855 -1.1049 3.67933 2.2779
3770 1 -8.13864 -4.98331 8.57638 3.11198 -0.750764 -1.16626
3771 1 -16.222 17.3347 20.3217 -4.92352 0.116418 -3.89738
3772 1 15.1317 -14.1558 -2.5287 0.443846 2.28796 -7.50538
3773 1 1.61964 -4.15966 14.6711 1.07011 0.359289 3.62468
3774 1 -7.97253 12.3532 3.87519 -2.96509 -1.94827 -1.73399
3775 1 3.26504 -2.23356 -10.4119 -0.674795 -0.854756 2.83985
3776 1 9.74378 -5.91777 16.6925 -0.773839 1.77233 3.32187
3777 1 11.4308 -6.66565 -0.615145 1.27505 1.8389 0.507939
3778 1 6.41278 13.5886 -11.2506 3.30642 -2.30925 -0.959533
3779 1 -8.83591 0.739355 7.73939 2.91978 0.620833 2.29372
3780 1 22.7968 19.8641 -17.4227 0.465275 0.0731837 -3.68684
3781 1 -5.23828 -4.58506 8.53963 -3.28833 0.564781 -3.36866
3782 1 0.100382 -13.8672 -17.5053 -4.93393 3.07626 0.294133
3783 1 20.9092 18.7252 4.67078 -5.46153 1.96196 0.4822
3784 1 13.4448 0.738028 2.65327 1.31625 -4.43773 -0.233084
3785 1 -2.53982 -22.4523 -23.948 -0.861077 2.11401 -4.8861
3786 1 20.331 6.83448 17.9184 -2.47488 -1.3108 -1.04939
3787 1 10.212 20.3731 -17.0831 -4.60857 -7.08985 1.64244
3788 1 6.57159 15.1958 8.80795 -3.63048 -0.744727 1.40743
3789 1 20.086 24.8082 -14.408 -7.07717 -2.94512 -3.37399
3790 1 4.26808 -18.9006 -1.38151 3.45862 3.03235 1.07273
3791 1 -9.72944 16.9269 -12.0272 1.31469 -3.9447 0.451662
3792 1 -11.1795 -8.43052 11.0646 1.80828 0.631069 3.55342
3793 1 -13.7203 19.6877 2.42269 -5.79695 -3.16432 1.19719
3794 1 -4.13622 -20.5486 -9.75999 3.62365 -3.30929 -4.29103
3795 1 14.4441 22.4132 20.8183 1.64369 -0.86108 -1.37562
3796 1 -11.8511 -11.6561 -8.32635 5.76564 -3.76272 1.70327
3797 1 -15.3122 -14.9254 8.3338 -2.25786 -2.99836 -0.244275
3798 1 4.8309 2.50611 -1.53495 2.03074 -2.65166 -1.27668
3799 1 20.7769 21.3956 -7.41299 1.64425 2.99423 6.47181
3800 1 14.2746 2.27579 -1.57652 -2.94757 -0.483402 -1.32888
3801 1 3.93357 14.7989 -9.88188 2.26149 1.18731 2.15183
3802 1 7.37846 0.902169 -23.0669 0.956946 1.07935 -2.23116
3803 1 -18.9968 -4.8317 -24.2668 -0.438117 -0.582788 -1.62588
3804 1 13.1644 15.0704 11.0639 2.21887 -3.63446 -0.761403
3805 1 -5.59476 16.4207 -17.9281 1.95563 1.00702 -0.407889
3806 1 0.452459 1.65452 -4.08406 -0.922092 -1.90868 -3.42152
3807 1 -7.816 20.3547 -18.1883 0.562619 2.50477 5.4177
3808 1 9.92255 -13.1496 -23.0936 0.601731 5.05687 -1.93569
3809 1 4.06676 -21.8233 -19.5849 -1.80385 3.02711 -1.75403
3810 1 -18.7364 -3.62905 13.776 2.5252 -0.229123 1.52795
3811 1 13.3935 -14.1267 23.5277 -2.81013 -2.28486 -3.30332
3812 1 -4.20295 -15.1358 -0.0694248 -2.65171 -2.9905 -0.583089
3813 1 17.1105 5.24298 -0.231373 -0.0811495 -4.00798 1.78729
3814 1 3.39821 8.29634 11.0993 -2.9382 5.06844 -0.450252
3815 1 -0.508266 18.7321 22.7669 5.81379 1.41292 -0.145524
3816 1 -14.8559 -8.62613 3.09461 -3.45884 1.08209 1.86639
3817 1 7.60625 8.35486 -0.839126 0.401338 0.697014 0.712169
3818 1 13.1483 16.3229 23.8594 0.251273 1.30189 -2.07925
3819 1 4.86675 21.8397 14.8261 0.704315 -1.29033 -0.550522
3820 1 23.1176 12.5441 -7.44173 -1.62535 0.55898 -3.1787
3821 1 10.8008 -11.8721 14.398 -0.502079 -4.00959 -0.349498
3822 1 9.79382 6.90427 8.52784 -0.566309 1.776 -0.653262
3823 1 -6.72172 -19.5543 -8.99032 1.44302 1.03976 4.27013
3824 1 -8.71574 -23.0383 -6.74365 1.74151 0.306722 0.316478
3825 1 20.9747 -13.8427 11.842 0.260786 5.55953 -0.00262618
3826 1 -2.29562 16.9211 -15.4625 1.15942 0.25094 5.88147
3827 1 1.00516 7.10856 19.4088 -4.19506 1.03202 2.7742
3828 1 -18.1488 18.0379 -18.8803 -3.50363 -0.390288 -1.49995
3829 1 -12.7756 -16.1804 -5.39858 -3.83816 -0.707632 -2.61173
3830 1 15.9935 -11.4503 -13.0224 1.83063 1.06899 -0.256568
3831 1 -2.91227 22.0195 -0.716015 -2.7253 0.806756 0.850876
3832 1 22.6446 -0.447503 4.20327 0.614919 -0.496733 0.0329636
3833 1 19.3939 -0.671515 -11.2641 -4.33966 -0.223567 -1.10578
3834 1 7.32526 5.81416 4.61214 3.11507 -4.52326 -3.00716
3835 1 21.8839 -23.5491 -2.73903 4.82918 -7.62751 -3.28427
3836 1 22.4113 12.2484 -0.243763 0.295517 6.75145 -1.04855
3837 1 10.9627 13.5787 4.52478 0.420181 -0.486713 5.10617
3838 1 -6.10248 3.71464 -3.18993 2.32954 0.600615 3.68686
3839 1 19.1993 6.1263 2.52281 3.90299 0.363287 -1.47502
3840 1 -11.2101 -21.3198 13.3265 3.67141 -2.75819 2.45786
3841 1 21.6097 3.55427 10.8987 4.27584 -1.79179 4.05426
3842 1 -24.2157 1.90698 21.7141 3.92014 3.51809 1.94515
3843 1 -1.18701 -17.1124 14.1456 3.5918 -1.99284 3.17061
3844 1 -22.591 -13.9422 7.00339 2.47651 -2.32265 -1.85826
3845 1 -3.7998 4.41177 -23.3141 3.60706 1.49815 -1.90829
3846 1 -21.9443 21.613 21.0641 5.31229 -4.58085 -0.397895
3847 1 -16.786 -16.4409 -14.3511 -2.25666 0.737741 0.240949
3848 1 6.09113 -15.6339 6.04851 -5.93707 -3.76195 4.82687
3849 1 18.031 12.3742 -23.209 1.53917 -1.99664 0.433815
3850 1 20.4498 -19.4382 22.5135 0.447682 -0.906509 4.85399
3851 1 -3.09532 5.17195 -1.96234 2.52028 1.4428 2.74868
3852 1 -5.48748 19.6566 15.4763 1.19247 -0.139334 2.33005
3853 1 20.327 -12.9453 3.31777 -5.70954 -5.67533 2.94873
3854 1 17.534 12.1917 -3.66641 1.27194 7.27233 2.47916
3855 1 -3.8412 -5.72602 23.4378 -1.37431 -0.177012 -0.920804
3856 1 14.084 -18.5913 -4.00595 -1.8053 -2.65932 -1.67801
3857 1 -12.7086 -22.5088 -12.8273 -0.731749 0.51573 -1.14147
3858 1 15.7915 6.53555 6.33714 -3.36952 -1.61839 3.28145
3859 1 22.364 18.182 10.2759 1.60181 -2.8684 -3.85725
3860 1 14.4186 -15.0494 -15.2361 -4.19984 -1.05474 1.40713
3861 1 -17.5568 -13.8162 21.5237 3.77708 2.82577 1.65418
3862 1 -4.2182 0.433227 -17.8925 -2.7873 3.57718 -5.31461
3863 1 -13.4055 -3.64222 13.5695 -2.21879 -0.738012 -0.298736
3864 1 -3.88197 -3.25298 -15.624 -2.8599 -0.0920336 -3.20571
3865 1 1.14281 -22.5903 15.0198 7.07411 6.32119 0.940654
3866 1 10.75 -13.9891 6.6414 2.07352 0.38818 1.28658
3867 1 23.9346 1.40272 2.18934 0.634132 -2.38089 0.00719252
3868 1 5.91676 6.16232 -1.8211 -1.26805 -1.64156 0.722353
3869 1 -8.07683 4.65829 9.11525 -8.09145 0.916233 2.21333
3870 1 14.7009 -19.3893 -9.87169 -5.14658 -2.42335 -2.44231
3871 1 18.5279 0.0961775 20.7775 -4.86716 1.65799 -4.41695
3872 1 22.6229 -22.4487 -7.37253 -0.669628 2.69271 -2.52667
3873 1 -3.64537 6.28826 13.9792 -1.32601 -3.61794 -1.64381
3874 1 -19.3748 -22.6116 -15.3 1.47288 2.09245 1.8168
3875 1 23.6696 1.45321 6.31509 0.365982 0.748122 2.73014
3876 1 -23.06 -11.1012 20.0385 3.81419 -0.714322 4.27966
3877 1 -23.3969 3.32074 -5.2803 -1.66346 4.16378 0.0701568
3878 1 7.81684 -16.9671 7.99117 -4.75173 -2.22971 2.17928
3879 1 17.7309 -15.0339 23.2547 2.01915 -1.5214 -0.134302
3880 1 -8.01272 18.6078 -24.1321 1.76414 0.204849 2.6248
3881 1 -14.6994 0.789548 -13.5918 3.32189 -2.24698 3.49232
3882 1 23.9526 17.4668 -2.52984 0.302177 0.733217 -1.05357
3883 1 21.5892 14.7855 -10.1668 1.19259 -0.358957 -3.52675
3884 1 12.4804 -18.9433 -6.68058 2.15503 -1.96154 2.73478
3885 1 12.3552 24.1766 14.9367 -1.46508 2.31384 -3.06558
3886 1 -11.5703 -13.9575 -6.69082 -1.62976 -1.53393 -0.877471
3887 1 1.2024 -11.8883 -19.3385 -1.71047 1.82312 0.845918
3888 1 -5.77666 5.26875 -19.1683 -1.30733 -1.31183 3.47938
3889 1 -16.2697 15.1833 18.615 -4.85142 -0.938525 -4.20492
3890 1 1.65838 19.3263 14.8297 4.0528 2.23858 -3.57547
3891 1 5.31169 -16.4785 17.7225 -5.87896 5.09148 3.30705
3892 1 -11.5619 21.2687 5.7606 2.11581 0.932002 -0.362875
3893 1 -6.69955 10.6967 11.555 -4.42349 0.541895 -2.76273
3894 1 10.4985 12.1583 -13.1225 -5.2297 -0.264483 2.27337
3895 1 13.9699 -6.22879 0.21262 5.68045 1.33408 -0.801045
3896 1 -9.08962 -8.93253 -2.02777 0.569685 2.51458 2.19332
3897 1 6.69552 13.9654 23.9631 2.49784 1.37202 1.81513
3898 1 18.5189 -2.74434 17.6933 5.24986 1.02037 1.20675
3899 1 5.43885 9.10269 17.1226 -1.63715 -2.09404 -1.94964
3900 1 13.1757 -17.1343 -13.671 -2.97742 0.528041 6.38815
3901 1 -16.3492 13.0251 -12.1133 1.71999 1.20449 -0.794007
3902 1 11.8448 11.77 -7.87277 0.0209254 -1.76961 2.75989
3903 1 -19.0111 -14.8394 3.38614 -0.759119 -0.225172 1.02742
3904 1 10.3997 -5.70402 -8.03541 4.02837 0.719135 0.0193856
3905 1 0.0621725 -11.2488 4.92363 4.42821 -4.00578 0.00916806
3906 1 -16.1998 8.073 -7.77858 -0.144859 -2.0323 0.753315
3907 1 -21.2789 -0.376562 9.97634 0.730888 -3.38197 -1.91736
3908 1 23.4502 -14.1618 14.9614 0.753849 -1.32219 0.411996
3909 1 0.97381 -10.6971 20.67 2.2514 -0.406205 0.171688
3910 1 -6.19788 16.7771 -6.7439 3.92866 -4.17315 0.183852
3911 1 20.4538 18.6868 0.114076 3.48225 2.28521 -2.31059
3912 1 -9.04761 -9.01249 1.02164 0.895454 -0.684243 -0.526652
3913 1 -8.19787 5.03759 0.440196 -2.18919 -3.17606 -1.6494
3914 1 11.8895 -11.4681 -5.47221 1.59473 -3.432 4.48935
3915 1 6.80598 -2.05587 6.98641 -0.0038698 -1.88948 -0.178563
3916 1 22.4042 -13.2936 22.8614 -0.20392 -1.59961 -2.51795
3917 1 1.65233 -5.9005 -8.8727 3.21166 3.65022 0.665938
3918 1 12.377 10.5052 -17.6282 3.80414 -0.379069 0.484262
3919 1 7.31834 -14.8207 19.2523 1.73472 -0.139678 -1.57317
3920 1 -10.8664 10.206 18.5973 -1.71499 0.837671 -5.53162
3921 1 16.7065 7.39433 -19.5329 2.10401 -1.48296 -1.64567
3922 1 -15.8239 -15.6417 -17.8459 3.62857 2.80661 0.714877
3923 1 -22.2275 4.32678 -12.7328 -2.75273 1.14301 3.62771
3924 1 -10.8196 -5.96138 9.75269 0.632371 0.404717 -6.2115
3925 1 -22.6909 5.33315 2.95811 -1.48284 -1.01202 -4.05816
3926 1 8.6048 -4.43302 23.5068 4.63389 -0.0569236 1.52559
3927 1 12.671 16.912 -2.7634 -4.56638 -2.40845 0.222115
3928 1 -17.7345 16.1424 24.1405 -1.19377 -3.7425 -2.30347
3929 1 -2.00386 11.3737 -8.70335 -1.21651 0.042468 -3.68031
3930 1 13.6465 19.8271 -0.322608 -2.46494 5.39916 -4.13068
3931 1 -1.71299 9.45301 1.68605 -1.84232 -1.43216 0.735074
3932 1 22.6535 6.0216 12.2895 -1.02237 2.16491 -4.23734
3933 1 -2.79392 -10.0208 20.9281 -2.17861 1.16272 3.11664
3934 1 20.7202 3.28299 -13.5392 -0.113651 4.39545 -1.0638
3935 1 12.4314 -16.0985 -20.3698 -3.38127 -1.00002 3.0717
3936 1 -0.0139216 -23.1458 23.618 -3.88964 3.45771 3.14644
3937 1 15.1446 -14.5689 -19.7145 1.62519 -3.70522 -6.25372
3938 1 19.4267 12.3069 18.5948 -3.31319 -0.562994 -6.34329
3939 1 21.1539 -2.61544 14.8414 0.114192 -0.330473 -0.99202
3940 1 -3.29172 22.9402 -9.28767 -2.64463 -0.185726 4.05207
3941 1 -17.6658 1.02032 24.1117 -2.07426 -2.25831 1.58731
3942 1 9.59915 -22.221 15.9375 -1.68888 0.594048 -4.95155
3943 1 -21.5531 -19.1705 2.64463 -3.64777 -1.68017 -1.31549
3944 1 -12.85 -8.25107 -14.3733 -3.12751 -1.73206 3.72927
3945 1 -21.5977 -12.0985 -15.1348 0.409424 4.48303 -2.50697
3946 1 -4.94532 16.0412 10.2529 2.93565 -1.15477 1.47103
3947 1 -22.1401 8.9271 -23.0537 4.07985 4.2411 1.0453
3948 1 10.6628 16.4751 -17.9513 2.17899 0.895358 0.173309
3949 1 3.51339 -13.519 -13.0125 5.12102 4.49134 2.18299
3950 1 -4.88716 -0.483646 -20.6685 1.26811 0.469217 -3.48436
3951 1 5.19524 1.72999 -14.0746 0.425018 2.91767 -0.627664
3952 1 -5.33221 -6.10817 -18.1196 -1.02153 -6.02192 2.12567
3953 1 19.9783 -18.5143 15.3419 0.643321 0.944803 3.97399
3954 1 3.96165 2.70483 -16.4227 0.740871 0.952367 -0.00751823
3955 1 -6.82206 20.0293 11.8157 -0.642984 -2.80558 -1.94114
3956 1 -12.5362 12.1975 -3.62914 -4.11006 -0.704384 -0.659421
3957 1 18.6466 -21.4414 -18.717 0.0320523 -2.68822 -1.89786
3958 1 -1.78179 7.36662 -5.46612 6.07102 -1.03136 3.24448
3959 1 -20.4148 -5.55555 -20.5158 -0.733789 2.52989 -0.792087
3960 1 18.4595 -12.1397 -11.4908 1.30716 -2.82757 0.850503
3961 1 -2.63647 -20.5043 -2.91924 0.438546 4.54135 0.434206
3962 1 2.38763 -13.9363 5.30046 0.539081 -4.28106 -0.417481
3963 1 -15.7554 -16.2043 -1.87084 -0.51545 -6.96555 -2.75423
3964 1 8.76551 10.8521 17.0411 3.98032 -1.96984 -3.31753
3965 1 -5.27289 0.573181 1.33598 -2.11689 -3.25587 0.146753
3966 1 -19.9599 19.4384 8.70587 -0.756081 -1.89536 1.33104
3967 1 1.34349 -6.36494 -4.98073 -4.10133 1.27944 -1.69012
3968 1 -1.73727 3.45211 -4.06644 -0.399536 1.10551 -2.56821
3969 1 16.8558 -22.9261 20.8001 2.2587 5.01439 2.95789
3970 1 -6.24409 20.3345 22.8803 3.65096 0.409886 -1.26217
3971 1 -4.59268 -1.75572 21.4744 0.237491 1.48148 2.92847
3972 1 -5.02518 -9.25992 -11.079 3.51634 1.11807 -0.822232
3973 1 -12.2339 -20.6847 -6.26286 0.45419 -1.65695 4.91427
3974 1 6.52297 23.7024 13.1444 2.17087 4.39662 8.79834
3975 1 3.91902 -0.262192 -17.1616 2.60451 1.87411 1.67441
3976 1 -3.86855 13.9727 2.38216 1.04839 0.708045 2.70059
3977 1 -9.12069 -17.7505 -19.6665 -2.40202 -4.44453 -1.60093
3978 1 -1.3921 20.1914 -11.7906 -4.61608 1.45944 -0.544045
3979 1 -10.9623 -23.9863 3.68167 -1.30438 -1.58215 5.89061
3980 1 -22.4671 -15.4746 -13.3727 -4.18396 2.05149 0.253458
3981 1 11.3798 -8.56413 5.14195 3.28723 -4.37886 3.48252
3982 1 8.14581 -3.64482 -3.56519 3.94848 2.57978 2.20737
3983 1 -21.6538 9.01494 9.67969 -0.629445 0.416414 -3.49428
3984 1 -6.24368 14.0367 -18.8698 -1.93741 4.33108 -3.03162
3985 1 -12.2934 19.4697 7.83499 4.09636 -1.19686 0.125115
3986 1 16.0869 20.2251 -15.2959 0.814401 1.46894 -1.4532
3987 1 12.7716 15.4174 17.6015 1.39345 1.01361 1.19447
3988 1 -23.0974 19.5388 19.2869 -0.41981 -4.80896 0.359278
3989 1 -15.22 -10.1372 -13.8576 -0.296163 5.60097 2.04233
3990 1 10.4179 4.58922 -22.7242 -0.478161 1.95333 0.825733
3991 1 -17.8982 8.12896 -24.0535 1.31669 1.33454 -1.35103
3992 1 22.3875 9.24507 -3.45945 2.69313 3.66101 1.09102
3993 1 -6.21405 -10.1237 -6.16566 1.72971 -4.11794 -3.59337
3994 1 -15.9423 -21.3303 -21.253 1.19355 3.10098 3.69814
3995 1 4.31474 -22.9306 1.83238 -2.96592 1.59776 -0.323437
3996 1 4.51821 -14.9256 3.58831 2.65824 -3.09165 2.63492
3997 1 20.2574 -21.4076 -9.89986 0.599568 0.313235 -4.38408
3998 1 -11.9617 -4.04793 0.450813 1.93102 2.42781 -0.327885
3999 1 -6.87526 17.2043 11.9095 0.257301 -1.79694 7.10038
4000 1 -17.7148 10.5227 23.237 2.46266 -0.585585 2.69527
4001 1 -10.1067 25.1967 -4.399 -0.0969468 1.55109 3.02904
4002 1 -9.84312 27.7575 -5.72242 4.74422 -0.441641 -0.976951
4003 1 -7.18782 28.264 -4.52451 -1.19802 0.230688 4.34022
4004 1 -5.96915 26.0279 -5.38809 2.29107 1.74698 1.86749
4005 1 -11.299 25.8133 -10.2667 -2.25279 1.93137 1.17894
4006 1 -10.5385 27.7166 -8.39982 5.25807 -3.43597 -1.19347
4007 1 -7.70001 27.8095 -9.02726 4.70331 -1.48221 -1.98262
4008 1 -6.38102 25.5694 -8.02693 1.44593 -6.36592 -2.67508
4009 1 -9.91955 25.4038 3.10445 -1.74141 -3.18703 1.05055
4010 1 -9.03641 27.7326 1.79278 7.95669 -1.31757 0.809159
4011 1 -6.43139 27.9316 2.71481 2.54486 -5.57321 2.7983
4012 1 -4.72531 25.9923 1.94135 5.29683 -4.81549 -2.21733
4013 1 -9.93774 25.1603 -1.36245 1.98622 -1.24228 2.28338
4014 1 -9.47542 27.8959 -1.04102 -2.09389 4.58619 -2.71177
4015 1 -6.94713 27.989 -1.77336 -2.20664 1.18488 -2.61201
4016 1 -4.48429 26.8324 -0.754115 2.20494 -0.836585 0.986003
4017 1 -11.0774 25.6098 9.46993 -0.119571 -3.08698 -1.18646
4018 1 -9.53844 27.8769 9.33549 -2.66689 0.405387 -1.17124
4019 1 -6.8151 27.7208 9.69837 1.68857 4.21585 -0.0216929
4020 1 -4.6503 26.1009 9.29295 -0.709644 -2.33352 -2.50687
4021 1 -10.5962 25.4151 5.80342 -1.00268 2.89361 -1.14028
4022 1 -9.01701 27.7989 6.41176 4.82136 2.32947 5.76045
4023 1 -6.34345 28.0865 5.59725 1.18947 -2.69807 -2.23708
4024 1 -4.66203 26.0565 6.55181 -0.559854 -0.58156 3.56803
4025 1 -10.6732 30.1716 -4.72362 -0.156943 -0.885152 4.63196
4026 1 -9.9447 32.8717 -5.592 3.25127 -0.54405 0.441956
4027 1 -7.25081 32.5439 -4.64723 -0.052611 -2.82152 4.89034
4028 1 -5.92245 30.3094 -5.87105 -0.152065 5.10531 -0.644887
4029 1 -11.625 30.1334 -9.05175 -1.66232 1.65942 -0.377313
4030 1 -10.5762 32.6858 -8.35232 3.37346 -8.13767 2.58505
4031 1 -7.94195 32.6842 -9.22424 0.531393 5.65994 -2.11996
4032 1 -6.49284 30.4285 -8.66755 -3.63823 -3.83035 -3.8237
4033 1 -10.1495 30.3162 2.70424 -3.63741 -0.0451959 0.282194
4034 1 -9.55535 32.8889 1.83435 -5.98511 -1.0252 1.20484
4035 1 -6.85256 32.8029 2.7495 -3.48589 -2.85067 4.41804
4036 1 -5.44539 30.414 1.83466 0.176749 -3.41849 -0.00398549
4037 1 -10.571 30.2106 -2.16355 1.259 -1.27786 1.46298
4038 1 -9.64425 32.4713 -1.07923 -0.128692 2.22851 -1.63845
4039 1 -7.02821 32.5761 -1.81058 2.76181 1.41086 -0.185228
4040 1 -5.64118 30.4667 -0.984582 1.04853 1.38961 3.40292
4041 1 -10.4854 30.26 10.4705 1.3782 2.57131 -0.690627
4042 1 -8.80936 32.2323 9.68855 -0.591025 -1.781 -2.62649
4043 1 -6.0975 32.2019 10.0359 1.43706 -0.0481002 -0.973415
4044 1 -5.17664 29.9673 8.99972 -0.680037 -2.05978 3.20924
4045 1 -10.5426 30.2124 5.62189 -3.18351 0.152605 3.98299
4046 1 -9.07168 32.3525 6.78964 -4.36081 0.175074 -0.0960742
4047 1 -6.56141 32.6253 5.6208 -1.62727 4.06801 -4.32699
4048 1 -4.89753 30.5352 6.26897 -1.84124 -1.7811 4.84179
4049 1 -11.0338 34.9401 -4.35186 0.0834872 1.3343 3.20775
4050 1 -9.78037 37.1374 -5.48086 3.60332 0.320131 -3.74123
4051 1 -7.13219 37.3222 -4.60547 -1.03747 2.27745 1.83781
4052 1 -5.98029 35.0058 -5.54116 4.13943 -0.794848 4.37571
4053 1 -11.2266 35.2501 -9.04337 -5.40875 -1.11432 -5.15472
4054 1 -10.1312 37.4827 -8.2525 -0.340317 -5.98137 1.64523
4055 1 -7.50515 37.2967 -8.95987 -0.0764556 -1.76172 3.02872
4056 1 -6.46294 34.8345 -8.37316 -1.14482 -0.244383 -1.01712
4057 1 -10.5928 34.9159 3.49051 1.93441 -0.797986 0.865374
4058 1 -9.7366 37.1813 2.25793 0.821492 -1.15924 1.41253
4059 1 -6.96409 37.3516 2.62655 -4.34613 -3.65279 4.58424
4060 1 -5.5983 35.1828 1.89904 3.30928 0.589758 1.87952
4061 1 -10.876 34.9807 -1.49941 -0.417327 2.06335 -1.91649
4062 1 -9.63037 37.2555 -0.614225 -2.10095 -0.425077 -1.86506
4063 1 -7.08552 37.2435 -1.73137 -2.1907 2.02861 0.167599
4064 1 -5.67856 34.8695 -0.796655 -0.581668 0.0921507 -2.65701
4065 1 -9.95357 34.4937 10.7818 2.30588 -0.914485 3.84933
4066 1 -8.68986 36.8406 9.78636 -8.47708 -2.90907 -0.838857
4067 1 -6.05253 36.9863 10.6382 -1.0082 1.99597 -4.16769
4068 1 -4.90841 34.6666 9.30339 -2.88262 2.71007 -3.72249
4069 1 -10.4641 34.7416 6.16545 1.89975 -1.52685 1.24682
4070 1 -8.73324 36.6626 7.04117 -0.52169 -0.504989 4.20651
4071 1 -6.5634 37.1909 5.44525 -1.33491 1.04411 -3.24422
4072 1 -5.201 34.8659 6.37849 -2.68942 2.70921 -3.55612
4073 1 -10.827 39.296 -4.09307 0.0482419 4.22549 -1.2044
4074 1 -10.2731 41.818 -5.14586 -2.84539 0.891991 -3.68595
4075 1 -7.4988 42.0629 -4.53191 -1.42147 1.00032 0.834983
4076 1 -6.18225 39.8568 -5.77312 0.739767 -1.19736 -2.29509
4077 1 -11.6897 39.6835 -8.89449 -0.806099 4.29924 0.587854
4078 1 -10.6899 41.9246 -7.66629 -4.87223 0.0607929 -2.85548
4079 1 -7.89317 41.787 -8.97364 3.78432 5.78392 -0.861768
4080 1 -6.286 39.7983 -8.52096 0.337606 -2.2422 2.60817
4081 1 -10.3705 39.5631 3.58224 4.77286 -1.10259 2.96471
4082 1 -8.88355 41.7211 2.33225 1.92799 -1.0273 0.314438
4083 1 -6.21807 41.9768 3.30594 5.68651 -0.0868626 -1.66844
4084 1 -5.46943 39.6512 1.83038 -2.19892 -5.22963 0.554265
4085 1 -10.8163 39.6853 -1.29282 -0.782473 1.11775 0.179178
4086 1 -9.33218 41.9028 -0.401002 2.72348 2.27873 -1.76636
4087 1 -7.17828 41.8626 -1.77466 3.33593 4.76314 3.6216
4088 1 -5.56175 39.653 -1.07776 1.47709 3.4201 -2.52629
4089 1 -10.0282 39.0825 10.424 4.90725 -3.45842 -0.231926
4090 1 -8.97738 41.7496 10.2745 -0.390456 5.07381 1.27662
4091 1 -6.20814 41.2972 10.1089 0.764975 -1.94777 -0.370683
4092 1 -4.8308 39.164 9.19906 -0.254115 -5.05812 -0.243707
4093 1 -9.9956 39.0373 6.36101 1.77214 -1.20163 -1.73393
4094 1 -8.86084 41.2805 7.471 4.5054 2.36134 1.8702
4095 1 -6.45227 41.859 6.19303 -1.22252 -0.554912 0.19199
4096 1 -5.14754 39.3455 6.38803 3.7918 0.454393 2.83271
4097 1 -11.2851 44.0285 -3.82652 0.857164 3.54728 -4.23207
4098 1 -10.411 46.2051 -5.02378 -2.84712 -2.57122 2.22105
4099 1 -7.77235 46.9659 -4.30596 -1.76741 2.64891 2.25178
4100 1 -6.41721 44.4513 -5.40975 1.29452 1.2799 -0.252141
4101 1 -12.1338 44.4286 -7.94023 -1.30166 -5.05583 3.22169
4102 1 -9.59773 45.7666 -7.54031 -1.5243 3.59226 0.431595
4103 1 -7.7315 47.4563 -8.80875 0.258652 -3.31852 1.92828
4104 1 -7.01171 44.2396 -8.11116 0.251562 -0.78353 4.89756
4105 1 -9.84864 43.869 3.83851 -2.74166 -0.188516 -2.96379
4106 1 -9.41351 46.5243 2.82856 3.23419 2.02534 2.57755
4107 1 -6.7092 46.5269 3.3276 -1.47783 -1.69599 3.94133
4108 1 -5.39639 44.5643 1.72863 0.789233 -1.26101 2.19321
4109 1 -10.6628 44.1076 -1.09912 -1.19907 -0.702129 -1.33453
4110 1 -9.45932 46.4812 0.198856 -4.63881 -1.712 2.96924
4111 1 -7.34782 46.3536 -1.72276 0.419069 0.05865 0.36554
4112 1 -5.69327 44.3542 -0.89899 2.80761 3.13302 2.38471
4113 1 -9.91935 44.0141 11.2717 -5.13333 -2.018 -2.22055
4114 1 -9.09335 46.5172 10.1132 -3.62441 0.903182 1.36407
4115 1 -4.95962 46.616 10.7927 -4.13907 -2.80781 -2.93257
4116 1 -5.03763 43.7221 9.91465 -2.84902 -0.877015 1.19228
4117 1 -9.90611 43.6747 6.54888 -3.67885 1.19571 3.87719
4118 1 -8.5662 45.9732 7.46023 5.1261 2.00874 1.74239
4119 1 -6.30052 46.3105 6.19388 1.29393 -1.08498 3.01514
4120 1 -4.77842 44.1832 6.98291 -1.15674 1.38077 0.321746
4121 1 -3.22538 25.3685 -4.73634 3.49931 -1.08252 -0.324946
4122 1 -2.19373 27.7449 -5.65613 2.84655 0.406847 2.72485
4123 1 0.556449 27.862 -5.03863 -1.73215 -4.1608 -1.57152
4124 1 1.60715 25.559 -5.90282 -0.367103 2.28186 5.37503
4125 1 -4.11313 25.617 -9.44384 0.151087 0.0872449 0.151288
4126 1 -2.39959 27.7629 -8.70403 3.71532 5.19147 -3.21281
4127 1 0.309905 27.4044 -9.17642 1.09843 -2.7891 -0.874655
4128 1 1.63468 24.9758 -8.65574 -0.0741477 -0.511649 -2.40441
4129 1 -1.93444 25.9516 3.12261 -1.86112 -1.75407 2.14503
4130 1 -1.34761 28.2983 1.72819 0.448286 4.30149 4.41074
4131 1 1.43173 28.0756 2.10894 0.416293 0.62987 3.84295
4132 1 2.13971 25.8865 0.700546 0.0590281 3.59437 -2.90504
4133 1 -2.64069 24.8938 -1.85817 7.18016 3.60999 3.81432
4134 1 -1.68145 27.825 -0.999704 -0.150119 2.89538 -4.59607
4135 1 0.746028 28.0286 -2.33599 3.69026 -1.36491 -0.735793
4136 1 2.28898 25.7318 -2.24449 0.672824 -1.85465 0.614823
4137 1 -1.75305 25.1424 8.62618 -1.49171 3.31373 -3.98471
4138 1 -0.696126 27.7134 9.03374 -0.683377 1.62247 -0.235963
4139 1 1.98741 27.958 9.85411 1.81484 -2.32144 0.227097
4140 1 3.3531 25.8102 8.69957 -1.01846 -5.42778 0.828318
4141 1 -2.00215 25.9786 5.93776 3.6262 -1.04458 -2.43153
4142 1 -0.752368 28.3168 6.33484 4.16919 0.0292379 0.918186
4143 1 1.71136 28.2759 5.09655 -0.435953 -3.69334 1.5657
4144 1 3.34149 26.1828 5.87311 -2.96616 -3.76883 -5.33305
4145 1 -3.254 30.3337 -4.83681 -5.34514 3.58049 3.28161
4146 1 -2.16235 32.6966 -5.62992 3.44272 4.0853 1.04302
4147 1 0.561342 32.6651 -4.92152 0.362 0.701665 -2.41694
4148 1 1.53684 30.2156 -6.31917 -1.47413 -1.31867 0.0860183
4149 1 -3.84918 30.3311 -9.30481 1.79065 4.80409 2.61402
4150 1 -2.28135 32.4279 -8.31875 -0.245474 0.612152 4.03573
4151 1 0.114719 32.476 -9.67976 -1.69259 2.43565 3.20715
4152 1 1.36025 30.0281 -9.07383 1.91099 5.1 5.36883
4153 1 -2.85618 30.6582 2.50901 0.0667722 -2.13187 -2.35351
4154 1 -1.46836 32.8149 1.52291 1.58657 0.047534 -1.34285
4155 1 1.13579 32.9172 2.27389 5.1795 -1.46856 -6.93721
4156 1 2.51699 30.4161 1.36367 2.90317 -3.27772 0.432351
4157 1 -3.10118 30.1001 -2.15407 -2.57176 4.4612 4.47164
4158 1 -1.51846 32.5164 -1.26479 -0.861111 -1.38274 -4.43579
4159 1 1.1162 32.5172 -2.05896 -0.19474 5.07792 5.61797
4160 1 2.62125 30.1022 -1.53018 0.562313 -2.06763 3.29324
4161 1 -2.39206 29.87 9.89616 0.250269 1.68135 0.338914
4162 1 -1.29555 32.2849 8.9974 -2.26004 4.14859 7.19607
4163 1 1.35661 32.2176 9.45394 1.34317 3.56012 -1.47423
4164 1 3.11135 30.2893 8.66915 0.437107 -2.13153 -1.92965
4165 1 -2.3438 30.2067 5.16609 3.14109 -2.27014 -1.55274
4166 1 -0.953823 32.6104 6.30175 5.06039 0.8258 7.46847
4167 1 1.65973 32.592 5.02082 1.61344 -2.1665 0.3081
4168 1 3.15792 30.5489 5.91448 -8.13657 0.438932 -3.17571
4169 1 -3.25795 34.9861 -4.85608 -1.75661 0.800653 -0.146393
4170 1 -2.29313 37.503 -5.78467 -0.7401 -1.97537 -3.13363
4171 1 0.48601 37.3065 -4.97543 1.14255 1.66221 -1.95478
4172 1 1.63275 35.1003 -6.17726 -0.206632 -0.794189 1.48648
4173 1 -3.80664 34.8435 -8.5981 2.17841 -0.0965379 -1.97349
4174 1 -2.50302 37.5334 -8.81019 3.99847 -3.66073 -0.71907
4175 1 0.00989977 37.2241 -9.74941 0.361045 -3.84983 -1.54872
4176 1 1.51658 34.9452 -8.96148 1.82106 -1.97863 1.61911
4177 1 -2.76015 35.042 2.60232 -3.0557 -2.36789 -0.650015
4178 1 -1.50751 37.2599 1.41799 -0.583799 -3.21968 -0.110739
4179 1 1.09215 37.2154 2.26607 1.06814 -1.23004 -2.21342
4180 1 2.29618 35.0595 1.13754 -2.18284 -1.17108 2.34365
4181 1 -3.25585 34.6641 -2.07656 -2.0675 -2.10372 3.36253
4182 1 -1.66966 37.1589 -1.3322 -3.08536 2.53862 4.30273
4183 1 0.954898 37.2162 -2.3129 -2.3906 -3.54958 0.780454
4184 1 2.39 34.8928 -1.60032 3.68847 4.82261 0.0960839
4185 1 -2.1984 34.6604 9.9247 -0.636165 0.233045 0.367251
4186 1 -0.931003 36.919 8.92995 4.12146 -3.65626 2.21091
4187 1 1.74859 36.7842 9.32622 4.39521 2.40155 4.79016
4188 1 2.9328 34.3329 8.86063 -1.7493 -3.27924 -3.48197
4189 1 -2.46759 34.942 5.5869 -1.18652 -5.77502 -3.17987
4190 1 -0.936764 37.1343 6.24466 -1.96443 0.860026 4.29756
4191 1 1.69338 37.0058 5.18732 -1.0171 -0.580429 0.171007
4192 1 3.10587 34.6451 6.00308 8.00238 1.26473 0.802036
4193 1 -3.54588 39.78 -4.78946 3.98558 3.13315 -3.62175
4194 1 -2.52847 42.165 -5.66975 4.41407 2.00904 -1.3171
4195 1 0.376628 42.1013 -5.28952 6.78282 -0.180825 3.96245
4196 1 1.6376 39.702 -6.08347 2.42835 1.64761 -1.23786
4197 1 -3.86147 39.8686 -9.53826 5.14819 -3.98342 -1.78734
4198 1 -2.91878 42.2114 -8.52788 0.861429 -3.52014 -0.268308
4199 1 -0.0834709 41.9759 -8.92871 0.718618 3.91269 -0.0852425
4200 1 1.29131 39.5426 -8.9817 -2.75949 -0.334184 -2.04203
4201 1 -2.8634 39.2919 2.57298 -2.09133 -4.06731 0.0871273
4202 1 -1.50508 41.7397 1.8497 2.30897 -6.66096 -0.680298
4203 1 1.2217 41.6676 2.53154 3.46846 -3.62091 -2.01883
4204 1 2.50412 39.4318 1.17861 2.50173 -3.62427 -2.13731
4205 1 -2.97447 39.5346 -2.09963 -0.364891 3.66132 -0.690468
4206 1 -1.52593 41.7649 -1.20217 -0.737951 1.27637 2.06624
4207 1 0.897716 42.1685 -2.56625 1.77945 -1.85265 -4.49127
4208 1 2.32847 39.6442 -1.56738 0.116807 1.92931 0.0699782
4209 1 -2.20706 39.3503 9.89385 1.61053 -1.54095 4.20725
4210 1 -0.881987 41.6945 9.08696 0.136039 1.89374 -0.0364615
4211 1 1.72931 40.7001 9.51174 0.197272 1.35494 0.755728
4212 1 3.43001 38.7544 8.48306 -0.445226 2.06877 -2.66364
4213 1 -2.59554 39.5303 5.56603 3.45406 2.7624 -3.80277
4214 1 -1.1873 41.8843 6.24555 -0.221388 1.19065 0.118529
4215 1 1.41023 41.8867 5.3256 2.60808 3.61493 0.278626
4216 1 2.93045 39.4933 5.96636 -2.67147 -2.02232 -0.168787
4217 1 -3.76971 44.5195 -4.84147 0.424314 -0.39481 -1.0065
4218 1 -2.12872 46.7907 -5.32424 0.718807 -0.824609 3.60873
4219 1 0.59997 46.7097 -4.79133 -1.06985 -3.37924 -0.0803417
4220 1 1.64381 44.5107 -6.23912 -1.99136 -4.53506 0.485569
4221 1 -4.39362 44.4134 -8.82949 0.161083 0.596097 -1.64512
4222 1 -2.9791 46.7507 -7.91171 -6.73056 -2.99019 6.95286
4223 1 -0.537148 46.7477 -9.11711 4.63181 -3.29097 -5.68825
4224 1 1.12254 44.4462 -8.89759 0.159202 0.359348 -0.84846
4225 1 -2.63971 44.3077 2.793 -2.40622 0.867127 -0.226661
4226 1 -1.08602 46.1726 1.69944 -2.33764 5.35609 1.94098
4227 1 1.35639 45.9565 3.03765 -1.10324 -0.0243579 -1.8748
4228 1 2.71427 44.2542 1.25301 5.62656 0.574455 -1.05444
4229 1 -3.20895 44.0982 -2.08517 -1.20935 -0.504408 7.31941
4230 1 -1.29316 45.8765 -0.962874 -3.07058 0.47277 1.10809
4231 1 1.17582 46.7321 -2.18744 -2.83585 -4.23509 -3.71809
4232 1 2.29812 44.1967 -1.39469 -2.19001 -2.50541 3.71443
4233 1 -2.22939 43.826 10.0904 -2.44607 -3.75814 0.242709
4234 1 -1.04572 46.2448 9.74722 -4.32011 0.565989 6.92981
4235 1 1.82411 45.794 10.2439 0.449617 0.160941 3.79674
4236 1 2.8257 43.4959 9.11842 1.99228 -1.76372 2.97309
4237 1 -2.24478 44.2663 5.54291 1.8196 -3.41747 -2.0116
4238 1 -1.0308 46.5999 6.79777 -0.901158 0.346592 -2.04447
4239 1 1.57651 46.3739 5.76357 2.4216 2.01384 2.8762
4240 1 2.92859 44.065 6.32583 2.96579 -1.19429 0.2347
4241 1 4.48597 25.5789 -5.89258 -0.746521 -6.13086 -2.56566
4242 1 5.59002 27.9019 -6.66642 1.25888 1.40795 2.12006
4243 1 8.32312 27.7832 -6.32566 -5.34087 -1.57667 3.65661
4244 1 9.41296 25.5285 -7.37854 -0.673885 -1.98965 -0.50829
4245 1 4.29333 25.1408 -9.74314 5.24797 -2.79236 2.66144
4246 1 5.52873 27.6616 -9.47414 0.480707 -2.52386 -5.16755
4247 1 7.86422 27.6621 -10.898 2.10571 -0.00244113 -0.128721
4248 1 9.87485 25.7995 -10.1328 -3.81006 0.713749 -2.97171
4249 1 4.94419 25.9496 1.68094 -0.940363 -2.15235 -1.95829
4250 1 6.20966 27.9213 0.474503 0.514509 2.38853 2.45956
4251 1 8.89996 27.6684 1.30097 1.16038 -6.01724 0.753225
4252 1 10.5556 25.6754 0.371171 1.02237 0.457874 4.21103
4253 1 4.9252 25.2886 -3.28823 -0.357112 -4.45944 2.99178
4254 1 6.17195 27.5914 -2.41656 -1.5818 -0.837642 -0.029378
4255 1 8.76319 27.8036 -3.47486 2.90325 1.90808 4.19939
4256 1 10.5533 26.0449 -2.3851 2.77109 3.15593 -1.06168
4257 1 6.04768 25.8638 9.46821 -1.60117 1.65613 4.43872
4258 1 7.45526 27.7276 8.17314 1.53064 -1.78513 1.02833
4259 1 10.1307 27.5322 8.88909 0.200309 1.30707 2.97746
4260 1 11.7709 25.6979 8.15248 -1.2608 0.860105 2.84487
4261 1 5.59604 25.8887 4.25359 -4.07259 -4.624 -4.00898
4262 1 7.27324 27.9223 5.33559 0.761727 -2.47418 -2.79653
4263 1 9.80069 27.4834 4.03428 -2.92108 -0.411518 0.814293
4264 1 11.7037 25.57 5.24086 -2.85356 6.12519 0.788583
4265 1 4.20511 30.2288 -5.86464 3.11726 -1.52599 4.33157
4266 1 5.40801 32.3885 -6.65539 3.85387 1.36827 0.375119
4267 1 8.25608 32.2532 -6.1417 -0.064233 0.219023 4.09292
4268 1 9.01218 30.1777 -7.62228 4.01236 0.00848191 -6.22792
4269 1 3.9407 30.1423 -9.98218 6.50224 -4.68394 0.205268
4270 1 5.19762 32.5735 -9.37916 1.5617 -1.06117 -0.105056
4271 1 7.79527 32.6096 -10.4619 4.32052 -1.38991 -3.17547
4272 1 9.02498 30.0969 -10.5739 0.0465291 3.15961 -0.942902
4273 1 5.36764 30.3156 1.74266 -5.69061 2.49909 -2.39513
4274 1 6.35118 32.6496 0.999024 1.93586 0.68446 1.36488
4275 1 9.02689 32.3832 1.26994 -0.523542 -1.86989 -4.40362
4276 1 10.0669 29.9189 0.363754 -1.82283 1.99862 0.220334
4277 1 5.1602 30.1169 -3.15085 -2.14212 -2.80558 1.09627
4278 1 6.2848 32.4945 -1.92898 -3.18756 -4.09274 -6.25688
4279 1 8.78316 32.3975 -3.32844 1.90874 -3.13155 0.227932
4280 1 9.88607 30.0126 -2.36878 -1.09489 0.842607 1.85994
4281 1 5.93482 30.1055 8.51581 1.09831 0.0292951 -3.26936
4282 1 7.47853 32.2579 8.28308 -2.00557 3.56202 1.95974
4283 1 9.96974 32.1032 8.95896 -1.31012 2.75016 1.69555
4284 1 10.7876 29.7763 7.57588 -0.575442 -2.11419 3.12768
4285 1 5.50404 30.2233 4.59568 1.99356 -2.98113 -1.58149
4286 1 7.08809 32.4284 5.52255 -2.84181 2.46659 -3.32631
4287 1 9.39822 32.3661 3.96002 -1.83429 -2.53395 -1.92175
4288 1 10.7192 29.9096 4.62797 5.38595 -0.695113 0.166437
4289 1 4.38722 34.7983 -5.65186 -1.81089 -0.542154 -0.0570935
4290 1 5.19471 37.3481 -6.39632 -2.40404 -1.71262 -3.24325
4291 1 7.98779 37.1671 -5.90103 2.7651 1.51879 2.20211
4292 1 8.50357 34.747 -7.01223 1.43113 1.79123 1.21438
4293 1 3.8852 34.8863 -10.0271 0.157559 -2.7808 2.42704
4294 1 5.08546 37.1578 -9.23252 -3.34017 2.15309 0.687444
4295 1 7.60675 37.0684 -10.2351 2.00525 0.628818 2.46991
4296 1 9.18423 34.8942 -9.57746 -2.23935 -5.78127 2.2499
4297 1 4.9492 34.8797 1.85037 -1.96913 -2.85433 -2.56742
4298 1 6.2957 37.2183 0.814161 2.24853 0.302461 0.91737
4299 1 8.91081 37.2781 1.39075 -0.0635953 2.78887 2.54831
4300 1 9.6135 34.8674 0.172398 -0.653897 -1.38363 3.08682
4301 1 4.97443 34.7727 -2.75808 -3.62735 2.23135 0.317406
4302 1 5.80451 37.324 -1.84331 -2.01821 0.537938 -1.76242
4303 1 8.4123 37.1319 -3.06408 2.92473 1.64673 4.97574
4304 1 9.73404 34.8053 -2.62048 1.54522 -0.150296 -2.6311
4305 1 5.57345 34.035 9.11898 -4.57035 9.41789 4.04304
4306 1 7.27415 36.4274 8.20678 1.83271 -0.0503892 -1.79556
4307 1 10.1412 36.5512 8.40691 0.289945 -2.62564 -5.34345
4308 1 11.1329 34.1858 7.65168 -1.6825 0.596316 1.68367
4309 1 5.75691 34.6729 4.73147 2.3877 -2.21868 6.94548
4310 1 7.03156 36.8591 5.47552 2.28644 4.25275 2.29158
4311 1 9.58159 37.0573 4.14434 -3.11238 4.23661 4.42561
4312 1 10.6573 34.6052 4.8735 0.0420531 3.62067 8.11099
4313 1 4.26337 39.847 -5.49112 0.0127074 -1.62492 1.5688
4314 1 5.48878 42.1293 -6.67405 1.89852 -0.389711 -4.39812
4315 1 8.4078 42.0907 -5.87728 3.06376 -6.21803 1.26561
4316 1 9.15485 39.6456 -6.70353 -0.689261 4.41485 -0.852767
4317 1 3.84269 39.5684 -10.2458 2.11425 -7.74828 1.45178
4318 1 5.20507 41.9565 -9.37449 -0.0245437 0.529096 3.52709
4319 1 7.62438 41.5017 -10.5647 2.94193 2.7263 -2.33619
4320 1 8.72603 39.4313 -9.35984 0.621669 -0.524961 -2.35239
4321 1 5.112 39.5134 2.07433 2.78585 -2.19253 0.408322
4322 1 6.26081 41.7393 1.19672 -1.46091 -2.37649 1.35366
4323 1 9.02329 41.6954 1.65641 1.047 1.32962 1.38326
4324 1 10.3194 39.4818 0.336846 4.81143 0.156438 -3.70041
4325 1 4.7207 39.7547 -2.71922 2.49533 -1.79652 1.54029
4326 1 5.90273 42.1729 -1.79839 1.55485 -5.54114 0.102115
4327 1 8.2404 41.9883 -3.09544 1.50454 0.865529 5.90747
4328 1 9.57281 39.5791 -2.26795 0.775744 -2.48716 -0.839348
4329 1 5.96465 38.4046 9.3322 -1.44008 -3.39003 1.91674
4330 1 7.20572 40.8133 8.78683 1.13315 3.01998 -3.86828
4331 1 9.99914 41.0507 9.32497 1.53005 1.55292 -1.14657
4332 1 11.2368 38.9688 7.79966 1.46943 -6.40149 0.929237
4333 1 5.59408 39.2741 4.78192 3.90637 0.417111 1.37434
4334 1 7.1228 41.367 6.01101 0.101013 0.630802 0.366575
4335 1 9.33551 41.7083 4.38777 -3.93851 1.12748 0.50162
4336 1 10.7375 39.52 5.16083 2.26985 2.20473 0.461865
4337 1 4.41266 44.4226 -5.81943 -1.6939 -2.4371 3.3831
4338 1 6.37721 46.0107 -7.36083 -4.34953 0.692133 -2.09366
4339 1 9.09772 46.9699 -6.17902 -2.71124 0.964215 -1.04207
4340 1 8.80662 44.4177 -7.46813 -7.14624 1.29129 -1.44711
4341 1 3.60196 44.0163 -10.1705 -3.80764 1.32853 -2.69268
4342 1 5.31761 46.1444 -10.0245 -0.626642 -6.11417 -0.0666961
4343 1 7.66698 45.7147 -11.3196 1.21067 0.182978 3.66877
4344 1 9.328 43.7145 -10.2499 8.99265 -0.975511 -4.53413
4345 1 5.19024 43.9402 2.44616 -3.6737 0.955213 0.318174
4346 1 6.37721 46.4545 1.85265 -3.99819 2.97141 -0.0567056
4347 1 9.05302 46.1238 1.82812 -6.919 -3.25787 -3.37039
4348 1 10.2079 43.9831 0.546194 -1.74757 -0.334196 -4.00282
4349 1 4.4947 44.3961 -3.04611 1.17995 3.34686 -1.3883
4350 1 6.25862 46.5226 -2.43304 -9.28538 1.78709 -1.18593
4351 1 8.84736 46.7428 -3.31845 -2.98732 -3.69614 0.895971
4352 1 9.41934 44.2606 -2.10371 0.443439 3.22734 -4.84564
4353 1 5.49251 42.8627 9.0318 0.982052 0.931813 5.82417
4354 1 7.10073 45.0141 8.48146 2.13051 1.04656 -2.10109
4355 1 9.66912 45.3272 9.07357 2.07211 1.69293 -0.254929
4356 1 11.4398 43.3247 8.24045 -0.623647 0.871894 0.0199327
4357 1 5.71167 43.843 5.23999 0.0645465 1.44801 -6.09604
4358 1 6.90547 46.3189 5.87187 -1.41683 -2.88405 -2.3255
4359 1 9.45561 46.7865 4.57027 2.76075 -3.00911 3.72451
4360 1 10.2275 44.2679 5.58862 -0.669074 -5.89248 2.34429
