ITEM: TIMESTEP
6200
ITEM: NUMBER OF ATOMS
4360
ITEM: BOX BOUNDS pp pp pp
-2.4424888653904993e+01 2.3615724553948183e+01
-2.4527136794531863e+01 4.7043572394531857e+01
-2.4024406466764873e+01 2.4016204866808863e+01
ITEM: ATOMS id type x y z vx vy vz
1 1 -23.9185 -21.2693 12.4403 1.69737 1.56667 1.60853
2 1 -5.76733 15.304 1.61356 2.56322 -0.142305 -2.4484
3 1 6.26921 -6.48658 -23.2021 -1.73666 3.50986 1.38472
4 1 2.18327 0.0134742 -5.52121 1.5124 2.18127 2.02215
5 1 -18.3281 -22.9096 21.5505 5.15172 -4.47734 -3.00564
6 1 1.4859 17.4386 19.8817 -4.37363 -0.968445 1.20257
7 1 5.50044 22.5346 8.66856 -6.43937 1.63843 3.73913
8 1 23.3752 -11.7361 -15.4801 -3.29276 -1.32633 -3.03178
9 1 -14.2056 4.05929 4.07124 -2.24532 1.60985 0.846948
10 1 -1.14016 -7.38189 13.3392 -6.06049 3.05926 -4.2508
11 1 3.74037 -9.26206 17.5817 1.91432 3.02784 0.261886
12 1 21.3314 -5.38027 -20.528 -3.68912 2.41453 0.697721
13 1 -19.5756 -14.6423 12.9765 2.3576 1.11374 1.19279
14 1 11.1617 1.16458 -9.3859 0.0823743 -2.82829 -1.52307
15 1 -4.57369 -0.569977 -13.8742 -3.25052 -2.79514 0.522648
16 1 -18.937 -0.59583 5.53496 2.30341 -1.93054 -1.58467
17 1 16.319 -6.18149 17.4294 0.422748 -2.31521 -1.38631
18 1 21.4149 24.1651 3.1936 3.50509 -2.84407 0.0214759
19 1 -16.7793 23.2196 20.7818 -4.33007 1.66117 2.84271
20 1 21.7008 1.46511 22.9187 3.66321 1.64377 -6.00859
21 1 -23.0827 1.52181 12.1443 -2.9575 -0.575658 0.877822
22 1 -12.9395 0.250872 -18.9682 3.13581 -1.16298 -1.41399
23 1 -12.3014 -22.5118 21.1392 0.903181 -5.63718 1.88565
24 1 8.72456 18.9844 -4.88056 2.60929 4.89322 4.63554
25 1 6.6426 25.7459 16.251 2.96603 3.98825 -1.30053
26 1 -1.60154 18.1818 9.93967 -1.45069 -1.10197 -3.87031
27 1 -19.6484 6.61048 -1.79019 -0.760071 -2.9303 -5.97664
28 1 -21.0911 3.68316 -1.63827 2.30077 -0.259563 2.60441
29 1 -9.54148 -10.5585 -9.39531 -3.29383 2.36808 -1.64265
30 1 21.3633 -2.46609 -21.7413 -4.13473 -2.63277 3.52128
31 1 4.82626 -17.6269 -19.5164 -3.03191 5.69436 -1.4589
32 1 -9.94106 13.4632 -20.34 6.17545 -3.62965 -4.57971
33 1 1.88095 -0.438527 -10.966 -5.16265 -2.44399 -4.30618
34 1 -17.8861 -23.1881 16.8701 3.65794 -7.49082 -0.110366
35 1 18.1408 6.57092 14.6194 6.71418 -0.284291 0.193077
36 1 -13.1063 22.0003 -16.7887 -1.92281 2.385 6.96307
37 1 -11.2957 -8.27265 -1.75805 3.07015 -1.04618 0.0667152
38 1 20.24 10.9268 7.66704 -1.28839 0.868149 2.34825
39 1 0.882074 10.3719 -23.0175 2.87584 -0.0747058 3.03784
40 1 -1.46627 0.961789 -17.5919 -1.29496 0.13276 4.98392
41 1 7.36304 -6.65086 -10.1811 -1.80069 0.293649 0.323049
42 1 -18.7495 -18.2096 2.36897 3.56286 4.5284 -1.55366
43 1 -11.7897 -4.82603 2.22745 -0.128815 -3.09047 -3.0858
44 1 -1.94585 -15.6938 -9.30562 -0.375328 -0.100393 0.346881
45 1 -11.6098 13.3552 -3.74306 -0.228712 -0.0312182 -0.52176
46 1 -24.3043 -22.0479 19.066 -0.861083 -2.55683 -0.185189
47 1 -6.17778 3.12943 19.4144 1.06376 3.28906 -1.28136
48 1 12.55 5.77636 -8.9247 2.01644 4.41884 1.93624
49 1 21.7288 11.2216 4.82365 1.92641 -1.46349 3.576
50 1 15.3465 -23.5081 13.3447 2.14437 -4.49689 4.24509
51 1 -11.2811 -2.48482 17.9163 -2.48351 0.412634 -1.6868
52 1 16.5292 5.70208 -16.7084 -1.55542 3.89268 0.305243
53 1 -3.87229 22.1227 8.88914 -1.74394 -2.35965 -5.41247
54 1 -18.2984 -11.1378 -11.0384 0.249967 6.52272 -0.549087
55 1 -6.33815 -0.095928 -15.9807 -3.71442 4.01905 3.30636
56 1 -15.0784 5.36501 1.56772 -1.10648 3.96216 1.28642
57 1 -15.3377 -9.27911 -4.02349 2.02605 -4.52029 3.27577
58 1 4.99459 -20.5468 -4.67452 -3.20879 4.536 0.537746
59 1 -19.7366 12.874 19.6336 0.648959 2.59006 -3.51189
60 1 2.7712 15.8811 -20.9443 -1.7922 1.45145 7.17474
61 1 -11.3154 -0.920778 0.490714 -0.522597 -3.06431 0.842986
62 1 -1.24397 -9.89791 17.0578 -3.92862 -0.108812 -2.02106
63 1 0.275469 11.2194 -16.1074 4.45736 1.30494 2.1153
64 1 -8.70251 -2.63377 3.8646 0.977305 -0.51574 2.8316
65 1 16.9384 -2.98577 8.59542 0.780176 4.48289 2.10185
66 1 -10.8892 -17.9707 -12.3801 -2.7553 4.38953 1.90897
67 1 -14.5204 22.881 -9.99414 -1.90408 1.09701 0.43202
68 1 -0.859841 18.8401 -20.0655 0.314074 -0.649058 -2.24752
69 1 -9.82604 15.5421 12.0029 -3.20147 -5.04878 0.669667
70 1 -17.6447 15.9378 -14.1127 -1.89847 4.30704 4.23848
71 1 -12.2195 6.49842 1.24577 2.94179 -2.09915 -1.65268
72 1 20.5642 14.9588 19.5248 -0.928086 -0.607971 -2.93935
73 1 -11.4206 -16.4683 14.9127 -2.2795 -2.81568 -1.68134
74 1 0.0309838 9.56231 -13.648 4.7607 -1.4067 -0.139328
75 1 -19.633 0.113041 -12.7502 9.20152 -0.932353 -1.47422
76 1 -23.8154 -6.68948 2.90744 6.26497 0.616967 5.24014
77 1 15.2407 -22.0925 -0.828207 4.86982 2.45521 1.5669
78 1 -19.2654 11.479 -9.34046 0.293007 1.30187 -0.340161
79 1 -19.6881 -1.6906 -15.118 -1.5779 5.08236 0.327127
80 1 -11.8633 15.2641 -15.5044 4.95107 0.826249 5.85302
81 1 -0.253929 -11.1739 -17.224 0.0894582 -1.8713 -1.80131
82 1 6.42081 -23.4032 3.68156 0.187254 0.0919584 2.51356
83 1 -21.4223 11.1335 -1.637 0.872384 -1.83046 -2.20184
84 1 19.0014 22.1001 21.2342 5.79147 3.23079 -2.71288
85 1 4.38944 15.5066 -0.922785 0.839631 0.306359 -2.31437
86 1 12.7885 6.08143 14.2844 -0.682436 0.680887 0.283104
87 1 1.57771 15.0001 -6.55239 5.34969 2.54527 -1.34967
88 1 -9.15549 24.4407 -19.7742 -1.06398 2.31293 -4.45428
89 1 -9.14857 -3.86014 20.306 2.00267 -4.27989 3.33342
90 1 6.25291 -3.58568 5.83736 6.50506 -5.11069 2.85332
91 1 16.2205 20.0338 -23.4059 1.89706 -0.717596 0.512743
92 1 14.7401 -23.7248 1.70184 0.00781776 -2.77422 0.786025
93 1 -20.5322 -24.0893 18.0645 6.56419 -2.3278 -0.233083
94 1 20.9931 1.01729 -10.2256 2.24673 -5.25213 1.43743
95 1 0.161715 -4.30925 -10.3678 2.88058 -2.6183 -0.535179
96 1 -23.992 -17.8425 20.5762 -0.878652 -2.69153 -1.91408
97 1 -7.24224 -14.6708 -21.9222 -1.08464 -1.41231 -2.207
98 1 -4.89831 17.9852 12.8401 0.686922 1.61353 1.75249
99 1 19.186 -21.6407 -6.8618 -2.34734 1.70418 -2.67753
100 1 21.6686 -13.6872 23.2078 3.36466 0.866607 -2.26526
101 1 1.30559 -19.9775 -9.32438 0.911725 4.32432 1.3316
102 1 3.55375 3.29096 5.45327 6.32474 0.476916 -0.213939
103 1 16.4523 23.6065 20.968 -3.73912 2.1717 3.83078
104 1 -15.1455 46.1467 -9.74918 -7.20162 0.50969 -1.76892
105 1 5.2864 17.1655 -17.3459 -1.08395 0.368452 -2.64757
106 1 14.5165 1.71779 9.43556 -0.520927 -4.06154 -3.16977
107 1 20.4376 -3.97287 18.8401 1.24598 3.78692 0.811001
108 1 -11.4005 6.38736 21.2689 2.01696 2.74698 -1.6315
109 1 -13.2347 17.5891 -16.4332 2.88992 -2.79062 -3.83861
110 1 8.33656 -14.9512 -8.21021 0.923491 -2.04212 -0.268059
111 1 21.053 -4.6092 -11.6237 1.5975 -0.71994 0.397885
112 1 -17.0316 2.87054 -21.6529 3.77171 2.19807 -1.36949
113 1 -4.41175 -6.60911 17.0306 -3.13436 -1.08299 -1.14142
114 1 -21.291 -21.2587 18.7794 0.275406 -4.17606 -1.03718
115 1 7.57058 10.0531 6.83559 -7.0588 -6.02094 5.16376
116 1 2.99563 -16.9636 -17.3138 -4.46371 -1.88884 -0.0236733
117 1 18.7446 18.5983 -19.0456 4.15815 -2.0242 -1.28164
118 1 1.58261 -17.2814 -9.82734 1.0557 -4.369 4.58501
119 1 15.8877 11.4107 -8.26136 2.73546 1.88385 0.129267
120 1 3.23295 -1.92602 14.9532 1.70673 -0.814713 1.05412
121 1 -5.56951 -17.725 22.9883 3.25892 2.42002 0.248214
122 1 -7.09582 4.97489 21.4545 -2.42836 0.0204241 2.03909
123 1 11.3195 17.7194 9.32894 1.65204 -0.849839 2.66977
124 1 22.8892 -20.1705 -15.2209 0.867042 4.81745 1.66911
125 1 13.2886 9.61666 0.207016 1.36633 -0.05443 0.123703
126 1 -9.688 0.90767 -7.06253 0.418196 -4.43455 -5.95608
127 1 8.66032 1.17314 14.7896 4.9098 0.239723 -6.42322
128 1 -18.168 -0.347024 -9.4945 -1.05068 4.17567 -0.750628
129 1 19.0771 -10.8815 7.48271 0.605881 -0.636756 1.52293
130 1 -8.24494 18.4187 -19.8523 -0.566841 1.95456 -3.69003
131 1 0.736014 -8.39764 -16.9333 -0.731756 5.56037 4.44976
132 1 -3.90259 -1.26892 -22.261 -1.38274 -0.0589347 -3.71501
133 1 -17.6465 6.32471 16.2854 0.357608 -2.28926 -1.2032
134 1 21.8194 -9.16838 -22.3753 -1.04971 1.62878 3.37944
135 1 -14.7793 -6.02318 -21.4844 1.07992 -0.760822 0.573304
136 1 -1.09605 5.34606 -5.34394 1.62195 -2.26306 0.321971
137 1 -10.9596 4.81888 -16.6277 -1.90066 0.183846 4.04338
138 1 12.2861 15.9474 7.25631 0.677917 -1.51715 -5.07528
139 1 -18.9607 -19.7933 -15.4393 5.15793 -2.03527 2.06943
140 1 4.43526 -7.85028 19.8941 -1.1791 -3.75959 2.23019
141 1 10.2956 -14.1726 2.64153 -0.810364 0.345102 -0.237312
142 1 12.6856 2.12469 22.8312 0.93087 -0.818865 1.20129
143 1 -2.51277 -1.62802 -3.7765 -3.32341 -3.36634 -2.14388
144 1 -23.383 -9.22028 -14.5791 2.4992 -1.13583 0.750542
145 1 14.7881 10.565 18.4402 -2.30255 0.76716 0.137809
146 1 -11.8591 -12.153 13.7136 -0.573405 -0.334327 -1.15819
147 1 10.5223 16.6405 4.94733 -0.944254 2.37985 0.578652
148 1 -20.8799 12.6134 12.1347 3.29829 -1.72362 -0.449522
149 1 -18.2038 -24.295 -18.0316 3.59064 -3.38868 -1.78153
150 1 21.6497 10.7153 20.4253 -0.0207835 3.42635 4.08356
151 1 21.3335 -2.72927 23.4396 0.181215 1.52821 -1.48793
152 1 -7.84307 -6.87401 17.9882 -0.165942 -2.60903 1.85246
153 1 9.60755 -15.6196 -3.46976 -2.50173 3.51364 6.43535
154 1 -9.17661 22.0979 -6.25345 -1.28024 1.6272 1.44397
155 1 -22.8236 -19.6362 -18.9462 1.37227 -0.57219 -2.49342
156 1 12.3139 11.413 17.18 -0.24167 1.90689 1.2536
157 1 10.2415 -12.7152 -18.1049 3.93658 1.69614 -0.990363
158 1 10.101 8.04892 3.85403 1.3481 -1.9028 -2.64768
159 1 -19.3374 -17.9515 10.6157 -0.20799 0.941353 1.75622
160 1 -3.74757 -15.2743 -3.34024 -0.286499 -3.63199 0.167604
161 1 17.7106 0.868203 -13.2063 -1.44703 0.806496 1.97874
162 1 -14.4124 -12.9832 21.6338 -2.58626 -0.0152686 -3.82358
163 1 2.73624 0.396013 16.8215 -2.84954 -0.880075 1.79695
164 1 16.7224 8.81029 13.0766 -1.82169 -2.02865 -1.58631
165 1 -20.5852 10.6032 15.9752 2.43727 2.33886 4.26057
166 1 9.21914 20.9294 -19.7745 -1.97134 0.135036 -2.6983
167 1 -13.3099 0.58422 -3.43051 -3.24271 -4.87428 7.09542
168 1 22.736 23.9954 -2.17536 -3.81655 -3.5882 4.17008
169 1 5.03354 24.0336 -12.3976 2.61374 3.33982 2.82805
170 1 -5.05232 -19.9524 -13.6473 1.20191 1.52658 -1.98505
171 1 -13.5094 1.20584 14.6715 0.771044 3.07652 1.52881
172 1 -20.839 22.0024 -16.722 2.00428 -4.85108 -1.63434
173 1 -22.2557 -2.63797 22.9213 0.19195 -1.53398 -5.39431
174 1 -19.4089 7.12131 -23.5116 -2.79711 0.754368 -2.02649
175 1 7.32105 18.3878 6.95614 -2.05741 -2.7362 -0.51668
176 1 -5.75666 21.4313 -4.96224 1.76492 3.0907 0.607261
177 1 -5.20499 -19.0465 12.8166 1.87006 -0.473366 -1.0761
178 1 -18.176 10.0819 5.55396 -4.12245 1.52208 -5.39195
179 1 -4.34498 -5.11531 -15.3733 0.97615 -3.65672 2.75706
180 1 -23.2576 18.974 8.70226 3.19043 -1.05932 0.42184
181 1 -3.88118 -4.25111 -22.2389 -8.39101 -6.78448 0.651935
182 1 -21.6895 -1.81977 16.2408 -6.10592 2.93682 5.16538
183 1 21.4343 16.632 -1.3269 -2.34211 -0.353823 -1.85657
184 1 4.76064 46.9163 -22.391 0.832847 2.44497 5.63975
185 1 20.6021 23.3809 14.1589 2.92604 0.166605 6.08923
186 1 13.8123 25.6356 -9.99066 5.76331 -2.83294 -0.995214
187 1 -8.81933 8.69419 -7.88754 -4.98522 -1.97665 2.22137
188 1 8.58894 -22.0084 -3.24857 -0.759071 -2.76585 2.87963
189 1 -4.63742 -4.47001 3.74825 2.88114 -3.45472 1.12698
190 1 -14.0199 7.89216 -11.8629 -0.23214 -1.07678 2.38402
191 1 -0.23316 -7.23983 -23.597 3.02553 2.61382 3.04579
192 1 7.94972 7.25615 -4.05083 -6.36585 4.45686 -2.82532
193 1 9.45054 0.165597 7.0182 -2.23417 5.02146 0.212258
194 1 3.65209 24.5353 -19.6457 1.04919 -2.98423 1.9239
195 1 7.22922 -0.726868 -8.78995 -2.70137 -2.40475 -3.85158
196 1 -15.1286 22.2006 7.9502 2.47855 4.40042 2.7962
197 1 23.6632 -4.28902 23.3247 2.26914 -1.18717 -2.23112
198 1 -11.2834 -19.1054 -17.357 3.72002 -1.60566 -1.3399
199 1 -22.7971 -4.86739 -10.9204 -2.12214 5.52298 -5.96211
200 1 15.7273 9.36561 -20.7429 2.20185 0.48398 -2.19643
201 1 7.16422 3.91414 -23.0591 0.233184 3.12732 -6.94461
202 1 9.32219 15.4635 12.1343 0.00991715 6.76347 1.71267
203 1 -22.3273 18.6601 6.01654 -1.55735 -0.407404 -0.0915692
204 1 -7.64809 -14.806 -9.84471 -1.44348 -6.0285 1.1657
205 1 17.4453 -7.56486 10.1199 -2.22019 -2.10828 -4.64231
206 1 -1.10241 -12.2517 -21.3974 0.0580572 -3.29368 2.58895
207 1 -5.94986 7.10073 22.8693 4.80898 -1.93786 4.33666
208 1 2.65792 -6.05105 16.2334 3.62222 2.73546 -0.60384
209 1 -5.29369 15.9233 -13.9808 2.18102 0.498839 -3.54792
210 1 -18.9861 12.5459 -1.50307 1.06769 4.73809 2.72646
211 1 17.7442 -1.93505 5.02338 -2.46924 4.32493 -2.49287
212 1 -16.7607 23.6322 -2.06611 -0.849142 2.69354 -0.927288
213 1 -19.4929 -20.7701 -3.71621 2.94319 -2.92969 -4.5824
214 1 17.4618 -5.62441 -20.9961 -3.24525 3.14004 2.40725
215 1 9.44777 25.2296 16.8284 -4.84812 -1.18717 -4.15076
216 1 -17.9739 45.1744 8.25145 -2.68014 -0.217062 2.75762
217 1 2.8497 22.9469 10.079 -2.41428 0.876768 1.34057
218 1 11.8408 7.75804 -3.62762 -5.0774 1.02014 -5.10039
219 1 -4.18407 24.0365 20.4001 0.132401 -2.47249 -0.368352
220 1 6.32416 20.6136 17.6133 -0.41021 -4.44273 2.5233
221 1 -15.7153 3.48558 -2.44712 -3.88076 -2.62402 -3.25199
222 1 -12.4202 -9.64065 0.373434 3.13132 3.19728 -3.50393
223 1 21.4992 -6.64527 0.0118611 0.724944 -4.71877 -1.59272
224 1 -10.3242 -4.23131 23.2058 4.76396 2.06013 -0.505004
225 1 4.84305 -11.9813 -8.94479 -3.45153 -0.539605 3.85084
226 1 22.9055 13.6111 -13.5284 1.46513 -2.07038 4.35228
227 1 14.998 16.6965 1.96989 -3.36089 2.81165 -1.59779
228 1 -10.78 17.6792 2.38499 -1.02029 -0.0445778 -2.36445
229 1 11.9589 11.199 -6.65758 -1.82839 -4.50018 1.15199
230 1 -9.28083 16.2813 22.5468 -6.43312 4.62946 3.1512
231 1 -23.9043 -2.61221 -20.2965 1.55479 2.95502 -0.109718
232 1 -1.95551 -14.0585 11.5346 2.44168 -0.900852 0.514018
233 1 -12.3742 13.765 14.1336 2.63657 2.36293 -4.46221
234 1 -6.99934 17.524 5.88069 1.20143 -2.52399 -1.56104
235 1 -22.4446 -0.394825 -7.78435 1.06177 -1.20069 -1.69003
236 1 15.3284 -7.49865 6.58322 0.00952419 -0.417494 2.94504
237 1 -17.999 22.6192 3.12548 5.41462 -0.67861 -3.42531
238 1 15.4128 -1.10541 23.3003 3.06956 2.27292 -2.10435
239 1 -17.3101 21.5067 14.2362 1.84147 -1.94822 -0.268714
240 1 10.4524 1.05985 16.9009 1.44342 -0.862821 -1.34629
241 1 -22.0419 -17.4129 10.2258 -1.32956 0.53922 4.8302
242 1 -6.49239 -5.07407 -13.3882 -0.437641 1.88774 0.859639
243 1 -6.17483 -9.13805 13.0632 -4.28849 -0.138578 1.43541
244 1 -18.9016 10.8325 -23.4133 3.87563 0.24296 0.710378
245 1 -9.81164 24.7036 -11.5805 2.53611 0.938216 1.30127
246 1 10.052 2.30757 23.5675 0.296987 1.41129 1.56513
247 1 -22.2018 -4.31842 11.2113 2.94305 -1.07402 -5.88901
248 1 -18.9209 9.8412 -12.1814 -1.32968 -1.28496 0.102988
249 1 -3.11779 -20.6768 11.6308 -1.17424 -2.60856 1.79984
250 1 -1.73742 -3.35949 2.79816 -3.91597 3.70785 -3.04228
251 1 -21.1345 -2.52882 -20.7464 4.30132 3.13663 3.48105
252 1 21.0302 17.3191 -12.237 -5.42656 -2.85273 3.91194
253 1 0.897014 -5.29565 21.9532 -0.494662 -0.640409 0.0877886
254 1 2.49737 -15.6616 -13.3276 -2.65263 -1.08778 -3.33045
255 1 23.3277 -23.5323 10.829 0.755598 -4.96384 -3.6742
256 1 -12.4462 -4.23754 -10.8084 -0.517136 -6.38086 -1.21314
257 1 -0.917021 6.50566 -20.2181 5.72402 0.689297 0.198512
258 1 -6.33235 -2.27103 -5.55101 0.0290452 1.29526 -1.04656
259 1 19.4659 -18.0277 -19.0272 0.0854794 -0.0864308 -0.532173
260 1 14.9322 7.79871 -3.10372 2.25988 3.6011 5.2589
261 1 -0.877525 -21.1446 9.74474 -2.3009 -1.92604 3.1004
262 1 18.8037 16.5957 10.689 3.53644 0.242359 1.86578
263 1 -22.6717 8.29182 -10.2948 2.69489 -3.39183 1.8958
264 1 23.4013 3.85731 18.4217 2.49615 1.06187 -3.30504
265 1 14.6579 -16.3739 -5.63366 4.47108 7.27006 3.24431
266 1 23.1363 5.18536 -15.9389 4.32429 -0.245801 -0.884205
267 1 -11.9103 19.5634 -9.98558 -3.7917 -0.0593885 3.6912
268 1 -20.7202 18.4291 -11.053 -2.54651 0.160416 1.93176
269 1 -19.616 -9.23463 -12.8021 -4.06522 2.27796 4.44019
270 1 23.4728 -17.3681 17.6347 -1.50226 2.93068 -3.65947
271 1 2.88106 22.4775 -12.6191 0.114062 -3.43409 3.54488
272 1 11.624 -19.9149 11.7099 -2.88709 -3.7574 1.16844
273 1 -17.4864 -10.0522 11.6345 4.27695 0.887108 -2.82984
274 1 11.6491 -11.2376 8.18284 4.1697 -2.81829 -3.3699
275 1 13.9355 25.876 -20.1374 -10.3531 -1.11493 -2.72238
276 1 22.8648 5.18531 -12.2581 -2.86183 -3.39037 -3.15086
277 1 12.7326 -16.0034 -20.3577 -3.94638 -3.34466 -2.00863
278 1 18.8631 10.259 16.884 1.50967 -0.155452 -0.756956
279 1 21.961 -2.45922 -2.39417 1.84568 0.0344933 5.91762
280 1 -2.3981 -20.7123 -12.9666 -4.29888 2.67332 -0.779875
281 1 13.3475 20.7848 13.3737 1.10663 0.177317 2.14922
282 1 11.1788 12.1179 12.8498 -1.36502 7.38812 -2.40047
283 1 -4.3372 -22.8757 -21.9412 -1.53353 -3.41255 -1.2608
284 1 -2.25829 14.0819 1.58775 2.14792 -0.658856 5.1619
285 1 -18.0464 19.8143 17.5802 -3.2446 -3.58122 2.66807
286 1 -0.895731 19.942 -3.16076 0.218141 5.18048 2.08093
287 1 5.02167 -9.676 -7.08235 -5.12829 -2.65345 2.74481
288 1 17.1033 22.7667 4.75537 -3.09806 -0.224572 -3.13281
289 1 -7.46158 -20.8973 9.24868 -3.54077 -1.36285 -1.43614
290 1 -5.70878 -8.17025 -15.9511 1.56035 0.787538 0.610501
291 1 -11.9607 -20.3465 11.5808 4.225 -1.21216 1.32213
292 1 14.1969 7.39277 1.7955 2.93914 -2.68516 1.32703
293 1 13.3623 3.1263 14.1992 1.68538 -0.52918 -0.617018
294 1 -7.82357 3.05243 -3.19337 -2.94531 2.62167 2.57576
295 1 2.25535 5.93624 9.82944 5.70383 -6.11784 -0.302663
296 1 2.2804 13.577 0.383456 2.38867 -4.53407 5.76423
297 1 20.5828 -8.88611 -8.68343 -5.91868 1.0009 -4.67164
298 1 14.5567 -23.3724 -21.8193 6.22198 1.92982 -2.09147
299 1 4.2959 -23.4566 -13.0405 2.67198 0.544957 3.55884
300 1 14.5831 -4.77505 19.2005 -7.2593 1.49742 -8.8838
301 1 -4.85066 22.8614 -21.1723 -1.01681 2.12924 -0.168839
302 1 -0.273216 9.62409 -0.449529 0.589321 -3.40079 3.4334
303 1 -21.1506 -18.4803 -6.94034 -1.42359 -1.05536 4.15517
304 1 -18.406 -18.2489 15.4622 5.40846 -6.23247 -3.78791
305 1 3.02498 -20.8806 21.7489 -2.45884 -1.04042 -0.324277
306 1 13.9562 21.3457 -11.9392 2.86018 -0.856674 -2.94996
307 1 10.4739 14.2092 22.2965 0.046425 4.09987 -0.227826
308 1 -18.2994 -23.0914 2.42023 3.00349 -2.9806 -0.646078
309 1 7.26162 -17.3022 19.9748 0.689897 1.81462 -1.26505
310 1 1.7572 15.7935 14.5223 2.75106 -4.76348 2.40071
311 1 14.679 -10.7443 2.08049 -3.46625 -1.4102 0.725516
312 1 -7.21943 1.98376 -7.41418 -5.06628 -0.201461 -3.2663
313 1 -17.6132 -17.2061 -9.28904 4.54624 1.62375 4.81625
314 1 -13.5679 7.53861 -7.04697 -0.426743 0.343653 -1.60499
315 1 -15.393 -22.8176 2.50335 -1.8385 -1.9954 -0.282277
316 1 21.4526 -6.05888 3.5813 1.24185 0.765589 3.00829
317 1 -9.49979 -8.09283 23.1046 0.599955 5.85754 2.60404
318 1 20.3922 -18.4425 20.959 -1.33567 2.0774 2.98689
319 1 -8.78217 0.623327 13.2708 -1.16543 -1.0761 -0.0829971
320 1 -1.08714 2.24886 8.57355 0.195107 0.433478 -0.22669
321 1 -21.6011 -11.3328 -12.1662 -0.908177 3.1077 2.98055
322 1 -12.0893 13.1337 -0.611225 -0.836911 -1.63966 -0.0946312
323 1 -13.3137 0.84143 1.71199 -0.449672 0.815575 -5.48383
324 1 -22.7157 3.79215 6.6701 3.87641 3.2739 1.5938
325 1 -1.99735 -18.8839 18.6119 -2.9341 -0.430177 -4.23867
326 1 -17.2249 1.6654 1.79007 -2.86229 -1.03629 -6.60701
327 1 -7.4582 -11.7234 20.8477 -4.03047 -0.325189 -1.54119
328 1 11.6923 21.579 15.6686 -4.54201 6.38993 0.719396
329 1 -0.993548 0.252083 -10.6759 2.61256 -0.698441 -1.93972
330 1 -14.9637 -24.3872 -23.8512 -1.11458 -3.15294 -3.55145
331 1 12.66 4.96699 6.62357 1.7426 -0.921184 3.69244
332 1 8.51669 -0.432083 -11.5145 -2.54052 4.12105 4.11709
333 1 8.25451 -10.8275 -14.8977 -1.47162 2.86776 1.22427
334 1 6.13938 -23.231 -4.25787 -0.913529 5.45701 0.456625
335 1 19.7945 -21.2854 4.66403 2.45934 -3.47156 3.09893
336 1 18.1561 15.7935 -22.5138 0.472353 -2.08395 5.55738
337 1 -18.5306 20.3741 -0.98601 -0.781825 1.18457 -0.296476
338 1 7.26686 -8.44332 20.0177 0.431015 -3.60034 1.75572
339 1 -7.43841 -17.3967 -23.0787 0.918704 1.64097 -4.81021
340 1 -14.4897 4.66274 -18.5876 0.349305 -1.07349 3.56132
341 1 -10.2347 2.21669 -15.6447 3.75705 3.82656 3.44731
342 1 -2.91304 -16.7119 -13.4552 -6.00763 -2.27087 -2.50957
343 1 -4.71541 -11.9624 -7.09553 1.59542 -0.377812 0.955715
344 1 7.94171 -18.5473 -10.5971 -3.17467 -0.0730854 1.0757
345 1 -12.7934 -5.87984 14.5748 2.72608 0.359711 0.587473
346 1 17.7817 0.707015 6.36558 -2.93609 -1.43803 -0.412684
347 1 21.4745 -6.12384 7.96061 -0.937084 -0.909555 0.0739417
348 1 -12.8335 -5.5292 7.65353 0.18787 -4.10518 -0.657856
349 1 -7.4196 11.7719 21.8737 -1.84884 1.15084 -3.18935
350 1 23.0579 18.6891 -23.914 0.313163 4.84922 2.41454
351 1 -18.0238 4.00498 11.2558 1.53681 1.26205 -4.60125
352 1 14.6106 1.29897 2.46563 1.39239 -3.97133 2.87462
353 1 18.3021 -23.0034 -16.6079 -1.6157 2.06752 -0.326155
354 1 9.45634 22.8622 -6.75113 0.595786 -1.57139 -1.50028
355 1 -0.932851 -0.842981 8.98165 -3.63887 -5.85755 1.65454
356 1 -3.44615 -19.108 -21.8764 -2.5693 -8.35465 -1.82048
357 1 -6.50843 -14.6393 1.75552 0.397759 -0.0489965 2.07613
358 1 19.89 -13.2802 12.0218 0.0619085 5.88321 1.39176
359 1 -13.1413 -23.3863 -9.63906 -2.6672 -2.95969 -2.81924
360 1 5.43503 15.6914 3.03885 -2.64875 -2.15849 2.17453
361 1 -22.0928 -21.939 -3.29319 4.03907 3.31764 5.52436
362 1 -18.9756 11.5641 3.19284 -0.279429 -0.0743468 0.742658
363 1 -18.11 -22.8975 9.2186 2.00348 -6.56873 -1.49468
364 1 -10.7851 3.20134 -8.65904 -6.09938 2.02594 4.13788
365 1 -1.19625 -16.3512 21.3024 -0.345255 -1.54728 -3.76278
366 1 -20.2336 1.8348 -10.3557 3.99229 -3.36151 2.05701
367 1 9.29607 19.1622 -16.3405 -5.20296 3.76029 1.12335
368 1 3.41628 -4.58229 12.0609 0.759939 -2.93719 -5.00865
369 1 14.3324 7.31867 -12.9449 -1.93099 -6.78049 -1.43163
370 1 6.44996 -15.8544 -23.1697 2.48124 -5.57416 2.91047
371 1 -9.64095 45.2997 20.89 -0.518683 0.300246 0.847039
372 1 -8.11109 23.5668 10.0992 3.00077 -2.30533 -0.7847
373 1 -16.0218 6.23541 20.4784 -1.1735 4.70404 -2.94948
374 1 -8.14035 20.4355 -11.6268 3.52035 -1.5923 1.23758
375 1 -21.0269 -7.46086 23.0029 -2.26447 1.80952 -0.981791
376 1 -5.41547 -12.7683 -16.1624 -1.96276 -0.430146 -3.65287
377 1 14.6894 -0.829762 16.5572 1.27361 -2.42819 -2.86747
378 1 20.127 -14.3543 -3.69522 2.56555 -2.12396 -4.60768
379 1 -24.283 25.3057 2.25753 -1.36511 -0.714056 1.70777
380 1 12.4869 18.2444 -22.5228 -4.90193 2.73724 2.88267
381 1 -19.9736 -15.5923 15.7711 3.73049 0.466734 0.593018
382 1 17.8297 17.5085 -5.01917 0.234987 -3.00335 -0.6232
383 1 12.2618 -23.1229 7.68443 3.00099 -5.13094 2.57162
384 1 -12.0023 13.1806 -6.55764 -0.909897 4.2475 -2.92906
385 1 -9.8572 2.04938 20.1484 1.4226 -3.89894 -3.67749
386 1 17.3322 -4.20814 -18.3761 -1.8213 -6.63919 1.58507
387 1 6.3635 -18.4054 2.43615 3.61045 1.13534 -2.58409
388 1 -18.2975 44.8311 -23.65 -0.249525 0.420836 -1.19055
389 1 -13.9642 6.906 7.413 -0.846725 -1.89442 1.11845
390 1 12.7641 7.16988 8.40764 -3.19952 1.77453 0.760359
391 1 20.0597 1.45375 18.45 -1.16573 0.666298 0.631014
392 1 17.1743 -9.88663 19.4277 -0.825783 -0.0243208 -2.19475
393 1 -11.7947 -20.0805 -13.8772 -0.739266 -3.15319 -2.83045
394 1 -9.18363 11.8225 -3.42202 0.345492 0.0138645 4.35096
395 1 -8.04888 45.6436 18.5475 -3.56067 2.15255 -1.90136
396 1 8.29699 -19.0099 0.0659191 -0.0917245 3.61243 1.73875
397 1 4.53168 -20.9976 19.2748 2.64553 -1.03265 -0.088653
398 1 -23.2644 -22.3637 -5.9749 2.24667 0.0769622 -2.78913
399 1 11.4436 14.588 0.428697 0.535235 0.316064 -0.380133
400 1 -22.7428 -17.746 -0.95526 -1.01466 -0.954361 -0.111571
401 1 19.0673 -17.6866 -4.83027 0.0497644 1.81428 -0.330039
402 1 -1.63447 10.4176 18.4921 4.69257 -2.90052 1.17035
403 1 16.2338 1.95232 23.2604 -6.74559 0.864586 0.788317
404 1 -14.8702 -1.52722 1.50134 4.23452 -0.505004 1.59238
405 1 5.62055 -23.8084 -7.12547 2.70432 -0.221894 0.936538
406 1 -5.55443 -21.908 23.7566 -5.15784 -1.21018 2.92595
407 1 1.25254 -8.58929 16.5749 1.8948 5.07252 -4.62647
408 1 -2.61644 -1.52929 -18.0209 -2.70483 -0.653589 -4.1566
409 1 -0.180511 1.81674 -6.56684 -3.626 5.3589 4.30703
410 1 -15.6745 12.1955 1.54433 2.19334 0.041949 -1.55715
411 1 -3.1412 -4.3925 -7.62085 2.90546 1.56628 -2.17513
412 1 -17.1225 -7.53626 6.54279 -0.778828 -0.615953 -2.10427
413 1 -23.4344 23.6601 -0.0890591 2.70331 3.51618 -5.98551
414 1 4.12737 19.9763 -13.2567 -9.05654 1.95685 4.49087
415 1 -17.5787 7.35173 -8.20674 -3.74987 -0.832643 -1.62214
416 1 23.3401 -0.826551 11.8543 1.17756 -4.09588 1.50253
417 1 -13.0107 -1.49607 9.72786 0.114067 6.18502 -2.2276
418 1 23.3808 17.6671 4.61125 -1.29339 -3.22455 3.47454
419 1 -23.313 1.95925 22.8165 2.82726 -1.76453 0.26358
420 1 -2.29823 0.267388 11.4026 -1.3102 -1.71059 2.48154
421 1 -14.5393 -23.5494 -13.9555 -2.27684 2.5118 0.422132
422 1 -4.1671 16.555 -23.3016 -1.39945 2.34908 -0.295459
423 1 -9.24381 2.42538 2.62348 -5.35865 -4.33682 3.59973
424 1 5.34361 -5.05876 0.296127 -1.46635 1.63066 2.94451
425 1 -23.6601 15.83 17.4435 1.36917 -0.34922 5.59627
426 1 -15.1491 -1.8732 -7.44562 -4.48538 -0.768447 3.8948
427 1 -15.247 46.4252 21.4306 -3.10454 -0.959507 -4.07857
428 1 8.66988 13.1706 -7.69889 -5.5899 -0.949132 -5.73178
429 1 -7.1438 10.3982 -16.8363 0.407881 1.59879 -3.23248
430 1 -20.6552 -3.89963 -22.9801 1.29188 -2.86485 -3.3432
431 1 10.267 -4.68339 -18.4762 7.45496 -1.92458 1.04119
432 1 7.8022 -3.3485 12.8658 -5.53493 0.828822 -1.48259
433 1 -19.2908 2.55704 -17.8741 -4.5115 -6.6339 -3.1788
434 1 -11.41 -0.807787 -12.482 -3.36648 -0.863692 4.28633
435 1 1.55262 23.4893 7.46076 -4.82777 0.451004 4.49508
436 1 -13.9844 -10.2101 -12.2079 -4.43832 -0.00751606 -4.56597
437 1 20.886 20.1416 -12.7655 -0.605713 -2.31316 3.54597
438 1 -15.9784 6.05775 -3.41155 -1.30279 -3.45377 -0.848968
439 1 -1.5897 23.235 -6.51666 -2.35104 2.59217 -2.274
440 1 -10.5445 12.8523 -14.2968 -0.790324 -0.200901 -2.06372
441 1 17.4475 0.908392 -5.58848 -7.22735 0.766669 0.772434
442 1 3.99206 1.8055 14.894 4.93063 0.942092 -1.82547
443 1 18.7375 24.4639 12.345 -2.27383 -4.12234 -2.04268
444 1 23.4125 7.25545 -19.9561 -2.80592 -0.281513 -0.584407
445 1 18.6728 -11.3472 -12.4078 0.206506 -1.81584 1.02886
446 1 22.9323 -15.6733 -5.8099 -1.44343 3.53245 -3.97051
447 1 6.91801 20.4023 14.745 -0.668164 -2.26158 -3.57445
448 1 -15.8791 -0.854055 14.7206 3.35693 1.21792 -1.57716
449 1 14.7595 -3.96926 -4.33737 -0.833008 -2.17634 3.42134
450 1 13.0921 -18.8077 8.4819 -1.13998 -3.32406 -1.14563
451 1 -23.5846 -11.1812 -19.3336 -1.77197 0.280488 4.51292
452 1 -23.869 17.6573 -1.41163 -3.23164 -1.17255 1.94071
453 1 -18.3027 13.6159 7.5147 -4.46947 2.06965 -3.01115
454 1 -3.44378 1.97707 -14.2674 1.1131 -3.58084 -1.65419
455 1 16.0437 -13.2754 15.5088 -1.3705 -3.7304 0.632809
456 1 -4.43672 15.2278 22.3622 -1.1176 0.575972 2.1033
457 1 6.23004 22.2534 20.2912 5.35816 -0.659902 1.28131
458 1 21.427 20.4595 17.6852 -3.70547 -1.57391 -1.41766
459 1 1.25815 7.01823 -13.2629 -1.29338 2.61556 2.52144
460 1 3.38167 8.854 -22.273 2.13948 -1.29491 5.7646
461 1 1.20119 0.152641 -20.845 3.50784 -0.621615 1.19432
462 1 -7.03261 -18.5334 20.575 -6.42277 1.17963 -1.52605
463 1 6.01744 13.9494 9.11927 -2.88592 -4.77944 -1.14422
464 1 -14.0124 46.8596 3.98254 1.78398 -1.13142 -3.77688
465 1 -2.50863 -11.6314 5.55268 -1.63913 5.28839 -4.80298
466 1 15.5863 14.4745 -21.4921 0.560071 -1.60525 -0.37909
467 1 -6.67026 -11.9785 12.4334 1.9571 2.65344 -4.20627
468 1 -24.0157 18.3685 -8.55957 -2.16184 -5.79107 -1.21478
469 1 -22.4967 -14.523 13.2417 -2.81243 0.734601 -1.95885
470 1 -19.4084 7.14697 -13.0236 -0.478452 2.96139 1.74719
471 1 23.5302 -8.48591 -8.68972 5.72671 0.471727 2.62741
472 1 -16.8463 -7.17777 16.7065 0.646265 0.159344 -3.82172
473 1 5.36984 13.5864 11.7757 -0.377605 -1.76975 1.47004
474 1 5.72627 -8.66484 -11.3056 1.63105 -4.57705 -0.376196
475 1 18.3613 13.944 -20.4389 0.181479 1.00848 -2.77599
476 1 -13.3912 -6.3758 -3.08457 1.81984 -1.47522 -0.222997
477 1 -11.1888 -9.22842 -14.6376 3.16108 -1.26439 -0.46633
478 1 1.75198 1.60923 -23.3706 2.91387 4.09883 -1.17704
479 1 14.4798 -19.7726 15.8169 1.69865 -1.50468 -0.813149
480 1 0.313729 -11.5953 8.23646 -4.56423 1.83313 4.23031
481 1 -0.663334 8.99571 -18.8648 0.285485 0.620309 -0.210547
482 1 -22.7916 -4.08664 20.4829 1.1071 -1.00932 -2.82363
483 1 6.70207 -15.8159 -0.501498 -2.40902 2.71563 -0.418643
484 1 21.6133 -16.6234 -12.3271 -2.13486 2.84339 -0.43374
485 1 21.3594 -21.2256 -17.5112 -5.89624 -0.10857 -1.93293
486 1 15.5213 2.96917 -5.66289 -1.98633 2.52594 3.85726
487 1 3.19356 25.8345 18.7001 3.20549 0.23817 -1.39989
488 1 0.68957 -13.9337 21.5134 1.63731 -2.24625 -5.56517
489 1 -12.6636 22.4734 -12.0998 -1.09009 0.150764 -1.11879
490 1 13.3425 -17.1948 -12.2018 -0.584855 -2.80061 -3.53976
491 1 -17.2318 -13.4106 8.99086 3.63905 6.54873 1.75583
492 1 -14.1297 -16.6127 -11.7918 -2.9302 1.68556 2.40243
493 1 13.2472 1.7375 -14.3523 -2.23934 3.71481 -6.10238
494 1 7.29725 5.01773 3.20042 2.63232 -2.09995 1.57996
495 1 -2.931 -8.45112 -3.86092 -1.41173 -0.407779 -5.62169
496 1 4.73316 7.15334 -15.1493 -1.79985 1.86011 0.0205902
497 1 9.14481 16.1731 -23.1079 1.57029 2.39507 -0.464156
498 1 -24.2207 0.199993 -20.4769 -3.39504 1.45553 0.821307
499 1 -22.035 2.59579 -8.31678 -2.41978 0.376472 -0.0788667
500 1 -5.5089 -15.7839 9.77443 4.41236 -2.77562 2.75664
501 1 -15.9321 -12.799 -9.94315 2.62719 1.10712 -0.209357
502 1 11.6562 -12.8698 17.6386 0.564587 1.24153 2.03244
503 1 9.40019 0.256144 -14.336 2.50286 -2.49867 -0.353557
504 1 -1.09466 5.36527 5.71965 1.50772 -3.32259 1.24172
505 1 -1.52448 10.7043 22.981 6.55097 4.8804 4.05691
506 1 -0.804142 -21.1527 -16.0336 -4.44723 0.629146 -1.15376
507 1 15.5925 19.7459 -14.2729 1.72833 -5.53977 0.323093
508 1 -2.20131 19.9384 -9.59964 -1.35605 3.27123 3.35022
509 1 20.8244 14.8203 -19.5723 0.62448 1.40499 -3.16926
510 1 9.52082 -20.0717 17.058 3.51618 2.77188 -0.939788
511 1 8.44953 -12.4629 6.03503 -0.204539 0.0101992 -0.19049
512 1 1.51862 -3.5796 16.9437 -2.91122 4.734 -1.45714
513 1 -19.6907 -11.4908 19.879 0.522881 0.180502 1.00122
514 1 -15.8254 20.7436 19.6625 2.98463 -1.32006 0.231588
515 1 -2.28937 4.08598 16.5524 3.0698 0.395784 2.23872
516 1 10.9747 -23.3144 -1.94934 -5.44454 -1.7174 -0.327319
517 1 -14.9771 -3.15887 -21.8493 -3.3518 -0.358619 -3.74802
518 1 22.8432 -24.2506 3.00636 -5.54996 -1.63122 0.600214
519 1 -21.8061 -15.6501 -6.3445 -2.35298 -2.70405 -2.47399
520 1 -4.97588 -24.2217 -12.6661 -1.72715 -3.24088 -0.301486
521 1 -8.04869 23.7755 -8.15149 1.73726 -2.78296 -0.112506
522 1 2.83993 -17.5791 6.97003 0.79135 5.70834 -3.59926
523 1 -9.67581 -16.0068 -8.31435 -1.53519 1.60331 3.99988
524 1 -2.60965 -1.15691 17.0926 -0.827069 1.65256 -2.01037
525 1 -8.10663 0.902748 -0.804534 -0.597525 0.863897 -2.48761
526 1 -19.1106 16.1057 -5.02672 1.77268 1.6857 -0.0817127
527 1 -2.4321 13.9958 -7.1838 1.87944 -8.88067 8.20946
528 1 -13.56 15.9061 -12.9177 1.8846 -2.19199 1.15333
529 1 -9.35504 -11.1116 8.65486 2.06779 -1.70378 -1.39259
530 1 -8.61739 0.949312 10.3229 0.0111457 2.19262 0.663084
531 1 21.6811 -7.43136 14.8252 -0.40003 -1.94928 0.942898
532 1 -10.0659 -2.55508 -3.92698 1.55574 -1.67891 3.30457
533 1 -9.67224 -21.0317 13.812 -2.40414 1.53027 -1.52838
534 1 18.3348 8.67651 -10.2984 2.87232 -1.96986 -3.45373
535 1 3.88887 11.4445 10.4506 1.48501 -5.92803 1.86429
536 1 4.35248 -6.17412 3.52605 -2.92641 -4.34758 -2.53393
537 1 9.13646 -4.80018 2.22473 -7.84635 -0.277101 1.0359
538 1 -24.2858 -7.81601 11.0512 2.92409 3.47498 5.10822
539 1 18.5823 11.7482 -5.40853 -5.01638 0.109527 0.547427
540 1 -13.147 -11.4283 2.40344 3.75655 2.11561 -1.50734
541 1 -10.9946 -1.40268 13.882 1.39927 -1.23008 1.29723
542 1 23.3636 4.92165 -8.05208 1.34515 -3.37829 2.48209
543 1 21.0685 -16.9689 -16.8829 0.11669 -2.79662 1.56708
544 1 -4.97219 -16.3196 -18.1992 4.00251 1.07229 4.11402
545 1 -24.2013 -16.5285 13.7862 -0.0337808 3.41998 0.66963
546 1 -5.3385 -16.4334 -15.1284 1.1359 -2.84737 -1.35554
547 1 15.7361 -12.6151 -20.1567 -1.506 -3.42079 -2.5621
548 1 10.1446 0.72056 19.8429 1.84652 2.40577 -4.72144
549 1 -20.0865 -5.27822 6.6702 -0.99278 -3.3069 -4.11191
550 1 -0.102013 -23.4611 -14.6811 -3.13668 -1.39716 -1.84
551 1 11.7938 7.32184 -17.6568 -3.95868 -1.34526 3.42045
552 1 2.25451 -15.8419 -0.241581 -2.04567 -3.26016 -2.47357
553 1 -12.4993 5.92331 -1.6704 1.04131 0.623808 0.915435
554 1 3.09913 17.8256 -15.3037 -3.68552 1.17553 6.83081
555 1 -16.0397 -17.0222 -0.82896 -4.56872 -0.70348 0.885411
556 1 -12.5499 17.7707 -1.32049 -1.17563 -2.58815 0.830031
557 1 11.9146 -23.284 -11.2776 1.86831 2.69207 0.792579
558 1 -4.61555 -13.0196 14.7283 -3.34091 -3.95034 -4.05112
559 1 -8.50805 -19.0992 5.1493 1.6312 1.02713 -1.98518
560 1 23.41 44.5951 -5.20533 2.81139 -1.68001 -0.456408
561 1 7.2414 -23.6918 18.6784 3.1034 6.7056 -3.22209
562 1 7.17138 8.58888 -23.1412 2.46134 -2.94869 2.6262
563 1 5.35998 -19.1672 7.42938 2.89786 -0.350646 2.17616
564 1 -10.5037 -21.7744 9.58682 -3.26271 3.88651 -2.88614
565 1 15.8114 -24.0032 22.6555 0.966292 2.17855 -0.757123
566 1 18.9868 15.2883 14.7138 3.2939 2.7934 -0.69282
567 1 -20.8434 24.7333 -2.13612 0.156164 1.01786 3.34824
568 1 4.72367 -8.14574 5.66057 -1.108 2.21385 -2.75256
569 1 -8.72564 22.8156 -15.4492 -2.93584 -3.34359 -2.12043
570 1 -23.0635 11.47 17.2815 6.71252 -1.58755 0.898125
571 1 -1.47864 -11.9277 20.989 -1.44919 3.45432 3.68497
572 1 11.0829 -23.1822 4.9753 -0.885081 -3.18233 4.99618
573 1 16.687 -5.62358 4.79815 -1.19062 2.41466 -1.14537
574 1 14.6091 -21.988 -5.05426 -0.275638 1.32418 0.216647
575 1 -14.2453 4.98123 -5.60289 3.06866 -4.27695 1.18895
576 1 -23.5421 1.04265 18.4973 -0.487567 0.828195 -2.42987
577 1 -9.72455 21.0704 -0.07907 -3.01006 1.29442 1.18631
578 1 -23.7091 21.8365 -22.7966 -1.6141 -3.91287 -4.36953
579 1 1.48083 -22.8584 -12.3537 3.79362 1.17958 1.53692
580 1 -6.57532 4.2823 -21.5382 0.572861 0.118134 -4.52594
581 1 -14.1103 -11.5477 11.8098 -2.82641 3.81959 3.62454
582 1 -4.33623 -10.3696 -17.3484 -2.28496 3.07098 -0.964898
583 1 -22.0318 23.8835 12.7622 0.984285 -2.87826 -3.32476
584 1 16.906 1.80957 -8.6424 5.55461 -3.32075 4.87728
585 1 -7.56766 12.2706 14.5961 -4.63573 1.3688 1.97117
586 1 17.8985 23.3336 -20.3427 3.96236 0.674297 -4.11541
587 1 -20.428 46.5231 -10.9841 0.283403 2.88503 -0.666289
588 1 -16.6544 23.4192 5.55273 -0.043218 -2.25123 3.74095
589 1 -0.631777 1.73938 0.479384 -1.95278 -0.67584 6.99134
590 1 -6.91876 19.2299 21.8681 -0.660659 2.4621 1.47972
591 1 20.0321 -19.4945 13.1728 -0.119461 2.38497 -0.767947
592 1 -14.5013 -14.834 8.31546 0.101492 6.06923 1.6816
593 1 -12.3357 -22.0028 17.0491 -0.1276 -3.63773 -3.04727
594 1 -21.6403 -0.905303 5.40597 -2.67663 -4.98662 5.8842
595 1 10.8858 -18.9367 23.4258 1.20744 0.0317604 -2.68684
596 1 -12.6827 -20.8438 5.38607 2.9314 0.134119 -2.10334
597 1 23.0196 45.2464 -10.0209 5.26191 1.74673 2.46374
598 1 14.2663 -18.2343 4.65913 5.14389 -2.15226 -1.24329
599 1 10.6894 -14.2225 15.018 -5.0474 0.0300571 -4.12884
600 1 -22.0315 22.5734 18.8774 -3.27757 2.26917 11.3876
601 1 0.434825 -1.75589 20.2416 1.53178 -1.60122 -2.00157
602 1 -12.5192 2.01924 20.1193 -4.27904 -4.24644 5.68372
603 1 -6.14021 7.88924 -4.83921 -2.21449 3.20265 0.980803
604 1 2.7517 26.0394 -21.7722 -4.66863 -1.34163 2.47825
605 1 -20.7123 -0.129332 18.4509 -1.18837 -0.471147 0.104806
606 1 2.94781 -1.69919 -22.0881 0.939964 -4.61673 -5.82259
607 1 -2.70775 -2.76499 14.7079 2.04779 1.8751 3.18652
608 1 5.42941 4.65916 -11.2435 3.40211 -2.09969 -0.676738
609 1 9.45772 -21.8227 19.5415 -8.52299 1.13802 -0.652421
610 1 13.7326 -3.37622 15.0692 0.655599 -0.236045 2.81989
611 1 0.199942 -9.36233 -8.18678 -2.65116 -2.9447 -3.0465
612 1 -3.09585 11.4115 -11.4133 3.49732 -1.00141 -0.842483
613 1 11.1164 9.48342 -21.2347 -0.72963 -4.7177 1.79948
614 1 -17.6712 -10.4121 -5.54758 0.983153 5.43445 -4.34345
615 1 12.0501 -3.77716 18.4457 -3.16261 -1.00773 -1.31546
616 1 16.6544 -1.31286 20.4768 -0.115334 1.96451 -2.01305
617 1 -11.2209 25.713 -18.1176 1.76397 -0.365089 0.399009
618 1 15.2521 7.0774 9.55409 -0.441933 0.602089 -1.96949
619 1 14.2107 -2.77115 12.3069 7.16157 3.30755 0.869912
620 1 21.3352 -14.0049 -8.85908 -3.19922 -5.01507 -6.10543
621 1 -7.72035 12.1975 -14.6946 1.41762 -0.545732 -2.04638
622 1 -23.2985 -8.8041 1.05899 -3.99369 -6.24422 -1.21759
623 1 21.1986 -13.764 5.82672 0.923939 0.00108837 -2.83151
624 1 -9.5339 4.44459 -21.9355 -0.825377 -0.418673 -0.989858
625 1 -0.539518 -8.66103 -5.43564 -1.01297 -1.36004 -3.4015
626 1 -3.61379 6.55454 -19.6578 3.13468 -1.12204 -2.14044
627 1 21.6386 14.4992 12.4196 -4.54499 -2.26557 -1.95762
628 1 -23.5821 -15.2834 0.183068 -0.997776 -4.75525 4.48015
629 1 -6.15314 9.80687 -7.24286 -1.00391 -2.23308 -0.343727
630 1 -21.6779 22.0903 10.7065 0.956634 1.33063 0.628675
631 1 -5.60105 -19.5221 16.1782 2.9906 3.22335 -1.23884
632 1 -15.4564 -20.5275 4.02736 4.65187 4.25848 1.81851
633 1 5.38195 10.7859 -23.6061 0.863537 -1.46712 5.50159
634 1 -10.6026 -4.13285 15.4727 1.28451 6.29802 -6.95326
635 1 7.96646 13.0456 -3.15097 0.711756 -5.11462 1.94821
636 1 -24.141 2.37962 -16.3958 -3.83081 0.271374 1.44918
637 1 -9.55362 -23.7947 -23.6255 -0.0969653 -4.85768 0.0512478
638 1 13.2152 17.8709 -4.16934 -0.287136 3.06883 -0.243941
639 1 -11.8512 -17.9189 -21.3948 -0.475963 2.44156 -0.278674
640 1 0.712289 -0.432095 2.14754 -0.241393 -0.848283 1.72115
641 1 -14.7175 17.3009 5.19037 0.229779 0.38103 -1.71333
642 1 -4.98968 -1.88213 5.11068 -0.424378 2.03338 -0.980593
643 1 10.8006 -20.5732 8.58609 -0.517647 -0.405236 1.0587
644 1 -7.13933 11.9488 -5.55772 -3.31205 -0.790579 1.64936
645 1 -8.30826 -3.45535 -20.4473 2.13792 -1.63279 3.40917
646 1 14.4954 25.4414 15.6738 3.49665 -1.33396 2.42154
647 1 4.62911 4.10447 -4.77661 -2.8653 -6.03745 2.46765
648 1 18.0764 -15.1996 -22.0017 1.09536 -0.0888815 0.542318
649 1 7.5645 -15.496 17.7248 1.25559 -1.27857 4.32316
650 1 -9.05188 -0.0769437 17.8347 3.52716 0.195772 -2.7948
651 1 -21.0178 4.92544 -13.834 -1.17908 -6.48481 -2.62907
652 1 -8.10488 -0.62923 -19.6512 0.590518 -1.8641 3.43986
653 1 -22.6094 -21.847 -14.621 0.894013 4.54959 -0.56308
654 1 -11.0389 -0.899835 -21.3634 -4.86536 3.44852 -3.75635
655 1 -6.80855 -10.0459 -13.901 4.76457 -0.539608 -1.52609
656 1 1.0145 23.093 -10.4554 -0.579463 0.893249 2.9903
657 1 -1.55658 -3.4832 -12.3715 2.54352 1.65648 1.26422
658 1 19.675 12.5868 13.7167 2.97009 -1.2381 1.01303
659 1 7.38203 -4.28444 20.651 -0.887652 2.75414 -2.15353
660 1 7.96894 5.65293 7.37806 3.98425 -0.510492 1.86053
661 1 -20.5589 -6.88769 -16.591 0.796026 -3.03985 -2.34635
662 1 -0.372607 -5.56422 6.69678 0.983298 3.54852 4.09818
663 1 -14.9332 -18.1836 -9.51189 -6.57557 1.19725 -0.125412
664 1 -14.0892 -24.3924 11.0407 -3.31965 -0.484934 -1.62954
665 1 -1.78337 -5.77845 18.1319 4.39377 -1.1462 -0.730229
666 1 -10.8335 -3.73943 -13.2518 0.770573 -1.86014 3.24944
667 1 -19.7783 -20.6197 22.5758 -4.38887 1.77643 -2.26334
668 1 -9.90733 14.1733 18.288 -0.609158 -0.762081 -2.36015
669 1 6.53054 -15.4192 15.1077 1.46644 5.12704 -4.91748
670 1 2.51497 -12.8961 -0.683475 1.76563 -0.328643 1.57285
671 1 19.2709 15.1905 2.81686 -0.806406 -4.27962 3.38951
672 1 -22.7905 3.91223 -11.6592 -4.81472 0.584999 1.66516
673 1 -2.10807 18.1801 23.6047 1.48654 5.46237 1.98436
674 1 -10.7475 1.84124 -21.6014 -2.48906 2.23343 -2.34407
675 1 -20.826 -11.4073 -6.915 5.32009 -2.12074 6.87766
676 1 5.71621 3.36776 17.9865 -3.7351 -0.594061 -0.23977
677 1 -23.4376 -12.5376 -10.0801 2.98152 1.30527 3.11559
678 1 -22.1586 -4.09121 -0.517015 -0.906975 -0.00947793 0.718167
679 1 -17.9516 3.67995 -11.6465 0.569531 -0.201308 3.98092
680 1 7.78693 22.7283 -8.8371 -1.97289 -0.983671 0.679939
681 1 -2.7802 0.557695 -6.95394 -2.70383 -2.57051 -1.97187
682 1 -4.16553 17.8366 -9.31017 1.40065 -0.355063 -2.21382
683 1 2.60445 11.5337 -18.1522 -3.30819 2.22912 -0.556651
684 1 11.1288 -20.8541 -12.3647 0.277438 1.0698 1.70051
685 1 21.1239 -1.80142 8.51157 -0.0296466 -1.72883 1.18858
686 1 -14.334 -2.11966 16.8807 1.17247 -1.87595 3.86377
687 1 -11.9238 6.2932 9.3181 -0.254573 -4.47917 0.0536396
688 1 -10.8831 -12.6196 -13.6915 -3.41715 5.20324 -5.08057
689 1 -1.02843 2.73366 -4.04218 1.4815 -0.6553 -0.714519
690 1 -0.0997738 21.5666 -8.24858 2.19174 3.23388 1.17709
691 1 -0.86413 7.49313 15.9767 -1.5556 -2.38847 3.29757
692 1 -9.13197 -5.92588 1.75419 0.757174 -0.426844 -9.62124
693 1 -9.50504 22.5445 4.30907 10.055 1.28483 -5.49832
694 1 11.6145 -16.4719 1.1959 -1.68217 -2.04495 -6.06934
695 1 4.60429 -13.3227 -11.4859 0.304338 -4.53101 -0.0141614
696 1 -7.83895 -21.755 6.45753 -3.5239 -0.903287 -3.77161
697 1 -20.5505 16.9407 -19.2116 2.9478 4.49988 0.429042
698 1 23.3093 -12.7864 -5.50503 3.43922 1.91001 4.47741
699 1 -14.7211 -14.7717 15.7241 -2.2164 -0.431971 -1.78579
700 1 0.8939 7.80519 23.3202 0.507141 -4.23408 -6.02245
701 1 16.8968 -0.252211 9.00467 2.52465 2.32695 1.14259
702 1 -16.0666 -4.33833 11.3137 -1.8549 -1.49918 1.77677
703 1 7.6494 23.9223 -22.6559 -0.107476 -1.91793 -0.114164
704 1 -10.6177 -13.2543 10.2991 -4.58014 2.24179 0.358819
705 1 6.47137 20.6668 -14.7792 3.70144 -4.31412 2.63703
706 1 6.50884 0.963357 19.5269 -1.50488 1.06915 -1.71384
707 1 -16.5635 1.53393 22.3548 -4.29049 1.01073 -4.02891
708 1 7.84253 -6.29436 -18.5466 -2.21011 -3.20766 -0.207352
709 1 -9.48097 -5.08124 -5.21475 2.61212 -1.52509 -0.656742
710 1 -3.98985 -10.2444 14.5473 -2.2856 2.46813 0.68764
711 1 -13.7219 -5.73578 -17.2496 0.24873 1.27062 2.82228
712 1 5.70754 -8.98431 15.8453 -2.5997 0.70509 -5.54242
713 1 2.67131 7.56037 2.94598 -3.90101 1.93485 -4.16445
714 1 16.9177 -6.60967 -11.9337 0.182657 3.12369 3.17009
715 1 0.180443 18.187 12.1152 1.54159 -2.90764 -3.69756
716 1 1.49507 -21.117 8.12442 -0.565105 -2.06084 -0.104214
717 1 -12.3974 -3.73811 -15.4895 0.694392 2.06764 -0.866561
718 1 -12.6652 -7.82 2.45923 2.68506 -3.34169 1.65512
719 1 16.0529 -9.6472 13.5265 0.580179 1.95825 -5.68676
720 1 4.99231 -6.23394 -20.7023 1.96027 -1.61092 6.71437
721 1 -11.4687 -5.92787 -19.0043 1.86644 2.34224 4.41591
722 1 6.50607 -21.194 -15.3739 -3.75106 -3.12375 4.30416
723 1 -21.3435 13.9366 -5.07028 -0.880996 3.02979 4.3611
724 1 -10.3659 21.951 -10.5238 5.21478 0.575597 -0.184106
725 1 4.35098 19.9501 -20.6166 2.24976 1.18319 0.941119
726 1 -5.4871 -10.1054 22.4899 2.94835 -2.93202 4.34726
727 1 6.15093 -5.12898 -16.597 -1.17025 2.86173 -4.26497
728 1 -11.363 16.8985 -8.42369 4.60037 -1.37738 2.51173
729 1 -13.9227 14.5634 16.7361 3.52461 -3.07013 1.37177
730 1 14.3836 -21.2533 -18.0385 1.05203 -2.51126 1.21057
731 1 -12.8168 13.1699 23.6128 3.18652 -3.88904 2.77909
732 1 13.3038 -23.2749 -8.67782 0.770253 0.143785 -1.72315
733 1 -15.7371 -17.8282 5.34975 -4.69035 -2.99874 2.81291
734 1 -21.3449 21.4424 21.3761 -2.40235 0.639707 -1.323
735 1 16.7989 9.2081 5.51863 2.89369 -1.79298 -2.87744
736 1 6.81397 18.7789 -6.90748 1.03579 -0.0186889 -2.65101
737 1 20.9609 -16.4662 6.19495 -1.49904 -1.8675 -2.01025
738 1 -9.01896 6.00281 11.4624 5.50192 0.275677 3.8871
739 1 -19.79 -20.321 3.86502 -1.90314 1.43251 1.73773
740 1 16.4452 12.0919 20.2913 1.81747 -4.36263 -2.54282
741 1 -14.533 -21.062 -12.3161 -3.10126 -2.06203 6.49674
742 1 -8.02471 45.8805 23.1242 0.808461 0.893495 0.779803
743 1 -22.9798 19.926 3.25417 -4.85969 1.03731 -0.929286
744 1 9.35599 -16.8378 -12.4555 3.6731 1.4309 -2.52984
745 1 -21.3163 2.23911 20.3729 -6.99327 -1.77608 -0.183245
746 1 -16.957 -6.95629 23.0946 1.07053 3.60126 -1.10509
747 1 12.1374 -10.1245 3.31134 -2.68323 1.90487 3.52389
748 1 -12.1371 -20.5659 23.4123 3.41852 -0.165388 -2.5464
749 1 -2.52116 15.5274 10.0064 0.835364 2.17079 1.91351
750 1 14.5076 -3.84181 -13.6666 -6.30719 -2.51643 -3.09554
751 1 -17.1229 11.9915 -13.3354 -1.41338 0.588536 1.53386
752 1 19.6073 -18.9985 6.61301 -1.82936 -3.4633 -2.35212
753 1 -16.118 -16.7109 22.1143 -3.9645 2.50226 1.03501
754 1 -15.4682 25.4344 14.667 -0.43012 -5.73989 -1.43942
755 1 12.8171 9.03144 -23.8113 -1.97113 -2.72701 -4.43604
756 1 -5.69451 -3.96422 -2.38553 3.31317 -1.3986 -6.21383
757 1 -19.3507 12.284 -4.22685 -0.269159 -0.443394 1.10002
758 1 -16.3631 -19.3509 18.7282 -1.06899 0.95779 -1.32717
759 1 0.691274 12.4995 -10.1043 1.53003 -2.03489 0.30891
760 1 0.264025 5.40573 14.2381 -0.761372 -1.57387 1.363
761 1 -9.01826 -11.8959 -6.41567 -3.77861 1.58973 3.86369
762 1 4.15888 18.3435 21.1554 -1.30711 -2.06026 2.50283
763 1 15.4683 4.21205 10.0598 -1.54948 -0.674319 1.30949
764 1 21.1136 2.29259 7.98279 2.60743 3.59351 0.68662
765 1 22.1172 12.1456 9.72475 -0.171485 -2.72699 -1.58264
766 1 -11.3587 19.6716 -16.5376 2.09802 1.2749 -0.236393
767 1 0.252512 -11.3107 0.701678 3.53066 -5.26756 -3.41625
768 1 -5.51077 9.83861 7.4323 0.63326 -1.54761 5.13167
769 1 13.7652 26.9056 18.2702 -3.38882 5.29099 0.518887
770 1 -2.24382 22.8131 -22.4555 2.32547 -1.03972 2.71588
771 1 9.10798 -16.113 13.9652 -0.547543 0.029285 2.55207
772 1 4.01378 9.02301 6.89137 -0.159256 2.20427 0.943466
773 1 12.7639 -23.8426 14.4581 2.72679 2.73591 1.47853
774 1 17.2059 17.089 13.3601 2.00363 -0.173353 2.10798
775 1 22.0903 -20.4597 -12.359 -1.94589 1.27467 1.48931
776 1 5.91553 0.734091 23.9127 2.41217 2.07829 0.802225
777 1 21.8636 -9.62403 -11.1585 -1.36336 -1.19212 0.414951
778 1 0.896625 -17.0307 -15.3757 -0.488638 0.992587 -3.47274
779 1 6.72149 2.56647 -7.15836 -2.37072 -1.63035 3.71713
780 1 -4.81504 -6.87797 -21.1447 3.6209 -1.27303 7.35606
781 1 -17.8137 1.81061 6.54806 -1.73856 -2.51197 -5.04521
782 1 16.7029 -5.80618 -14.4709 3.8207 -1.31735 -1.43461
783 1 5.94138 -14.0237 21.704 -3.06369 -1.46457 2.31101
784 1 9.93082 15.0658 -3.97288 2.61201 2.63107 -0.922985
785 1 -2.55436 21.084 23.0228 0.046401 -3.14689 0.282287
786 1 -24.0837 20.6401 22.4657 -0.351829 1.7166 -3.27873
787 1 8.82094 14.6641 -13.3092 -5.9608 6.18128 4.00524
788 1 -21.7624 5.7018 3.61183 3.29388 0.67802 0.338763
789 1 -13.5248 18.075 1.55264 2.37618 0.659066 -4.47868
790 1 4.80219 -0.544708 13.133 -2.19231 1.98547 7.17787
791 1 -2.66741 24.0346 14.9134 1.86432 3.11756 0.896734
792 1 -23.8227 14.7711 -6.44341 1.45127 3.51642 -1.21666
793 1 -24.5295 -11.6034 0.904474 -2.27663 2.74207 -1.88992
794 1 4.64293 17.5342 -22.4722 -3.07804 5.52029 1.18912
795 1 19.9827 -8.02954 22.3156 -0.563439 -3.11526 6.00332
796 1 -8.01424 -15.7207 -17.6032 0.901881 -1.1055 -2.78617
797 1 -17.7066 -12.5267 13.4478 -3.43275 -2.65748 -3.93684
798 1 -14.2897 0.890972 -8.35472 0.996107 3.84887 0.096186
799 1 -11.1195 19.9358 -2.52117 -3.01758 -0.331215 1.88215
800 1 -19.0554 -12.9689 17.2454 -0.920718 2.67601 -1.22699
801 1 17.4068 14.8775 -1.6737 1.92166 5.88769 -1.02072
802 1 -18.3438 -20.992 14.6989 0.426593 0.825303 6.44124
803 1 20.3952 -11.5019 -7.88498 -5.63401 0.531452 0.648235
804 1 8.88726 -20.4519 -7.10448 2.28526 2.82172 3.32743
805 1 10.2502 23.8621 23.674 1.98345 2.71851 2.51995
806 1 -0.0504642 -12.7806 13.3868 -4.11173 1.71243 0.252117
807 1 14.3709 25.132 -22.5312 -0.147721 -0.351025 -1.37389
808 1 0.555744 -19.9058 -12.1959 -3.11979 -0.672444 0.672467
809 1 -5.3601 24.8806 -17.6137 -2.83669 -0.685805 -3.15522
810 1 22.5735 -15.6625 -2.87547 -2.94956 -2.54596 -2.64554
811 1 -12.5827 -9.98672 -6.87206 1.69573 3.96214 -0.434239
812 1 2.3015 -10.8203 -9.41329 -0.852577 4.07743 -4.14849
813 1 -15.1762 23.5698 -15.4362 -0.721127 -1.90792 2.79737
814 1 -22.5163 -1.36762 -0.850247 0.38578 1.21814 -0.198247
815 1 -18.3962 12.3397 -16.2752 -2.57351 -1.01268 -0.898913
816 1 18.2599 -18.7225 16.5983 1.29687 -4.2675 2.64558
817 1 7.81578 -11.0827 16.2526 -1.04222 -2.63118 -1.58643
818 1 -8.6748 7.11016 20.5606 4.96185 2.67246 2.67735
819 1 8.96701 11.8493 22.7016 0.874729 1.8202 -6.7152
820 1 1.02714 13.343 6.52933 0.0404541 -2.17382 2.62615
821 1 -23.6852 47.2017 -21.1337 -2.06217 3.19067 -0.0856541
822 1 22.596 -14.7391 17.755 7.79338 1.57415 0.857927
823 1 6.60916 -10.0632 2.14856 -2.18021 3.07865 1.43435
824 1 5.15574 -18.7143 -6.89804 2.64122 1.17025 -2.57094
825 1 -20.2002 5.3202 7.50549 -4.31025 1.3216 -0.774247
826 1 -11.818 8.42444 -3.23381 0.594607 0.99678 -0.838117
827 1 -2.77445 0.397824 6.78839 -1.58974 -3.42185 -0.754426
828 1 -7.43394 -20.0846 11.883 4.26628 4.34601 -3.23657
829 1 20.1125 15.1672 22.474 1.64044 -0.5509 1.37326
830 1 -11.1005 -10.4212 19.6498 -1.76315 -6.77214 1.57268
831 1 2.56479 -16.4417 -21.219 1.47862 -4.4765 0.214113
832 1 -3.26052 -3.05024 12.0395 -1.657 2.93055 1.52361
833 1 -11.4566 -5.8842 -6.75788 2.69183 -1.07932 -4.55431
834 1 -2.33085 11.3893 0.0574819 -8.82483 4.7783 -4.32116
835 1 1.88205 6.4176 -20.9149 2.43515 -2.27448 1.06475
836 1 3.27342 -11.3944 20.8321 3.43957 4.18415 -2.96747
837 1 -19.3467 -15.0528 -8.27382 2.61547 0.122352 2.45324
838 1 21.402 -21.5011 2.23042 0.222254 1.44408 2.99175
839 1 -21.5899 21.5202 -9.59644 -1.28296 -2.83647 -0.344735
840 1 3.11191 -18.5873 13.3813 -2.50394 -2.38778 -0.209313
841 1 19.1581 1.27733 9.67787 -3.13968 2.05746 -3.6546
842 1 -5.26268 -22.4089 -2.76649 -1.67585 0.100945 -7.46523
843 1 20.0468 -5.97254 16.7255 -3.12968 -0.446458 -1.24765
844 1 16.7943 -17.4746 -17.8359 0.35464 0.514753 1.09413
845 1 17.0595 7.64076 -1.49869 4.57575 2.21411 -1.85997
846 1 9.61707 7.46123 -13.3416 -0.140524 2.40431 -3.97384
847 1 -13.0471 -22.0679 -15.7214 2.94855 1.8427 -5.17273
848 1 -7.16829 14.7383 -12.0504 5.84097 -0.757248 6.00721
849 1 21.9067 -12.4406 -11.1087 2.94182 2.63574 1.96193
850 1 15.9198 -21.7399 -23.8962 4.59055 3.45563 1.24312
851 1 -22.4014 14.5695 -14.1452 1.56479 -1.37982 -4.2128
852 1 10.8775 -4.94295 -2.21678 2.41759 -0.326918 -1.58697
853 1 12.5186 10.0959 -15.5118 2.91707 2.68115 -2.12588
854 1 -22.8396 -15.1011 4.08796 1.30544 1.86526 3.75001
855 1 -15.96 24.3726 -19.6356 0.959018 -1.03899 -0.480685
856 1 -19.972 -1.35195 -7.36429 1.36735 -1.92565 -0.243666
857 1 23.0469 -5.19246 10.5277 -3.55903 -2.84948 -5.09673
858 1 17.9237 -11.3418 16.0138 -1.89781 -0.539641 -3.64611
859 1 -14.9251 -7.59759 0.681363 2.69771 1.26692 -0.267825
860 1 9.91458 -6.71943 -16.4114 -5.09921 1.59396 -0.800125
861 1 -21.6006 24.1571 -10.8934 -1.9215 2.07745 -2.4385
862 1 3.00068 13.9104 -8.81735 0.707765 0.708686 4.29821
863 1 18.5317 -14.9854 7.30993 -3.6996 -3.45754 -1.30582
864 1 -14.4072 3.82595 18.237 -0.373016 7.98316 -2.73105
865 1 -4.45396 -23.2317 12.3799 -3.91317 -1.53124 -0.636308
866 1 14.0829 -1.84677 19.082 1.21982 1.61461 -0.639401
867 1 -2.10661 12.1953 20.6282 -2.6496 -4.82382 -5.7963
868 1 4.58169 16.4444 -3.60049 -0.231697 -0.53322 0.770317
869 1 -1.6011 20.9838 1.59638 2.26423 -3.02445 -0.617855
870 1 13.7672 20.943 17.5813 -3.7451 1.94361 3.26719
871 1 5.34572 9.01512 -17.2798 -2.07764 -1.08658 0.413909
872 1 -2.3135 -6.68776 -19.6228 3.6083 -1.33615 -1.24367
873 1 -7.45092 0.490463 20.6191 -0.47833 2.44268 0.561403
874 1 9.56285 4.6412 0.756481 5.04858 -0.713284 -3.96926
875 1 20.2251 14.2807 9.6703 -0.331853 1.71396 -5.21777
876 1 12.5404 -16.3585 -7.79462 -3.68328 -0.294285 1.85394
877 1 2.14846 -19.6709 18.3622 5.22365 -4.2461 -1.63597
878 1 7.29136 14.0788 23.8929 -0.599539 5.35943 -0.441868
879 1 16.202 7.11406 -19.0098 -1.82132 -3.15796 3.19633
880 1 1.93588 17.3143 22.9106 1.43093 2.81803 2.40262
881 1 -3.72462 -3.5482 18.7673 0.437094 -3.13362 1.96903
882 1 -13.4747 -3.81721 -2.16787 4.22856 -6.63726 2.442
883 1 18.9713 20.8351 -7.79542 2.18232 4.86808 -1.54023
884 1 16.8563 -15.729 -11.395 -3.54157 0.0721306 -1.63543
885 1 -5.30346 -17.2204 -1.78914 3.83067 -1.79927 0.846037
886 1 -5.40998 23.3553 3.11889 -2.62408 -4.02504 -1.59007
887 1 9.97183 -24.4552 18.127 1.15219 -0.404322 3.32232
888 1 -7.54651 12.6182 -18.6308 -5.58519 5.47189 -1.37974
889 1 -16.5816 -3.55292 14.1577 0.0164005 0.558409 0.0305555
890 1 12.3159 -20.7986 14.3527 0.544804 1.19365 0.715797
891 1 -23.2123 -2.66567 3.63612 1.31579 -2.05538 -1.6044
892 1 3.75425 -10.7858 -4.67588 -4.64838 -3.73046 5.08345
893 1 20.0416 -4.83015 1.60585 1.31064 -3.81459 0.479814
894 1 0.535203 13.0853 19.926 3.7049 0.292893 -2.31039
895 1 1.57563 -22.7064 5.93638 0.328746 -1.51803 1.6527
896 1 10.6098 -3.21699 21.0813 1.0756 3.94401 5.48999
897 1 -12.2541 -24.1522 8.99505 4.63486 -4.72335 -5.37176
898 1 18.9346 1.12264 23.6463 1.46321 -2.32715 -0.477657
899 1 13.3429 -22.0425 17.0432 -5.45532 1.66394 -0.672671
900 1 -12.8951 -14.7915 -13.5089 2.60885 -4.3742 -1.27279
901 1 4.22916 -20.9021 9.25734 -3.57407 2.14309 -2.94965
902 1 -6.94832 17.4531 0.253349 -4.99223 3.28725 0.457318
903 1 -6.46458 25.2117 -20.4771 4.97192 3.28094 6.05812
904 1 -10.6809 -6.12393 -9.62387 0.850218 -0.551047 -1.21477
905 1 22.6358 -9.21483 22.8906 2.66779 -1.14974 -0.413114
906 1 -6.48745 -23.6439 19.274 -0.370065 5.36513 -0.873129
907 1 -14.2481 1.72641 -12.0507 6.49046 -0.369057 0.86161
908 1 -9.0224 -17.762 11.6529 -1.47656 0.739634 3.87279
909 1 16.479 -21.1048 11.5756 1.30272 -2.78685 -3.13468
910 1 -9.42009 4.37556 -4.99598 -1.87127 -1.53692 -1.69146
911 1 0.425627 14.3143 -23.588 4.00937 -0.406456 0.521469
912 1 -16.7464 21.9411 -8.20313 -5.25591 -4.50213 0.961431
913 1 -5.45282 24.1692 15.8345 -3.9424 3.3646 1.49998
914 1 -22.4311 16.2382 9.5566 -0.191851 -0.272581 1.41282
915 1 13.2225 -2.72363 -16.0811 2.73688 -1.45669 3.20126
916 1 -18.9649 -18.299 19.8703 -3.41283 1.62073 -4.81956
917 1 -23.7852 3.68201 -22.7619 0.0708268 -0.839119 1.97558
918 1 -6.84124 6.05791 1.56528 -2.89177 4.12036 -3.04348
919 1 -10.3935 19.1407 13.3551 1.71651 -4.21317 -1.33874
920 1 0.793551 13.4767 -20.0489 -2.70667 -4.10587 -1.28449
921 1 9.25301 -10.1705 -19.7952 2.35429 -0.12774 1.41827
922 1 -13.2466 3.23402 -21.1428 -1.89079 1.26005 -4.25157
923 1 3.07494 -10.4375 0.995462 -0.000849038 3.58216 -5.03907
924 1 -7.43959 13.2292 7.9015 -1.97147 0.874734 0.2584
925 1 0.954636 11.8433 -1.73639 2.3548 -0.451358 -1.17903
926 1 2.12266 -15.6563 8.91824 3.94988 -2.80487 0.0874032
927 1 6.13319 13.4256 18.992 1.22906 -1.81375 1.89388
928 1 5.8572 -19.5686 11.177 -2.29075 0.979696 -0.761334
929 1 -7.06812 -13.1376 -1.8624 -2.69261 0.0541265 -4.49401
930 1 -22.2212 -18.9342 -13.5499 -0.734946 -5.94705 -1.7618
931 1 15.8948 -2.2088 -7.46314 0.929083 2.25357 1.74653
932 1 -20.0007 13.4064 14.9131 -3.4015 -0.659577 0.843148
933 1 -19.1151 -24.3145 -22.1994 0.383286 1.36783 -3.08531
934 1 -3.48335 18.1368 -19.1443 2.20549 0.624369 -0.143185
935 1 19.8604 -10.6315 -0.920599 0.637726 0.853287 -4.15269
936 1 8.34368 12.7351 11.9246 -0.386499 -3.52893 4.16948
937 1 3.29388 15.1373 -23.9107 -1.74477 0.0440589 2.3918
938 1 18.4876 6.96943 6.18855 -1.45925 1.27299 1.57655
939 1 -8.90846 -10.4906 -17.7951 -4.5519 3.15739 1.30511
940 1 22.2731 2.5065 -7.05862 -2.62539 3.57151 0.749637
941 1 -19.1818 22.627 6.83433 -2.43846 1.74205 0.27584
942 1 -4.01341 -12.5086 -20.3374 -2.01048 -1.5964 -0.633203
943 1 16.2657 -3.60257 -0.371774 -4.44934 2.03964 1.01191
944 1 -17.2291 -1.60404 22.7271 -2.17873 -0.0217107 3.52324
945 1 4.87321 -23.4138 17.6422 1.44724 -3.95312 -3.64491
946 1 -14.6767 -8.80564 5.69829 3.58279 -0.470546 4.17746
947 1 -12.265 15.9005 18.7906 -2.36154 2.21805 -4.65168
948 1 -21.9844 5.56555 -9.29304 1.34365 -1.74663 -2.34538
949 1 -5.17516 12.6448 17.8146 -2.52022 -0.135079 0.843602
950 1 -20.9375 7.90438 10.7737 1.41409 1.55719 -0.0426716
951 1 -9.17271 46.4707 -14.9433 -6.98928 -1.46402 -3.09553
952 1 9.77881 -13.7979 -12.5986 0.815066 0.924451 -1.82656
953 1 16.7425 -2.70908 2.38784 5.08084 -2.99491 -0.422471
954 1 16.6355 6.63658 -11.6482 -3.36099 -1.7313 -7.76252
955 1 -10.1907 20.2204 -18.9396 5.98336 1.05813 -1.17987
956 1 -12.484 -7.9429 -10.9774 3.4404 -0.459867 -0.880355
957 1 -5.36162 -3.53731 15.1781 -3.21544 1.70119 1.27801
958 1 2.34974 11.7799 17.9218 -0.951437 -0.681611 3.13801
959 1 -13.9834 -18.7416 -23.2811 1.59674 -2.80234 -0.847609
960 1 -2.08739 -20.0032 4.69422 -2.03907 -3.48403 -1.53935
961 1 -6.27952 11.7931 0.905747 -0.330144 -0.593011 -3.9513
962 1 -3.81158 7.74409 -6.98554 5.02509 -3.84074 0.857297
963 1 -16.2805 24.7215 -11.297 -1.7966 3.29468 -1.03847
964 1 16.8854 -20.8186 -19.3895 -1.87113 -0.692644 -2.73951
965 1 -12.969 10.6733 7.10672 1.51534 -2.17474 -1.27819
966 1 -19.7681 -6.76806 13.1727 3.33536 -1.42559 -1.60526
967 1 19.5471 -2.28627 -12.6307 -2.78234 -0.408185 0.475935
968 1 -1.79259 23.4792 -15.6072 -1.31651 3.29764 -2.76013
969 1 13.756 -22.1748 4.11982 -6.31079 2.12405 3.53022
970 1 -3.21352 -23.2916 -8.03025 -4.15757 3.47965 2.84851
971 1 13.9516 -4.62186 22.1022 0.08465 0.824335 -0.0516426
972 1 -8.48235 -17.8178 -4.20321 -2.91427 -0.670456 2.00133
973 1 -14.9378 -4.90364 16.0061 5.2975 5.02512 2.53179
974 1 -0.646826 22.6184 -12.8838 0.828496 5.0391 -0.693015
975 1 -11.9494 -12.0338 4.98819 -0.310663 4.98566 3.06537
976 1 -22.1186 -8.57054 9.55875 -0.601538 1.02999 -1.46467
977 1 3.43133 -23.0079 13.3961 3.62515 5.12262 -0.398364
978 1 3.54084 12.8301 -20.7822 2.39033 3.05727 -1.7867
979 1 6.96358 19.5384 -17.5856 -5.70264 0.71508 3.18686
980 1 3.86176 23.7177 14.0623 -4.32375 0.312995 1.2354
981 1 6.83423 -2.85541 -5.29524 -1.87896 1.16045 -0.0565345
982 1 -2.99873 -8.74378 2.70119 -0.907572 -4.49802 -3.51389
983 1 -21.8641 6.05056 14.8198 -1.38528 1.59763 -4.45155
984 1 -13.2696 15.8801 -3.66554 3.42343 -5.10247 0.381127
985 1 -16.078 16.7051 13.295 -0.969265 -1.59489 3.48838
986 1 -0.754797 4.20486 11.4593 3.49528 -1.5912 -1.37404
987 1 -21.5536 -21.1335 10.5157 0.244831 1.02992 -1.03252
988 1 -10.0292 -23.4764 7.02868 -4.95294 0.656426 4.56546
989 1 7.41971 -0.185996 -6.11038 1.41634 5.0451 1.35322
990 1 14.8329 -7.0574 13.5009 -0.590106 -0.107231 0.320603
991 1 -5.78546 -9.40011 6.40445 -1.23618 5.41821 1.62363
992 1 -21.5735 10.1082 3.03849 0.940699 1.51594 -3.50531
993 1 23.2519 -0.858854 22.2782 1.43852 -1.69333 -1.63122
994 1 22.0241 -18.1934 15.0886 -1.14136 4.07222 3.73826
995 1 11.5164 6.34388 -1.21286 -0.595903 -4.5128 3.02978
996 1 21.0444 11.2964 -16.1701 -0.0283639 -1.76203 -4.48621
997 1 -21.9452 23.4309 23.685 4.12811 1.73049 -1.84968
998 1 -5.02978 12.2193 9.01768 1.44966 -1.36649 -0.678609
999 1 23.2994 11.2214 7.10017 0.190626 -1.38004 -0.422481
1000 1 17.7698 18.3287 -8.9455 3.09091 1.65578 -3.07751
1001 1 -20.0827 -4.18255 -6.71698 -1.47909 4.60835 4.99238
1002 1 -14.0523 -16.3353 3.53663 1.48768 0.932974 -1.53703
1003 1 9.85641 -13.682 11.5675 0.210945 -5.00414 4.27939
1004 1 -23.4659 21.8399 8.4489 -1.23837 -0.810109 5.85954
1005 1 -14.762 15.7563 2.65432 4.97981 -1.37019 0.969562
1006 1 23.5086 8.65944 17.1091 1.60712 0.722155 4.02233
1007 1 14.7444 1.85358 20.482 -1.77824 1.83038 1.14801
1008 1 8.29822 -3.09313 18.1949 -4.37355 1.97236 2.6209
1009 1 10.548 -16.7109 5.67508 -1.5017 -0.0996133 0.160744
1010 1 -15.3015 4.58371 -11.7113 1.64146 -0.983379 -4.69384
1011 1 -19.2539 2.01138 -0.290719 -0.773539 1.46593 -0.122822
1012 1 0.944442 1.02518 -3.01817 2.18698 -3.51361 6.90555
1013 1 5.92536 -15.2337 2.23057 4.44777 3.77197 2.17535
1014 1 -20.488 46.8853 3.50731 1.61647 1.10611 -0.971875
1015 1 -0.103301 5.36433 -23.1708 -4.44479 0.114045 0.322117
1016 1 -21.2398 5.10202 10.4263 2.65143 0.803485 0.766827
1017 1 -10.0294 2.9773 12.047 -4.25998 -4.36962 -2.81105
1018 1 -22.5878 -22.9733 6.6321 2.60073 -0.850146 0.948025
1019 1 6.00889 18.0857 4.39039 3.42707 1.12523 -1.14995
1020 1 -20.2405 45.3224 10.0392 -2.78064 1.00727 -2.85064
1021 1 20.7127 -19.9392 -5.09784 0.0935668 -4.89268 -2.40409
1022 1 -9.27405 -23.049 -11.8315 -0.244534 -0.25803 -3.92256
1023 1 8.41468 -1.99386 5.57233 -0.635001 -7.56872 -0.162063
1024 1 -3.30836 8.2974 23.605 1.77141 -2.12938 -2.69604
1025 1 5.47877 6.94434 -21.5227 3.17841 0.868378 -0.744731
1026 1 5.91785 12.8732 -9.278 -2.72205 4.06897 -0.823643
1027 1 -21.3426 -3.23452 13.613 -0.286591 4.74498 -1.21475
1028 1 -8.2465 -9.07781 -11.5485 -1.5399 -1.16603 5.64957
1029 1 8.99061 13.6485 1.78725 -3.00163 4.07133 2.32008
1030 1 -18.2419 -18.2309 22.912 2.50602 -0.683883 -1.29228
1031 1 -4.46469 -8.11421 -7.4608 -2.89307 -1.64162 3.23482
1032 1 8.96259 8.94542 15.5826 -0.973304 -1.35348 -1.28004
1033 1 -4.07053 -16.634 2.18436 2.51141 1.23368 4.99787
1034 1 -13.5128 10.3023 -10.3149 -2.34444 -3.5834 0.118348
1035 1 12.3851 20.3904 -2.62187 -4.74352 -0.500651 1.57534
1036 1 0.930771 -10.227 20.762 -2.24981 3.88871 -1.41073
1037 1 -8.28279 -15.6944 16.2788 -2.36092 -0.404919 2.27463
1038 1 -1.11875 7.11252 11.3084 -2.18298 6.16527 4.28072
1039 1 23.21 21.825 -8.07572 3.58513 3.97788 0.128714
1040 1 9.84052 -0.555821 -22.1898 4.73282 -2.82244 0.124513
1041 1 -1.69735 6.02497 -13.3646 5.02082 -1.09521 -6.23229
1042 1 12.3439 -7.96452 23.8324 -2.56034 -0.906945 4.87765
1043 1 14.5656 10.9634 -5.56508 1.00506 1.17206 -4.24072
1044 1 -3.47958 21.447 -11.8547 0.0489843 -1.70991 -1.51599
1045 1 -5.81321 -1.59305 21.7497 3.827 -2.54588 -0.777844
1046 1 18.4235 14.3765 -13.0224 4.37644 2.43583 -6.39092
1047 1 -16.016 0.468617 19.7932 4.74814 0.669402 -0.00116761
1048 1 0.197996 -1.23853 17.463 -2.74362 -0.346802 -1.16108
1049 1 -24.6421 2.45649 -9.66833 -4.44519 -4.20973 -0.410753
1050 1 16.4752 20.4565 16.3861 3.58844 0.39783 2.7598
1051 1 3.61234 -1.861 8.46906 3.80362 1.32128 1.30797
1052 1 -20.5412 -3.56242 -18.3158 -0.736748 3.72094 0.420958
1053 1 3.76125 7.27549 -18.9828 3.33853 -2.01409 -3.15143
1054 1 -15.681 21.7344 1.38754 0.271595 4.67527 -2.55678
1055 1 -10.3931 18.3499 18.6884 -4.50735 3.13655 2.20073
1056 1 -8.42062 19.0966 7.78869 -3.99643 -0.186364 1.53601
1057 1 -7.97972 -17.8512 -15.5014 -0.74153 -0.79699 -2.19761
1058 1 0.755238 -1.89863 -8.89139 -0.296382 -5.0446 3.99519
1059 1 4.50658 -23.3941 -15.7875 -2.66584 -1.14604 0.0800317
1060 1 -19.5082 -10.44 6.18406 2.78787 1.81345 -3.40775
1061 1 8.3142 9.28407 -14.8273 -1.15604 -5.70769 8.58535
1062 1 -6.74072 -1.54016 9.59255 -3.09297 -4.38018 1.79375
1063 1 1.47464 20.645 11.0545 -4.12744 -0.46164 5.79488
1064 1 14.5107 -16.7428 7.01636 2.00366 1.92101 -0.121261
1065 1 16.1038 21.6125 -16.5622 1.05408 4.71106 -0.310777
1066 1 12.8117 -2.19019 22.7317 -4.44118 1.45359 4.28159
1067 1 -21.1902 8.31942 7.88914 -4.95906 -1.4447 2.15901
1068 1 -4.67815 20.7394 1.90456 3.52702 -5.06323 0.788326
1069 1 -24.1812 16.5882 -19.7001 5.61178 -8.7995 -1.69024
1070 1 -6.48 8.19453 9.44166 1.36789 -3.82183 -3.853
1071 1 -20.2178 25.2228 -8.72067 3.20772 2.44038 -1.67258
1072 1 11.0872 10.2708 -18.0644 3.82552 -0.642829 -0.810073
1073 1 -1.03481 -21.5123 -8.73972 2.17308 -1.58656 2.29134
1074 1 -10.299 12.4593 -17.4529 4.62764 1.18525 -4.79609
1075 1 1.70136 10.684 14.2352 4.71935 -5.93754 -5.38714
1076 1 21.7058 4.98441 22.5306 -2.95204 -1.67417 1.71481
1077 1 17.9561 -11.2472 -9.52843 -2.66472 -6.20371 -1.22904
1078 1 11.0409 -9.26792 11.8367 -3.06856 -2.20304 -3.69005
1079 1 -16.2037 0.627372 12.2991 -0.411989 0.89708 -5.2063
1080 1 -17.072 -8.21622 -7.33613 0.189049 -8.41683 -1.13475
1081 1 7.51264 -7.39546 17.2213 2.65686 4.82081 -2.7241
1082 1 -19.1916 -18.2546 -4.97083 0.84848 0.356556 -3.92053
1083 1 0.75274 22.6456 -18.4558 -1.32515 0.777411 -2.27545
1084 1 -2.88263 -14.2679 -7.03866 3.53633 -2.58425 0.957169
1085 1 -9.95019 -15.3561 -4.31766 3.07847 4.98443 -1.91312
1086 1 -10.5547 9.78215 -5.38112 -2.81714 3.03731 4.3327
1087 1 8.26935 -0.67681 -19.8482 -4.71143 -0.0257852 -1.52727
1088 1 -21.8043 23.3514 6.78875 -3.80615 0.405119 3.12895
1089 1 -17.8115 2.76819 15.8582 -2.69038 -7.03374 1.8684
1090 1 -21.0021 -21.4426 -10.9377 -0.787343 -0.580584 1.26341
1091 1 -15.5268 9.37329 7.27649 -0.0684463 -3.05373 0.425057
1092 1 -22.9522 -16.9637 -3.69056 7.00943 -3.39312 -0.501978
1093 1 21.8215 8.56692 3.90683 -6.80521 -6.98791 -1.78436
1094 1 -23.6216 19.239 -21.4372 -4.30185 -1.6354 -1.61092
1095 1 -6.77899 22.0748 -9.72156 3.34545 3.60861 3.32921
1096 1 10.8754 18.3041 -10.6041 3.98129 1.10661 0.390332
1097 1 15.9742 24.0571 13.2719 0.349943 -1.03633 -0.585621
1098 1 -13.0761 -5.5867 18.0974 -1.60863 4.6133 2.05407
1099 1 14.4309 11.7175 15.2316 -2.71384 -1.74033 -3.52664
1100 1 10.3923 -10.3578 17.7105 -2.38213 1.32496 -4.66049
1101 1 7.30739 -14.5847 12.2544 1.08611 2.35481 -4.90052
1102 1 14.7021 -13.4749 18.3092 -1.45302 -3.22801 -0.443741
1103 1 22.0768 8.95497 14.5643 -3.50595 5.28884 -4.36106
1104 1 -21.2158 0.79345 9.71423 -1.71009 -7.15522 0.386134
1105 1 18.0112 3.21237 -1.72992 -5.05404 0.378928 1.83717
1106 1 -18.573 -17.2413 5.18005 -0.687165 1.10293 -4.11432
1107 1 4.49917 -12.166 2.82113 1.91478 3.49605 0.9325
1108 1 15.2544 13.9565 22.1307 0.130222 -1.6488 -0.0938107
1109 1 -19.6863 -9.83791 3.46327 3.15967 -1.67409 -2.35658
1110 1 -11.437 25.1812 8.56841 0.834444 1.33109 0.55881
1111 1 12.7705 -8.74112 7.22563 5.25051 1.72368 3.19109
1112 1 -2.53537 -14.352 19.7968 1.46277 2.18436 2.29764
1113 1 -19.8015 20.8071 -21.2346 -2.53062 -2.74706 -1.64446
1114 1 -19.9632 -3.75293 9.36482 2.35063 0.643555 0.110924
1115 1 21.6732 24.1413 -24.2113 -0.773194 -1.53999 -3.92741
1116 1 -14.8073 1.23699 6.78318 2.38892 -0.629675 1.0123
1117 1 -5.45075 15.2787 9.22142 -0.716069 0.916612 2.57523
1118 1 -24.4671 -0.306014 -10.9009 -3.21587 1.37845 -2.45082
1119 1 8.57755 -9.7895 4.44345 -4.45686 7.30282 -1.3151
1120 1 -5.12888 -9.5858 -0.563664 7.04564 -2.09674 0.774492
1121 1 13.8791 -1.95643 -19.9671 2.03608 0.77414 1.09217
1122 1 -8.26122 22.9712 -1.16437 -2.53334 -3.07904 -2.75234
1123 1 16.1071 -5.01755 -6.8223 -5.40941 5.52231 -0.937749
1124 1 -1.37474 13.5295 -15.2315 1.35434 -1.74765 2.32471
1125 1 -19.9536 7.87924 2.54983 -2.71172 3.33071 5.33237
1126 1 -0.459543 -12.6866 -14.5394 -0.950448 -9.15936 0.228737
1127 1 15.4379 18.978 -5.87719 3.68042 6.18601 -1.60778
1128 1 -1.17906 13.8438 -1.18188 -0.319245 2.00108 -6.34863
1129 1 -2.39261 -9.00213 -23.1271 -5.89498 3.02047 2.81791
1130 1 -3.59896 14.2459 -12.2556 0.76446 0.298027 -4.16169
1131 1 14.8522 -9.1562 -7.97278 -0.384442 3.49069 -0.166193
1132 1 23.4436 -3.59597 18.4941 -1.20043 -2.97767 7.46327
1133 1 9.67585 14.2451 18.577 -0.832666 1.22975 -0.710017
1134 1 12.4329 -21.2329 19.7251 1.92294 -4.80868 -1.29019
1135 1 3.03239 3.35349 22.4524 -1.26749 0.836804 -1.87366
1136 1 -19.9214 -21.7618 -21.1061 2.88778 4.8538 1.01587
1137 1 4.45095 5.2538 3.31341 3.8534 -0.756887 2.66864
1138 1 22.4606 -22.5017 5.44259 -3.80351 0.358319 0.988682
1139 1 -5.7625 11.7551 4.00567 1.64029 4.05871 -4.08811
1140 1 12.6354 -7.98064 -16.408 -5.97055 -0.39747 0.538377
1141 1 -19.6041 10.4744 10.6629 -3.27332 0.994749 -1.34842
1142 1 7.49577 16.2715 8.82462 -3.44169 0.580138 1.03061
1143 1 2.80663 -6.27331 -14.1794 -2.03678 4.24115 -3.82857
1144 1 15.6988 3.1103 -13.3288 -2.12046 0.390418 6.77638
1145 1 4.48164 19.9626 23.6058 -0.807447 5.38839 3.73985
1146 1 9.95817 18.3809 21.2628 0.018123 1.80141 -0.368081
1147 1 -6.07915 8.94099 1.02662 -1.91637 -0.577374 -3.34103
1148 1 -14.0066 7.92855 10.8632 5.20415 2.00083 -1.62732
1149 1 2.92292 -16.5112 11.3935 0.184436 2.78238 1.55398
1150 1 -13.641 15.6824 11.7674 1.0942 3.12416 0.75143
1151 1 -24.5432 -23.8011 21.3746 -2.52543 -9.33574 -5.1417
1152 1 -16.9222 15.6058 19.789 5.07626 2.47882 3.1645
1153 1 -3.10784 -19.3719 0.952227 1.84718 5.41934 -0.106189
1154 1 -0.500471 11.1659 -20.8331 -0.693877 -0.115687 -4.0046
1155 1 5.54408 -17.8894 16.3581 -6.92989 2.3933 -3.71909
1156 1 -19.9267 -16.1123 -23.6158 -3.0521 2.4542 -4.05785
1157 1 4.56501 2.87581 -8.95451 -1.4985 1.02886 3.98438
1158 1 -16.7357 -2.0619 18.5855 1.16148 -3.7753 0.786279
1159 1 19.6535 -2.33065 14.0543 -0.889928 -0.865758 2.37512
1160 1 -8.79038 5.60234 -12.1552 4.45953 -1.21408 -0.0442918
1161 1 -6.15141 -23.6465 -20.0475 -3.91361 -1.38055 -1.80465
1162 1 5.7459 10.5103 3.17396 -4.92874 -3.91197 4.85357
1163 1 -17.2628 46.4043 14.8765 0.149181 -2.48864 -4.29785
1164 1 -19.2649 -18.5903 7.76467 -2.50912 -1.38626 -0.93466
1165 1 17.2949 22.4278 -1.1168 -0.719233 3.11358 0.190664
1166 1 -17.8245 24.8904 19.0596 -1.29444 1.52726 3.14354
1167 1 -0.737056 14.8295 17.9038 1.01677 -4.5045 1.09995
1168 1 11.8497 -10.2305 -0.392162 6.41791 0.282037 -4.3203
1169 1 13.6223 -7.60549 19.8645 -0.967774 1.66073 0.727184
1170 1 2.6966 16.9782 12.2029 1.17955 2.86535 5.74071
1171 1 22.5415 -2.09385 -8.81632 4.50864 -1.41545 -0.511055
1172 1 -21.0888 -14.5623 -17.518 -1.94227 -0.164665 2.82207
1173 1 6.91846 -19.4177 18.2878 0.756299 -1.23791 1.15513
1174 1 -21.1244 -18.0451 -16.3382 4.14519 -1.01956 0.648099
1175 1 -11.0935 14.5506 21.2085 -1.74509 1.97943 3.01834
1176 1 -1.07742 -10.0279 14.0293 -1.72898 -4.19812 0.762395
1177 1 10.1638 3.40558 -18.0329 2.32044 -0.735493 4.04962
1178 1 -2.81014 6.81309 7.76348 0.379178 7.42269 -4.76465
1179 1 9.17627 -8.77872 -9.24859 -0.625437 -0.710252 0.301785
1180 1 -10.5435 46.0121 -12.3966 4.2394 1.73908 3.59533
1181 1 11.1498 16.8146 -8.00428 2.98917 -2.57208 -4.08634
1182 1 17.0055 6.46556 2.07947 -1.07036 0.379659 -4.86229
1183 1 2.68136 -6.29166 -17.5187 0.615333 -0.643515 2.36824
1184 1 6.56015 20.9973 -22.2753 0.689668 0.408792 0.68674
1185 1 15.2552 8.69254 20.5797 -2.35805 -0.73045 -0.232917
1186 1 9.27753 -7.31916 0.213789 -0.455324 -2.36419 -1.53495
1187 1 -13.5567 16.7134 -6.48317 -2.56005 3.39943 -4.35333
1188 1 2.20854 1.02619 -0.18679 -1.4497 -0.118389 5.69001
1189 1 12.0292 13.9579 4.80011 -1.33132 0.241142 0.314147
1190 1 16.9073 -1.5004 -19.7807 -1.20791 -7.4998 -5.50473
1191 1 -0.258634 -1.88094 -19.7396 -0.984509 -4.01773 3.47228
1192 1 -13.649 -0.85426 -10.7872 -0.580157 -2.42116 -5.09878
1193 1 10.4144 -5.76875 13.3742 -2.44153 -1.98739 -0.293734
1194 1 7.54207 16.4451 -4.11352 1.0185 -1.74654 0.547218
1195 1 12.9565 -13.2373 -19.3786 -2.96655 4.76058 3.11178
1196 1 3.95713 16.9431 -12.727 -0.946357 4.22525 -0.934171
1197 1 -21.1164 15.4532 23.7877 -0.921557 -3.39681 -3.46614
1198 1 21.9783 -21.3274 14.5939 1.30471 -0.486078 3.36821
1199 1 -13.0256 5.60412 -13.2382 -0.867609 -2.66177 -2.59499
1200 1 13.2043 -11.0821 10.7463 -2.04089 1.15066 1.77479
1201 1 22.2905 -19.6656 19.1481 -2.71369 2.38386 3.08201
1202 1 -12.7316 -1.99247 -4.26184 -0.585149 3.06226 1.50243
1203 1 -16.628 -12.131 -14.9205 -1.89528 -0.528196 3.75626
1204 1 -2.65343 22.5985 3.95415 -2.76945 0.641579 0.691211
1205 1 -3.94343 -18.0022 10.2962 0.725867 3.8687 -2.07914
1206 1 22.5954 -20.4338 -19.8472 1.23404 -0.820871 -6.10789
1207 1 14.5358 -4.18638 -18.0319 -2.13344 -1.18086 -1.99321
1208 1 17.9387 -8.34209 7.37079 0.567717 -0.0641048 0.454663
1209 1 2.32896 -7.21555 -22.1539 -2.13057 -1.48011 3.94271
1210 1 -2.48755 17.7533 -3.58732 -0.595711 1.47979 -2.2735
1211 1 -15.8444 -11.0134 9.51395 1.06165 4.45341 4.73232
1212 1 20.996 4.10821 -14.2703 0.662275 0.0554324 -0.812886
1213 1 -22.649 -15.2564 19.7875 0.522142 3.73129 0.590501
1214 1 13.8926 3.28975 0.39345 0.768165 -2.24366 4.23863
1215 1 3.73127 9.42762 -8.74188 -1.62555 -0.903664 0.551749
1216 1 15.1324 -8.98453 -12.1986 2.98946 -1.93171 -4.68369
1217 1 14.6364 -13.7217 3.05505 1.4102 -3.84372 2.25728
1218 1 15.4371 -4.29441 -10.9127 1.46239 2.45703 4.32543
1219 1 12.5791 14.0698 10.9763 0.40949 6.69547 -1.49075
1220 1 -19.9313 24.2958 14.7454 0.246847 3.83799 -3.46789
1221 1 2.30517 22.2466 -20.9562 7.01124 -1.37103 -1.36015
1222 1 20.0248 20.4418 10.0215 7.98497 1.14575 -5.649
1223 1 22.1526 10.1458 11.9088 -2.13949 0.4756 -2.37507
1224 1 17.3389 -8.57822 16.1086 -5.41436 -0.239593 -2.48575
1225 1 0.420307 -17.9673 19.6858 1.51173 -3.54676 -4.52797
1226 1 -20.641 14.6424 -0.425686 1.9307 0.69307 1.2744
1227 1 2.25296 -8.62778 -3.23074 1.4847 3.26724 -3.91558
1228 1 -23.5606 -19.79 -10.7092 -3.98983 4.93524 -0.717867
1229 1 19.6133 -17.0751 -0.832619 0.349435 5.38603 1.92048
1230 1 -13.8686 -16.5426 -7.4396 2.59962 -6.94107 2.6066
1231 1 -17.0869 -8.54112 -10.0942 -0.255442 2.96933 6.04107
1232 1 -20.9563 18.2867 -21.5847 1.91643 1.44576 0.482728
1233 1 -3.1969 1.36317 -21.3597 -0.558291 4.52128 -1.84224
1234 1 11.4011 13.1256 7.33973 -2.24099 1.1016 -3.87108
1235 1 10.8891 19.8145 2.5228 -2.89741 -2.72269 -1.86426
1236 1 -8.07307 -23.0356 14.548 -6.52881 -2.9914 0.87376
1237 1 -18.5866 16.659 12.6916 -0.921413 -4.22542 1.19645
1238 1 8.08262 -3.52398 -20.0711 0.316894 1.08902 -0.995592
1239 1 -1.28632 -22.8911 5.38545 1.99635 -0.596382 0.342806
1240 1 -6.24622 -23.0728 1.46388 -0.521263 -1.90123 0.19739
1241 1 10.7607 12.6007 -19.9635 3.31863 -0.246378 -0.100595
1242 1 8.80455 -19.2753 -15.1367 -5.11165 0.707339 -0.143687
1243 1 10.6054 16.9181 -20.7424 -1.40367 0.204665 0.356257
1244 1 -15.2384 3.28794 11.3078 0.128605 0.370081 -4.10906
1245 1 -19.0161 10.3764 -19.0416 1.6563 -1.33372 1.83492
1246 1 -4.84692 -14.9218 4.2891 1.61558 -5.5916 -3.24902
1247 1 -2.63753 1.87528 -9.23095 1.43962 -6.31482 -1.70212
1248 1 10.3133 5.79846 19.9127 1.70668 -1.73316 -2.98425
1249 1 6.25646 15.1642 -19.8586 4.15136 2.38067 -0.951425
1250 1 6.09137 2.71513 21.9395 -2.04295 -6.33459 5.95554
1251 1 22.9465 -1.11089 19.477 -2.81819 -3.9331 2.09117
1252 1 17.9711 -19.8068 2.50985 -1.03543 3.13118 3.09089
1253 1 14.8739 25.1128 -1.37424 -4.1998 -2.99758 -0.791395
1254 1 -21.8582 -20.3275 5.67817 -0.536853 -3.45809 0.00910026
1255 1 -5.70427 -9.0785 10.3886 2.48535 0.12538 -0.828938
1256 1 6.85375 -19.8353 -18.8308 5.22718 -2.42704 1.53354
1257 1 -5.21031 -23.042 -10.0402 -3.08096 -2.79384 -0.486338
1258 1 -17.3628 10.0305 20.2944 -1.18473 2.46067 4.04099
1259 1 18.1851 -11.2964 10.3245 -1.32021 -2.73077 -4.65923
1260 1 3.83452 -8.81917 -13.4057 -0.97279 -1.73329 2.39114
1261 1 12.2088 -6.77239 -11.5788 -3.3171 3.27748 -5.85972
1262 1 11.7739 -14.234 -5.90918 2.19264 0.818747 -3.01166
1263 1 -16.1473 -7.4505 -1.97137 -1.26657 -0.0280124 3.84968
1264 1 -23.2154 -12.1291 -3.27235 4.21274 0.120009 -1.16248
1265 1 -9.00402 12.3374 -9.6688 -4.34517 -0.283444 -1.71674
1266 1 15.3854 -9.2593 4.50484 2.52485 -1.14686 2.22894
1267 1 23.0145 -17.0635 4.19157 1.94696 -1.20658 0.725929
1268 1 -21.2047 -11.6223 -17.7774 1.54385 1.38014 -3.30767
1269 1 9.33814 -6.63949 20.6493 0.589211 -1.64248 -0.382858
1270 1 -23.68 16.0451 12.1033 -0.6765 1.95459 -5.07332
1271 1 -0.0308675 2.92078 17.8412 2.69654 2.26912 -2.77438
1272 1 -21.1304 8.81612 13.5932 2.71868 -2.90228 2.72799
1273 1 20.5231 7.28004 21.0969 4.56791 -3.42585 6.4437
1274 1 21.0202 19.975 -20.3252 -0.118238 2.08134 -0.170972
1275 1 2.46777 3.05039 9.46644 -2.8213 3.87401 1.7199
1276 1 -0.995859 -5.01842 -21.5969 -5.35336 -0.922835 -3.74016
1277 1 -11.5855 23.1974 -5.08491 -2.99672 3.26222 -5.24726
1278 1 14.1139 -7.63223 -21.7747 -0.437897 -2.46541 1.6907
1279 1 -22.4435 15.7342 -11.313 -3.86854 1.66774 0.197306
1280 1 2.52684 -3.84819 -5.98346 2.10742 -3.21794 0.757759
1281 1 11.8784 -10.2135 22.2165 0.173475 -5.86594 -3.17897
1282 1 12.6008 -19.4253 -1.49552 4.059 6.7839 2.51545
1283 1 5.83501 -21.0187 -8.19323 0.159542 3.43466 -0.892881
1284 1 7.89646 -11.9992 0.346748 -2.77402 -3.8117 0.655074
1285 1 -12.1801 23.4596 15.9384 3.82174 3.02331 4.51359
1286 1 -4.13203 5.6305 -15.0577 0.972421 1.15979 -0.69449
1287 1 11.2586 -18.6524 19.0064 -0.368768 -1.43453 1.44828
1288 1 3.61996 -4.03214 -15.7581 -1.0416 -3.83172 -0.361698
1289 1 -23.6496 -11.2391 -7.50932 2.0238 -3.89805 1.11108
1290 1 1.20558 6.87828 7.02416 0.487275 0.478182 -1.27777
1291 1 -19.0715 15.1721 2.01709 0.870295 1.64208 -0.143147
1292 1 -5.11591 18.8446 -3.35022 2.87808 5.59203 -7.5654
1293 1 -8.02678 -3.40608 1.13401 -3.25285 -1.84328 0.447416
1294 1 13.8843 -13.2662 -9.92442 1.26475 2.04477 0.902321
1295 1 10.8098 9.24347 -1.11471 8.90287 -2.40561 4.01053
1296 1 -5.42887 -10.3076 3.40125 2.49295 0.350285 1.41626
1297 1 13.6429 14.5103 15.0076 0.420838 6.57056 -2.59777
1298 1 2.85968 -6.02717 -3.90562 -1.25944 -3.77464 -0.578675
1299 1 -8.08636 -9.1748 -5.33343 2.38617 -1.58066 4.55078
1300 1 4.51821 -3.36389 -3.48038 6.59589 0.512911 -2.42793
1301 1 13.2022 16.674 -10.3668 2.51334 -1.72923 0.426866
1302 1 -3.1396 -2.24606 22.763 0.672473 0.330475 1.3238
1303 1 -8.44942 -6.01312 -18.822 2.71504 3.08945 0.150574
1304 1 4.44744 -0.492424 -4.0484 -2.2266 0.446928 1.65026
1305 1 -4.58091 4.63609 8.00769 2.39278 -2.82769 -1.00622
1306 1 7.85887 -21.6953 -0.476308 0.491005 0.723578 4.7229
1307 1 -14.8944 -23.0458 -5.08412 9.0959 -0.101305 -4.30709
1308 1 -17.2614 -4.67144 6.98051 7.12354 1.49848 -1.02871
1309 1 -1.25122 -13.2205 -10.5283 -1.0914 1.00572 0.0240102
1310 1 0.0040726 -13.6909 -1.76545 0.58658 -2.20195 1.13597
1311 1 -6.98369 18.2649 -13.56 0.720848 4.75642 3.38319
1312 1 -17.229 -7.21446 3.6518 3.18492 0.268336 -0.793367
1313 1 15.664 20.9666 21.8559 -2.90902 -0.807695 2.01175
1314 1 -16.2452 10.6215 -18.8677 -0.405358 -3.99028 1.18487
1315 1 -20.1034 -12.3289 -20.1925 0.188384 0.514519 -8.35734
1316 1 16.6207 -10.5332 -13.9768 1.18186 -1.45539 -0.515084
1317 1 -10.0316 9.5135 -12.667 0.363725 -1.32752 -0.655204
1318 1 23.3317 21.3398 1.08641 3.94594 0.745446 0.805643
1319 1 14.1564 25.9185 1.11035 5.02751 0.365519 2.08683
1320 1 19.3988 -6.89276 -10.1552 1.93174 5.53478 -0.909876
1321 1 10.6139 -21.6614 -5.29124 -7.70367 -3.23918 -0.485492
1322 1 2.41775 -13.5213 -3.46001 4.7544 -1.03477 0.75016
1323 1 12.8156 -14.6458 13.3585 2.28574 -0.471878 2.03325
1324 1 -10.8159 -14.813 -17.9549 2.48004 -2.13422 3.38161
1325 1 -7.15832 14.9762 11.3214 -0.318775 -2.91322 0.565291
1326 1 -17.6277 -20.171 -20.8468 6.12941 3.81256 1.05843
1327 1 -9.42322 22.8947 -22.1041 2.69818 3.17241 0.108394
1328 1 8.64155 12.8656 5.9962 2.02978 -3.04153 -3.81964
1329 1 20.529 -13.2464 -1.12645 -2.61286 0.27524 -2.47149
1330 1 -9.40067 16.2073 -6.22905 0.860098 -0.66099 2.7849
1331 1 -17.7596 1.67487 -2.56522 -1.01887 -1.8764 -2.86226
1332 1 13.5366 -23.5808 20.7491 -0.536091 -2.08329 3.99372
1333 1 -0.259637 9.34176 7.51137 3.36448 -2.12007 -2.69319
1334 1 11.9857 -9.8015 -8.45852 -0.868839 -0.910404 0.725064
1335 1 -14.7391 25.4091 -13.5921 -1.35529 -5.62235 -2.35209
1336 1 3.12098 17.3181 -7.17957 -2.28565 4.50476 0.834828
1337 1 8.09945 -18.3141 6.07456 -2.25029 -3.64979 2.60159
1338 1 1.31657 9.31882 -3.09188 1.76788 2.96735 -2.38904
1339 1 0.734498 -19.3589 22.3035 2.14746 1.70793 -1.212
1340 1 -19.8904 15.8686 8.36457 -0.810754 1.85065 7.169
1341 1 4.01884 8.00732 14.0057 5.5546 -0.101128 -0.710246
1342 1 1.97039 -24.1794 -16.4541 -1.85906 -0.626424 -2.40926
1343 1 -10.2463 -8.46502 -7.56965 1.38719 2.21324 -2.39779
1344 1 17.1556 -5.63138 1.82256 -0.0565911 3.19249 2.6398
1345 1 -21.8012 2.9897 -20.7753 -4.05326 -0.0261253 5.46556
1346 1 17.478 -2.90857 -14.4078 -1.50518 1.28789 -1.27566
1347 1 -16.1958 -13.9781 -20.0255 -4.24278 -4.42971 4.91691
1348 1 5.73329 9.48453 -13.7197 2.31778 -2.65079 4.33947
1349 1 2.89297 -12.8736 8.7235 4.02137 2.02076 4.45309
1350 1 -15.8832 -0.450994 -2.91037 -1.50874 0.157638 -0.088282
1351 1 14.0627 -16.323 18.6991 -10.216 0.86267 2.73682
1352 1 7.06365 25.1736 20.9555 -1.54454 -2.07155 0.0320065
1353 1 4.81264 21.5886 3.42978 -5.48131 -1.86606 -1.62932
1354 1 -1.73357 -4.36691 -17.7489 4.79015 4.10464 0.459043
1355 1 -8.81402 22.3226 19.3214 1.7376 2.37014 1.41136
1356 1 -21.1787 -11.7265 -1.28107 3.74704 4.25467 6.1427
1357 1 -19.206 -6.9433 -11.3554 0.217137 -0.349754 -1.16957
1358 1 -9.35486 24.5069 21.1046 0.682553 -1.00559 1.09494
1359 1 -21.7981 -24.1128 -22.9647 -0.555041 -2.59374 0.452138
1360 1 16.3423 -13.3824 11.4505 5.08276 2.21975 0.263081
1361 1 -7.6161 -21.4435 3.44664 2.60252 1.77033 -6.94656
1362 1 18.817 18.478 6.52721 -1.62557 0.527783 8.73998
1363 1 -15.8216 -11.1891 -20.7596 2.6475 3.85302 2.29625
1364 1 10.6452 -10.8882 -13.5678 -3.49693 4.4058 1.16984
1365 1 11.0958 -4.88155 -22.7756 2.04248 -5.21771 4.29611
1366 1 21.1661 -14.3424 1.58132 1.66841 0.826643 5.49789
1367 1 -9.23541 -13.2217 12.7506 -1.36433 0.222617 0.943118
1368 1 -17.2218 17.2223 -2.95356 3.41111 -0.0695967 3.04284
1369 1 22.8874 5.09375 -3.62487 -1.34013 1.43937 -4.47782
1370 1 3.7705 -15.9125 -23.9279 -1.58427 -2.64581 -2.64285
1371 1 -20.9738 8.86847 -2.75672 -1.80528 -0.269252 -0.205099
1372 1 -9.28874 11.2542 3.39322 2.51498 0.761483 -1.71997
1373 1 -15.2352 -9.24793 13.3063 -6.15456 -0.468573 -4.93924
1374 1 -19.9598 24.3013 17.6147 -0.932746 1.13688 0.43237
1375 1 15.0519 -7.08864 2.75649 -0.801355 -2.53244 1.69622
1376 1 6.68441 10.4903 -5.40782 -4.14726 -2.96621 -0.00850395
1377 1 -13.873 21.8537 -23.6308 -1.47422 2.51075 -2.09666
1378 1 9.72413 -9.6995 1.47132 0.665812 3.59982 -3.83849
1379 1 -19.2747 -15.2925 1.47699 2.29355 1.24992 4.38681
1380 1 16.114 21.9153 -8.38584 7.89488 0.936883 0.28224
1381 1 16.4475 14.7059 9.78557 1.23949 -2.45925 1.35457
1382 1 13.2077 -13.6054 9.19306 1.48917 -2.13482 -1.64897
1383 1 -6.80192 -23.7824 -14.9893 1.05865 -4.45411 3.57737
1384 1 4.54687 20.0636 -10.3372 2.33715 -2.12635 0.342985
1385 1 -17.554 24.0716 13.452 -6.24939 -0.379652 -2.27697
1386 1 -12.1924 9.50142 1.44612 0.185793 -2.94539 -1.4983
1387 1 -20.4762 -0.334353 0.595373 -3.66473 0.185071 2.37554
1388 1 17.4062 -1.41922 17.7466 -0.00710948 -0.43123 1.9632
1389 1 19.2681 -3.27565 -0.8228 0.8878 -3.13086 2.59683
1390 1 6.39393 -1.58214 10.8399 2.47365 4.18592 -3.07434
1391 1 -13.256 20.4034 21.0679 0.179764 -1.95205 5.89919
1392 1 -24.2019 4.41284 4.32096 1.9868 0.344985 2.3708
1393 1 0.746729 -4.36478 1.66388 1.02165 -3.2579 1.11357
1394 1 3.2985 8.25947 -0.802607 -2.21544 3.53547 0.500924
1395 1 1.74908 7.4623 -7.72751 -1.73714 0.871053 1.3445
1396 1 -19.8844 -8.04577 7.57597 4.143 -0.630824 0.710172
1397 1 5.12001 23.207 -7.73991 2.5327 -0.769803 2.05804
1398 1 3.68256 21.7071 -5.64217 1.309 -5.1921 0.0401869
1399 1 -0.577861 -23.011 -2.36209 -5.67701 -3.17788 -2.34999
1400 1 -13.1771 15.2861 -22.7002 -2.84639 1.01789 0.231868
1401 1 19.8273 -21.8373 22.819 -5.08453 1.49453 -0.303441
1402 1 -17.8164 -7.39731 -17.0167 -0.211843 3.43637 0.52387
1403 1 15.7022 -23.4414 17.1789 -1.88922 -1.59198 -1.94142
1404 1 20.7946 -9.97106 10.759 3.53839 3.22278 -1.86772
1405 1 17.6594 22.6918 -23.0049 -2.25155 4.1256 0.564561
1406 1 -6.72254 2.3098 -12.103 0.738572 1.28515 -1.70455
1407 1 -23.7389 7.51814 -2.75772 -1.83211 0.938919 -0.179571
1408 1 -6.91676 -4.73275 -16.7937 0.554946 1.96335 4.18796
1409 1 -2.98353 5.60049 21.977 -7.79501 0.263497 -2.5104
1410 1 1.60569 -20.7083 -17.7255 -2.29607 -1.44148 1.62047
1411 1 19.6127 3.61109 -21.8155 -3.28522 4.19572 -6.02575
1412 1 -21.1577 12.4241 -11.4211 5.71962 -2.07064 3.76513
1413 1 -16.1163 5.46828 -20.6832 0.644561 4.23871 1.87684
1414 1 6.11513 22.6968 5.79111 -0.344645 0.650352 -0.097735
1415 1 -7.26538 -22.1818 -0.934868 -3.88837 -3.2081 -5.31838
1416 1 22.3265 -8.51531 8.63642 0.129925 3.92224 0.82257
1417 1 10.6579 4.15985 14.2639 -0.104568 -3.79367 0.347402
1418 1 14.3178 -8.50274 -0.0265577 -3.80227 5.70682 -2.07513
1419 1 10.4201 22.3408 -2.61372 2.74182 -1.20552 1.05808
1420 1 -13.0893 20.3723 -19.295 -0.694201 6.64519 0.755372
1421 1 23.1819 -10.3748 4.87986 -0.51767 -4.68488 -1.56784
1422 1 -14.3027 -18.4943 -13.7484 -3.42202 2.63016 -0.506065
1423 1 11.0715 20.6407 -17.7346 0.324727 0.608388 -2.65525
1424 1 20.5153 12.4922 -9.05705 -3.29167 -5.00526 -1.34848
1425 1 1.03813 4.79403 -11.3462 3.34816 -0.0930138 3.67314
1426 1 9.942 -18.6528 2.21236 1.77145 1.0694 5.0444
1427 1 18.287 -14.7091 -0.448739 -1.65569 -0.256903 1.18632
1428 1 -3.49251 -18.0562 21.0584 -3.60754 1.37339 -1.146
1429 1 -18.9189 -14.5972 6.76982 4.90072 5.25876 5.92262
1430 1 -2.32992 15.6467 7.17058 0.915834 2.46742 -1.16601
1431 1 -9.67532 2.75709 -11.282 -0.0587231 -0.612552 -1.02996
1432 1 -9.20902 11.1757 19.4205 -3.1297 -1.62302 0.586486
1433 1 -19.0007 -12.7199 -13.4341 -3.72157 -0.521679 -2.68191
1434 1 -22.9075 7.46157 21.4194 2.44749 0.267149 0.98457
1435 1 20.8198 23.0877 -4.28739 -6.11856 -2.1097 -0.154517
1436 1 -15.8 -2.29846 -14.9745 1.42187 1.10023 -1.86235
1437 1 3.98694 14.2942 -18.0306 0.811731 2.55401 3.02542
1438 1 1.39143 -2.0556 -15.5611 1.95298 1.02826 -2.93678
1439 1 -19.8086 8.59642 -9.67037 -0.275588 5.28808 2.02895
1440 1 -23.2136 12.4927 -3.32768 -2.62873 2.65669 4.90306
1441 1 -16.3632 -16.7991 17.0011 8.15356 -5.08608 2.00398
1442 1 -22.7887 -6.85469 -2.77034 3.72798 5.79079 2.61111
1443 1 17.1635 -16.3285 18.0481 -2.00377 -6.76817 2.83515
1444 1 10.7361 20.7243 -23.1766 -2.13202 4.02856 -1.98916
1445 1 13.6261 -21.8986 11.4873 -5.25727 -2.23653 -0.296543
1446 1 3.80938 -8.2088 -9.37024 -1.97765 0.941045 2.0805
1447 1 22.8915 -4.76153 -18.36 -3.92387 0.0575797 2.06198
1448 1 -15.2083 1.48667 3.92609 -1.64255 0.915639 0.717873
1449 1 13.8012 -5.42391 -0.335394 0.448583 -1.56503 1.57272
1450 1 -7.71154 -5.17823 -9.36537 -1.59983 -4.38567 -0.626553
1451 1 11.8145 20.7981 -10.0501 2.07084 -0.909007 1.59547
1452 1 -5.43911 -22.7264 -17.411 -0.715552 0.807283 -0.076548
1453 1 0.811648 -19.8211 -4.88708 -4.85008 1.36307 1.49311
1454 1 7.01855 -10.1889 -1.70946 -0.739028 0.589629 -6.36307
1455 1 -14.9755 -18.895 -5.92048 4.69519 -4.25437 6.54119
1456 1 -17.1114 13.196 10.0179 -0.771622 -0.381424 4.27954
1457 1 -19.2553 1.59117 -20.5449 1.64577 0.100641 -6.11679
1458 1 -21.452 13.5023 7.03201 2.90414 -4.97189 0.21382
1459 1 -11.5515 -12.1035 -5.42536 -0.302325 -0.109789 4.01852
1460 1 -11.169 7.09967 -11.7283 -6.02343 1.56936 3.61375
1461 1 -14.0277 17.1349 23.6745 -4.30574 -2.72506 4.40734
1462 1 -9.15128 -18.8236 7.96071 -4.05756 2.73858 -7.79168
1463 1 7.12637 -1.17282 14.4579 1.4037 -1.3863 -4.35118
1464 1 3.77129 -19.7412 -0.173683 -3.3792 -2.95874 4.16154
1465 1 -20.3835 23.175 -13.1386 -0.121905 -0.229804 1.53433
1466 1 -18.1451 -5.53165 -2.81273 -0.451385 1.05277 -4.30547
1467 1 -23.6246 -15.5739 -18.5403 -2.99789 0.0643843 2.76504
1468 1 19.5821 23.9775 16.771 -1.60593 -1.63366 -1.63062
1469 1 18.6564 11.6983 5.36247 -5.97058 -2.52198 4.90698
1470 1 -4.32587 -11.6713 7.59614 0.872477 -0.104904 -2.76999
1471 1 -5.11613 -4.10664 -9.76866 -2.20545 2.69583 -0.156114
1472 1 20.4433 4.09987 14.5131 -4.39489 -1.14148 3.39957
1473 1 15.0878 -17.426 -14.6588 -7.45402 -4.26244 3.95591
1474 1 2.41616 21.9345 -23.8121 1.10911 3.45633 0.0751912
1475 1 -20.6034 45.7453 -4.19669 0.176438 -2.58055 -3.61663
1476 1 -19.6288 12.821 -20.0212 0.675098 -0.747776 -0.288277
1477 1 17.6605 0.401028 -0.853948 -5.97772 0.000150811 2.43566
1478 1 0.339976 5.55924 3.05503 8.10709 3.40973 0.0301701
1479 1 9.80401 -8.03844 7.7971 0.881864 2.67823 0.408162
1480 1 3.93807 14.1624 -5.16752 -7.03347 -3.07176 -1.18962
1481 1 -8.44536 15.9302 -1.5023 0.907242 -3.17129 7.69598
1482 1 6.48179 21.7712 -19.4204 5.94241 -1.44459 1.27728
1483 1 10.2035 -23.6313 -20.9518 0.405157 2.00121 0.69062
1484 1 -7.867 10.7999 5.97948 -0.680028 0.790025 -1.9334
1485 1 10.3805 -10.7204 -23.4122 -8.55455 -2.8065 -1.96932
1486 1 -17.9206 -8.4193 14.3578 4.41048 -1.32397 0.998469
1487 1 -2.44504 3.6155 -16.6337 5.0659 2.73841 1.6219
1488 1 -16.4048 -20.2299 12.4296 -2.99095 1.97748 -2.7537
1489 1 -23.5926 14.4582 -1.35334 -0.363262 -2.11102 1.3529
1490 1 -23.1084 5.09025 -5.53105 -1.26394 -0.0098358 1.26162
1491 1 12.0763 8.92701 -8.65489 2.98369 2.98204 3.17546
1492 1 -13.9281 11.6551 12.7291 2.13939 -1.0429 -2.64661
1493 1 -4.67195 -5.44609 -18.4943 1.80697 0.341352 1.53058
1494 1 -9.42033 8.0888 -22.9516 -0.28493 -3.44166 1.69196
1495 1 -16.9216 -10.9005 20.1644 2.02101 4.21358 8.29137
1496 1 -3.43267 10.2158 -8.71817 -3.16059 2.97488 -1.53535
1497 1 13.7918 -6.75074 -18.4297 2.55665 3.36753 -3.77549
1498 1 -12.6329 2.63553 10.8824 -2.31589 3.17969 1.61571
1499 1 17.2501 3.76601 20.7942 -1.66321 0.540857 -2.33258
1500 1 -19.6861 16.2875 15.1157 1.21029 2.74348 -0.142924
1501 1 9.9312 16.604 -15.0425 1.82606 -2.06567 -2.72175
1502 1 -22.8546 -5.7679 -7.09188 0.878657 -1.12048 -0.410939
1503 1 10.1712 22.8107 -21.5554 2.54949 2.22239 -1.07005
1504 1 -1.80925 -23.3018 -4.7753 0.439048 1.00651 -0.0336365
1505 1 19.9218 -23.2183 -20.6461 1.84108 1.73042 -3.81324
1506 1 13.6191 13.5794 -1.95696 -3.87608 0.212969 1.33514
1507 1 -22.7683 18.79 -5.25146 0.911919 -2.8122 -3.43518
1508 1 20.782 -11.5993 -4.97318 0.130581 1.64407 -2.72141
1509 1 12.0311 21.5143 -7.04443 1.43628 0.673756 0.752786
1510 1 -16.6017 -11.8916 0.185782 -0.0421587 -0.993158 -2.3349
1511 1 -22.6071 -6.13319 13.2846 6.64625 2.37375 1.93525
1512 1 -11.7097 -12.9111 -0.792969 -3.64276 3.17669 -2.66245
1513 1 -20.571 3.1589 16.8148 -2.56854 0.519286 -0.258237
1514 1 -13.6299 -7.53761 -5.73872 -2.59239 -0.0953305 6.6658
1515 1 -7.95552 -21.4498 20.8036 3.91752 4.78112 7.5053
1516 1 -8.37821 24.2883 23.723 -1.55976 -1.54299 1.77275
1517 1 -23.9442 -15.0957 -8.43585 -1.32586 -3.13585 0.518056
1518 1 -1.90227 12.6316 -23.0066 3.06256 -0.668045 -0.618122
1519 1 -11.741 -18.1169 -0.645402 -1.25582 0.0220796 -0.556511
1520 1 11.4211 3.9295 -13.4535 2.11184 -2.86216 -0.777474
1521 1 -9.34151 -12.8757 16.3171 -3.54349 -3.0208 -1.49275
1522 1 -12.3918 0.589222 -14.817 5.28936 2.50239 -3.08485
1523 1 -8.57341 8.04842 13.5077 -0.0793837 0.801068 3.96014
1524 1 2.42488 -17.5592 4.06666 -2.05751 -2.41718 -0.410392
1525 1 -9.05179 -6.43324 -1.43321 3.62088 0.345489 2.19714
1526 1 17.8829 22.9162 1.74076 3.8328 2.4673 -1.74521
1527 1 3.55769 -1.75947 -7.81248 4.56129 -3.06456 -2.14548
1528 1 7.58462 12.9916 16.4494 0.760319 -2.24137 -0.432357
1529 1 -5.02389 -0.803947 12.0196 -2.58114 3.50017 0.750489
1530 1 15.6259 16.4226 4.89579 1.48564 0.993522 0.0997627
1531 1 5.00603 -7.80193 10.1392 0.191842 2.57269 1.14134
1532 1 20.9032 -2.5698 -15.4179 -1.18366 -2.9322 3.3467
1533 1 11.354 22.1987 11.9026 -2.91085 0.531381 -4.45667
1534 1 -18.3561 -6.02861 10.8672 1.7659 -0.857532 1.34513
1535 1 1.60397 -6.51303 13.4989 -1.03284 -0.394946 -4.27577
1536 1 -7.26571 1.84355 23.2923 -4.69853 5.94789 -2.27214
1537 1 -2.55181 25.063 -17.6863 -2.38914 3.76755 3.56694
1538 1 7.0029 17.6849 17.8383 1.50625 -0.505773 1.24369
1539 1 2.05809 6.18536 -15.9163 -1.56387 -2.88746 4.30129
1540 1 -21.9438 5.63636 -24.3038 -1.04847 1.37055 -7.4593
1541 1 7.70183 -18.228 -5.90216 1.84426 2.05722 -1.73499
1542 1 -19.8712 -6.47889 16.7352 -0.654081 -3.40327 -2.37911
1543 1 1.35259 -2.43172 12.6266 1.79778 -5.08984 0.526691
1544 1 -5.80252 22.0787 -17.7826 -0.0381389 3.23211 -3.4584
1545 1 -8.91018 -15.8377 13.6658 2.99859 -3.97111 5.61674
1546 1 -14.9237 -12.4443 18.7966 -0.800447 -3.49562 -1.475
1547 1 11.2021 2.04068 0.680372 1.06432 -1.82827 -1.59556
1548 1 18.1005 -23.7887 -8.24252 -4.12288 -5.62419 2.42056
1549 1 -0.632214 -3.74332 -15.0624 0.973624 -2.34425 -0.912
1550 1 -4.15954 -7.86963 -11.3532 -2.57504 2.8524 0.254958
1551 1 11.9898 -1.00356 -7.58941 3.75982 -3.46382 -2.07297
1552 1 19.5321 9.81417 -18.4094 -2.16661 -0.841639 -1.11155
1553 1 -9.66041 20.4773 -14.2298 4.4333 -1.11897 3.47906
1554 1 -7.37474 -5.738 -21.6512 -1.734 -2.91636 2.06226
1555 1 -22.2815 -4.79568 -4.48817 -1.77158 1.93359 5.01109
1556 1 20.0038 -19.8128 -10.2513 0.337722 0.0289337 2.56204
1557 1 8.75151 -24.1053 -18.621 -1.26729 -2.64335 -1.92442
1558 1 9.50311 -15.6957 -0.544245 1.50893 2.55903 2.60041
1559 1 20.937 17.1687 1.58447 2.32832 1.42281 1.42231
1560 1 -18.3905 -21.3972 19.0089 -0.343018 2.42196 -6.17197
1561 1 21.3893 20.8686 -6.20152 0.48439 -0.376799 1.30757
1562 1 0.439461 -4.41135 -2.92051 -1.79276 -3.48399 1.30495
1563 1 -4.42137 -5.7459 11.1704 7.46512 -3.07168 -4.94961
1564 1 11.0686 14.1165 -6.53094 2.5916 -0.0917594 -3.91229
1565 1 -6.2464 14.656 -9.38477 -2.73101 -0.407688 2.33833
1566 1 3.35033 -7.06254 7.98173 -1.66509 -5.47044 1.22192
1567 1 0.511322 -7.87422 -19.9028 -5.6728 -3.86863 1.43796
1568 1 20.1722 23.287 -9.08529 0.11905 4.59909 -2.0237
1569 1 7.82852 15.6162 5.68968 -0.20027 -2.96286 0.0201753
1570 1 -22.3041 1.11042 -12.4604 -4.73587 -0.721836 -3.83198
1571 1 -3.30003 -11.0607 -2.56456 3.40948 -0.0576622 4.58135
1572 1 -1.90576 -16.0869 13.4933 3.10186 5.10265 -5.62924
1573 1 -9.57441 -12.9362 19.3054 -2.06253 3.89464 5.96326
1574 1 17.3217 -17.2275 6.0976 2.93181 3.40252 -0.623973
1575 1 -17.561 15.9966 5.74209 -0.117621 -7.65638 -3.73508
1576 1 14.0709 21.2611 -19.728 -0.22283 -2.8847 -1.97513
1577 1 16.2346 -20.4319 4.74434 -1.95321 -0.476055 -1.90171
1578 1 15.7095 -1.03249 -13.0069 -1.34251 -0.151847 0.112165
1579 1 -5.40252 14.347 -6.52378 0.147203 -1.29513 -5.25835
1580 1 -17.5544 -21.5423 -8.23086 -1.52526 0.0863787 -4.09484
1581 1 -6.76175 -6.46142 9.8902 -6.26428 0.991267 -0.203606
1582 1 -13.0327 3.64538 -3.35906 -4.48545 2.72741 1.41631
1583 1 10.0435 -0.881329 -5.65518 1.01735 -3.46709 -2.37155
1584 1 -7.96641 -4.78807 14.0203 -6.22255 -2.65765 1.62174
1585 1 -8.93088 -13.4094 22.877 4.91412 -0.045213 -0.833746
1586 1 -19.29 -22.8646 -0.0249276 -4.35881 0.4751 -3.24969
1587 1 18.3738 -4.84993 -8.55787 -0.175039 3.52759 -3.54607
1588 1 2.94015 18.225 -18.9257 -2.77752 4.90642 0.358322
1589 1 -10.5474 -21.9744 -3.6763 -7.19737 1.7406 1.96679
1590 1 20.9033 9.08133 -13.9707 -0.617519 1.59059 -1.10103
1591 1 12.1573 11.8168 1.78296 -3.29983 2.54773 -0.867341
1592 1 16.2962 9.31764 16.0385 0.167008 -2.0565 1.39267
1593 1 2.98506 23.9188 -16.7988 -0.858257 4.83742 0.20867
1594 1 7.27892 8.84442 -0.759308 3.12833 2.70429 -3.83023
1595 1 7.36447 17.3772 -1.17965 -1.45762 2.36962 -3.13983
1596 1 -5.24273 -0.371891 -18.4871 -1.07698 2.94807 0.0722591
1597 1 17.4622 -23.6193 8.58267 0.494506 -0.0465395 1.02401
1598 1 0.113935 14.3137 2.77556 0.352403 -3.53495 1.84067
1599 1 -20.5465 -1.57999 11.3107 -2.07184 -2.20065 3.62824
1600 1 18.1562 -14.1331 -16.6399 4.1227 -2.55995 -1.07295
1601 1 7.70397 15.7412 -16.5159 0.0608007 -3.49992 -0.912838
1602 1 -18.9401 -14.8761 -19.6208 3.69246 -2.76863 2.79424
1603 1 6.46454 -8.63679 -14.2157 -4.27139 -2.49408 1.75035
1604 1 20.917 -14.1654 -15.9442 -2.62922 -3.99724 1.62799
1605 1 -3.0749 -1.29595 -11.4923 0.476114 -2.37233 -0.164219
1606 1 -20.0614 17.7251 2.63317 1.64715 -2.67666 0.107319
1607 1 13.4188 47.0012 -15.9557 -3.38251 2.05922 1.50437
1608 1 -23.7837 4.96782 8.75762 -1.66742 0.116057 -0.198407
1609 1 -22.4153 15.4067 -17.6462 0.0315639 1.39328 -1.45762
1610 1 -12.6186 20.421 -13.9375 -5.50384 3.14415 -4.20279
1611 1 6.16086 12.6761 -0.84107 0.852991 5.61957 1.32234
1612 1 -22.2744 -17.5234 15.7353 -1.82435 1.22529 1.05678
1613 1 -0.808279 -15.6402 0.259534 -1.58684 -0.90152 -5.3764
1614 1 -14.0516 -13.4647 0.54286 -0.071146 -2.70716 4.49898
1615 1 -4.84229 -15.4115 -10.3987 5.25493 -1.35795 -1.59186
1616 1 14.1864 -12.3014 -16.8134 -2.60765 -2.74485 1.96608
1617 1 -16.5012 -15.2639 -11.0873 1.18551 -1.73054 -3.29035
1618 1 10.415 16.2326 16.7575 -0.525201 6.9197 -0.978312
1619 1 16.1645 13.183 17.4836 -2.93712 5.24708 -1.18256
1620 1 12.648 -10.1727 -3.29955 4.48344 -1.75725 3.1461
1621 1 -19.349 5.00216 14.566 0.496514 3.15107 1.93934
1622 1 -15.7877 24.2029 17.3164 -1.31157 -0.470865 4.43346
1623 1 -10.1946 -17.68 17.3734 -2.99363 -2.26544 0.826435
1624 1 6.67579 18.041 -20.2032 3.50383 -0.417626 0.02942
1625 1 12.1432 13.7319 -10.6906 -1.85777 3.55211 5.13357
1626 1 17.1845 1.54064 18.8889 -2.22499 -3.94315 -1.51944
1627 1 19.7315 -7.01807 -22.2171 0.0558549 -0.275839 4.34652
1628 1 18.806 2.90267 3.21167 -5.32455 -1.7619 3.13434
1629 1 -5.35815 -22.5691 15.2407 1.54131 -3.39123 -4.4122
1630 1 11.004 -8.6654 19.8867 0.168779 1.5677 0.351113
1631 1 23.0543 -22.3765 8.32292 -0.918447 -0.458949 4.33522
1632 1 -5.07811 9.49484 -22.4196 -0.567611 -5.24786 -0.669296
1633 1 18.2342 18.5962 -21.9435 0.848321 0.323785 4.11933
1634 1 -20.6848 -9.08249 -22.3221 3.08472 3.70421 1.73296
1635 1 5.02963 -18.4341 -11.8974 0.786931 0.816386 -1.02924
1636 1 20.0104 -11.3248 14.1911 2.71682 -2.58846 0.0824324
1637 1 -2.92217 22.0563 -4.12234 1.02481 2.40253 -1.71848
1638 1 13.7036 -4.39692 -21.5321 -3.2722 -2.12811 1.23746
1639 1 12.2008 13.6954 18.506 0.528173 1.88192 3.85753
1640 1 -17.279 -21.7855 -12.3246 2.13741 9.68591 2.20543
1641 1 22.7608 -14.2573 20.4353 -0.149146 5.44137 0.552845
1642 1 -1.28568 21.5089 6.24832 -6.00923 -3.87281 -4.07109
1643 1 -4.75986 23.6616 -10.6681 3.34086 0.621688 -4.35253
1644 1 -18.0418 -1.99309 8.09505 -0.49087 -3.974 1.57772
1645 1 -5.13956 -6.43707 -5.05295 -3.0732 1.81765 0.279807
1646 1 -24.308 -6.91514 -15.7209 -1.47615 5.71778 -2.69968
1647 1 16.9381 11.3402 -18.9647 4.18082 0.585145 -2.95186
1648 1 -21.3352 -14.7461 22.4712 0.35657 2.5712 -0.160306
1649 1 -16.1644 -4.15082 -9.14482 2.09759 0.372569 3.85851
1650 1 9.02878 -3.7061 -16.0224 0.707481 0.765757 -5.57592
1651 1 14.3046 -15.236 0.494177 -1.26943 -6.56841 -0.99204
1652 1 13.1398 5.99668 -19.8607 -0.519136 -5.63241 -2.85196
1653 1 9.99694 -21.3532 3.19785 -5.97739 -2.92848 3.45388
1654 1 5.65852 -16.7147 10.9188 -2.74497 -2.88856 -0.168253
1655 1 -2.25765 14.6178 12.7043 0.36299 -3.58202 -0.117178
1656 1 -3.71311 11.6124 15.6792 -1.1293 0.752257 -5.46131
1657 1 15.8603 7.83685 -15.0382 3.38529 5.45722 0.0711242
1658 1 -18.3971 18.2123 8.46524 -1.7436 -3.8283 -0.591864
1659 1 -5.14321 -22.875 6.17609 5.2314 -3.90405 4.1859
1660 1 2.43396 -9.98697 -20.7458 -1.41449 -0.42527 -0.601272
1661 1 -23.2988 0.630021 15.708 -2.69098 3.0506 -0.0924739
1662 1 -10.5786 -19.799 -9.22941 0.116813 -4.9729 -2.88309
1663 1 -15.6539 -2.61716 -0.849306 4.42309 -0.664226 -1.71391
1664 1 2.19907 -13.1696 -14.6718 7.89233 0.29288 -0.750888
1665 1 -3.04444 8.08355 18.0595 0.0781934 4.73514 -1.41639
1666 1 17.4218 -6.66102 -17.2605 1.60082 -2.08859 7.6967
1667 1 -15.083 -1.54576 7.47413 1.25048 -0.964908 3.70948
1668 1 -11.347 18.4173 8.28389 4.23246 2.49941 3.88256
1669 1 16.2955 -23.8921 -12.3121 -3.28733 -6.04108 1.20375
1670 1 3.32356 16.9569 1.45953 -2.30464 -5.46165 -4.01477
1671 1 -15.1793 8.67034 19.3101 -4.2827 -0.0538886 1.4085
1672 1 2.78103 12.3505 -23.5949 0.497577 -2.06659 5.45429
1673 1 3.80932 -17.2822 1.6271 -1.48342 4.87556 3.57479
1674 1 3.40723 -5.74751 -8.11348 0.196266 2.19377 -1.90713
1675 1 1.85681 8.05541 18.5315 -0.859549 -1.45199 0.3536
1676 1 -17.0966 -1.29589 -5.3251 1.15834 2.14029 -6.45
1677 1 -23.9949 -18.4864 11.8573 1.06909 -1.44058 0.958984
1678 1 5.73465 22.8654 -16.7337 2.80007 -1.2594 -0.69643
1679 1 -11.9978 24.0928 20.6123 -1.72815 4.60863 -5.97685
1680 1 -21.3755 -19.1737 -21.3062 4.19116 0.321298 -0.640246
1681 1 -18.4116 -10.2326 -21.3631 -1.16845 5.28429 -4.35707
1682 1 5.16301 10.4363 0.400899 -5.33623 2.16682 3.70551
1683 1 15.9935 24.5961 -15.9886 -2.80352 0.964223 0.717577
1684 1 7.7103 15.7231 15.7648 2.37159 1.38553 -2.58507
1685 1 -21.3276 12.6117 -23.7137 -0.0843809 -5.0754 -0.515276
1686 1 9.97324 -12.0492 21.0868 -0.074231 4.07243 5.27186
1687 1 20.6877 -18.3465 -14.3073 4.19415 -3.00299 2.5634
1688 1 -16.2669 -1.89864 -11.1827 2.03736 5.46201 -3.30052
1689 1 3.58679 -23.3503 -2.23803 -3.02613 1.59624 -1.83602
1690 1 -7.33641 -23.1438 11.9955 -0.852981 -2.70298 -1.8215
1691 1 -17.263 -12.1336 6.05062 -4.06372 -3.14173 -1.59589
1692 1 -3.6067 17.7098 -6.39698 -4.23802 -7.88824 4.10871
1693 1 21.9303 9.94512 23.4102 -0.528966 0.155517 -1.78753
1694 1 -15.7382 4.94908 -14.5151 4.3861 2.18145 0.33612
1695 1 18.3797 46.2826 -10.6092 0.857391 -3.30334 -3.23075
1696 1 12.0259 -1.48692 2.1002 -5.35322 -8.09827 0.712841
1697 1 -11.6354 -23.4167 4.60079 -2.88284 3.75288 3.21421
1698 1 -10.0298 10.8267 -0.653256 -1.50567 0.346785 -0.692248
1699 1 13.5337 1.80574 16.5071 0.726615 7.41077 2.82621
1700 1 13.084 -0.743376 -12.7231 0.547277 1.1145 -3.17778
1701 1 12.7874 24.0379 -3.01364 -5.7195 -3.38277 -3.77258
1702 1 -0.35238 -20.1497 12.2941 0.103021 -4.62961 -1.90822
1703 1 1.92602 2.4176 -12.5161 2.13691 3.52645 5.93681
1704 1 -7.97701 -13.0837 7.09356 -2.97361 4.75631 -0.519925
1705 1 -1.75034 24.585 19.1687 -7.16071 -1.2452 -1.91925
1706 1 8.25487 9.46062 -17.7128 -0.764618 -1.88551 0.426521
1707 1 -12.5363 -13.9496 18.6752 0.643986 -1.05279 -1.72243
1708 1 -8.12466 23.7235 14.7253 4.95405 0.145856 -0.39242
1709 1 18.7493 20.7654 -3.42448 1.15489 5.06611 0.198923
1710 1 -7.55418 -21.4855 -13.5073 -2.54892 4.70148 0.363246
1711 1 -3.26637 4.94204 1.49651 -1.0352 1.62125 -0.44322
1712 1 12.6281 14.7189 -20.8918 -3.69695 1.18812 0.373022
1713 1 21.5703 17.213 11.5188 0.0928999 1.79636 -0.747868
1714 1 6.6555 -3.38853 -12.5504 0.321663 7.38417 -0.804777
1715 1 11.1847 27.506 16.6428 0.540325 -1.07074 1.38892
1716 1 14.5384 45.5947 -23.9579 5.82984 1.25397 -0.814127
1717 1 11.6521 -13.7058 -2.84216 0.5774 -1.28911 -3.78398
1718 1 5.5676 -21.0542 -12.7071 -6.04856 0.659729 2.64926
1719 1 19.2949 7.379 0.361865 0.306153 -0.458531 0.227118
1720 1 -2.9856 -22.4484 7.9408 -3.26809 2.73249 -1.3682
1721 1 5.27389 3.03781 9.76238 -2.62674 3.27218 2.69836
1722 1 19.8307 -21.9202 16.5802 0.469896 2.92793 -2.53541
1723 1 23.5441 16.1647 2.33473 -0.475613 2.61559 -3.50958
1724 1 -17.5337 -22.2663 -5.50163 0.942858 2.59613 0.30384
1725 1 -15.0796 7.68591 -19.0668 -0.726863 3.54507 -1.20656
1726 1 16.6353 24.8288 23.5821 1.96199 0.0611122 -3.92824
1727 1 23.2195 -2.21944 -17.3771 -0.51907 -2.6784 2.25011
1728 1 -24.168 -5.02259 -21.9896 4.41404 -3.94371 -2.89495
1729 1 -14.5453 5.2437 13.3358 -0.184852 0.699391 3.05028
1730 1 -4.69659 -7.5163 -23.9421 -1.98912 3.06004 -1.67033
1731 1 18.435 5.19768 -3.95093 -1.3811 -0.565717 0.275583
1732 1 15.5933 -13.1597 5.95578 -1.79124 -0.00303593 -2.58323
1733 1 -12.3277 -17.0348 7.85171 3.8393 1.38071 -1.43661
1734 1 -5.87906 24.9888 -23.2743 0.231165 -2.18726 -2.29784
1735 1 -1.65156 21.1903 -17.1341 1.4254 -1.56248 -0.105093
1736 1 17.7868 4.4459 12.9675 4.11317 1.34569 1.42788
1737 1 -17.0322 1.05929 -7.16777 -3.56586 -0.693238 0.743015
1738 1 6.09189 12.9183 -21.8215 -2.99232 -0.421358 -5.0203
1739 1 -8.5934 -19.6915 16.1441 -4.75346 3.77799 -3.76892
1740 1 3.37013 23.0892 17.9244 -2.81144 3.20114 1.18319
1741 1 8.83281 15.9349 20.6963 -2.18201 0.0584525 0.0456103
1742 1 1.12944 -5.59902 18.9535 0.121653 3.20461 -1.19165
1743 1 20.0821 -15.0208 9.68548 -8.54757 2.75072 -1.3682
1744 1 15.3552 24.5467 -7.75411 2.88648 2.67905 1.54193
1745 1 6.74291 13.296 -5.67515 1.86114 -0.00674655 -1.30573
1746 1 17.5308 23.7133 -12.4859 0.23629 3.02037 1.86562
1747 1 3.68628 -14.3738 -8.01067 0.536544 -1.04007 0.532741
1748 1 12.5741 -2.43757 -3.1022 0.189396 -1.51191 -6.02354
1749 1 21.1937 11.4632 15.6899 -3.5965 -0.445118 -0.485623
1750 1 15.8649 21.4189 12.3463 -0.0450866 2.62727 -0.426494
1751 1 1.8074 -9.68338 14.0631 0.826592 -1.10324 -1.06923
1752 1 21.3271 17.4808 -18.8747 -0.273487 4.54753 -4.52938
1753 1 -22.5286 -17.4077 -23.1646 0.72622 -0.163243 5.24864
1754 1 22.207 11.5683 -20.9801 -2.73501 -1.91887 2.71041
1755 1 -9.94157 -1.68909 -8.35794 -3.79602 -1.78636 0.103808
1756 1 -14.8342 3.7963 8.36949 2.24306 -1.51771 -0.743242
1757 1 17.7223 -15.4763 -7.89828 1.38122 5.70174 0.0217138
1758 1 17.4941 -22.849 5.66036 -0.326756 5.04271 -0.280403
1759 1 19.2161 9.09914 11.452 0.991065 7.30851 -5.74021
1760 1 -17.5634 -15.2181 -22.3498 -0.537921 -0.87688 1.00888
1761 1 19.176 -17.2986 -23.7624 0.171221 4.68876 -3.20235
1762 1 2.17118 19.7174 3.41636 2.91359 0.379672 -2.00316
1763 1 -2.50172 4.60025 13.7346 0.0596206 -3.0759 0.646797
1764 1 -15.8234 17.394 -12.5144 2.87353 3.3493 -1.64528
1765 1 3.212 -18.9792 -3.0456 -2.79095 -5.87789 1.39286
1766 1 -18.5945 1.98176 18.8813 1.27655 1.43559 -3.41054
1767 1 11.3273 25.672 19.1134 -2.48038 -3.05938 -2.19813
1768 1 12.3899 -3.52417 8.561 -0.0438972 -1.10912 -0.669006
1769 1 -21.8995 17.6611 16.0654 -1.18841 5.05359 -4.80025
1770 1 -10.1772 -5.24926 18.1039 1.2052 -4.85683 2.87642
1771 1 -0.892202 22.3431 10.97 -3.14138 -1.48092 -1.75802
1772 1 12.5986 -21.6152 0.719943 0.0531748 -3.96422 0.423796
1773 1 17.3214 13.7121 6.94963 -1.48715 0.960957 1.17247
1774 1 18.1013 -19.3779 22.5125 -0.362183 0.984362 -2.33366
1775 1 9.35933 13.6048 -10.3546 -0.637766 6.54637 0.618231
1776 1 10.7717 12.9058 -2.03295 -0.0248518 3.01181 -1.01005
1777 1 -21.5034 -12.9454 15.5021 -2.12974 -4.382 -4.38454
1778 1 -14.7336 -5.99141 -10.8967 0.894928 -0.764818 -0.993715
1779 1 9.56029 6.14847 -8.34599 -2.70479 -1.14451 -2.9772
1780 1 6.88835 5.58023 -6.08794 0.204001 -3.42658 2.77627
1781 1 8.77955 19.0971 -21.8459 0.721999 -3.52034 0.447433
1782 1 -22.6132 -14.2501 -12.507 -2.7447 1.59174 -6.21058
1783 1 16.7447 5.40691 -6.28503 -1.21347 1.12802 -1.00498
1784 1 -11.0658 16.4177 14.7583 5.2027 0.238141 -1.87992
1785 1 -7.7343 6.84127 -9.81388 0.670299 2.97775 -0.927297
1786 1 -3.37707 1.38119 -4.15829 1.99016 -4.40007 1.81758
1787 1 7.97187 18.7688 -11.2202 1.29574 2.38753 -0.832709
1788 1 -14.0105 -17.6386 15.4149 1.69595 3.36553 -3.36389
1789 1 21.0366 -0.11102 -7.19411 -6.30026 0.886204 1.14759
1790 1 8.8398 4.74304 -13.4164 0.270602 -0.363162 -4.29886
1791 1 -0.107956 -6.57711 -14.6894 1.5784 3.36684 -1.63842
1792 1 -15.9297 5.28308 6.00364 0.162032 3.42053 -4.97258
1793 1 17.206 5.91837 -23.6052 -4.06896 3.85812 -2.67677
1794 1 17.786 3.00972 -19.8618 0.213772 -3.01091 4.27721
1795 1 15.082 -0.258409 -15.8186 0.625709 0.0925048 2.22161
1796 1 -22.0806 -11.331 -21.866 0.563123 4.92827 -0.78903
1797 1 1.93599 16.0903 17.4114 1.72581 0.168376 -0.162161
1798 1 19.9864 -5.58897 -17.795 1.00243 0.810024 -0.593439
1799 1 -12.2748 11.1343 -12.985 -4.3535 2.71399 2.19586
1800 1 1.40633 2.29833 6.98978 -0.797312 0.520278 -0.803782
1801 1 -11.2579 -19.7168 -5.10074 4.42336 -1.95155 1.32215
1802 1 -18.6752 -19.8324 -10.5579 0.497978 -1.26595 0.476759
1803 1 -14.2569 14.3127 -7.97935 -2.10409 -0.881265 2.5882
1804 1 -2.39309 -23.5188 -13.0543 -3.42647 2.52521 -3.64203
1805 1 12.1301 3.09036 -7.40251 -4.20111 -4.43631 0.0832524
1806 1 10.2736 -3.12502 14.4336 -0.38852 -2.00654 -3.00198
1807 1 -16.2707 -9.60126 22.5342 3.64985 -0.745962 2.22508
1808 1 18.6481 -12.2952 18.6217 -0.794373 -2.54948 -2.73185
1809 1 8.75781 20.9597 -0.471677 0.477779 4.39572 -3.39688
1810 1 12.5707 -23.5642 -6.05834 3.53549 -1.97863 0.0588113
1811 1 -0.235431 4.58813 22.0069 1.52923 -6.47067 2.84324
1812 1 -8.69005 -2.34103 -23.0449 -4.33186 0.782051 1.25965
1813 1 -15.2992 10.4234 17.0364 0.292846 -5.34287 -1.91072
1814 1 13.1613 5.05967 -11.6717 4.07823 1.51888 -3.46741
1815 1 11.3942 -5.70285 22.3798 -0.587845 -3.42096 -1.03745
1816 1 -0.731133 16.6592 -9.91667 2.99817 -0.250234 2.51546
1817 1 -3.40263 18.8156 -16.2883 -3.47855 0.631189 -1.19612
1818 1 -23.6213 -9.27339 7.21115 -1.37051 1.94448 -0.371341
1819 1 -11.5115 -13.7246 21.4613 0.272258 -1.37955 1.88599
1820 1 16.0867 10.6085 -11.064 2.5067 1.43331 -4.91694
1821 1 18.7887 23.1347 9.9746 -0.799748 -0.198264 0.698184
1822 1 13.8094 -2.23544 -0.244912 1.51047 -5.3338 4.24029
1823 1 8.03223 -24.2625 12.0174 3.51956 5.07296 1.731
1824 1 -17.2978 -20.7415 7.37517 2.05566 -1.25492 0.219873
1825 1 7.77559 -9.41964 -6.72106 -3.00304 1.52213 -1.38568
1826 1 17.532 9.49193 2.54072 5.58244 1.19892 -3.85374
1827 1 17.5268 -22.7213 -4.27055 -0.986137 -1.93057 0.144265
1828 1 -13.7323 -21.5588 -22.2296 2.75928 1.99589 7.4501
1829 1 2.18755 19.4562 8.64012 -3.01339 -2.24281 1.55428
1830 1 -17.2676 4.43351 -16.7591 2.41888 -4.19609 -1.0936
1831 1 14.7693 -13.4793 -5.84369 -3.40838 0.475759 -1.00427
1832 1 -22.2093 -12.4437 23.56 2.58602 4.95302 3.04599
1833 1 -9.52391 1.94151 15.7808 -1.56174 -2.40938 0.316117
1834 1 7.45787 -8.05808 -20.9389 -2.9882 -2.35506 -1.7156
1835 1 5.91371 26.3295 18.8821 -3.21899 1.53544 -0.962754
1836 1 -11.2118 -23.3297 -19.1295 0.747264 1.913 -1.74691
1837 1 14.7662 -20.9012 9.03686 2.9425 3.03923 -0.442344
1838 1 17.6008 19.9052 1.76465 -4.88702 1.43249 -0.834743
1839 1 19.6016 23.7 5.31446 4.87746 -5.58579 8.51152
1840 1 -21.5113 -11.1674 1.44408 2.6765 -0.297853 -0.692653
1841 1 9.04701 -23.4331 -10.4635 -0.51851 0.0621621 0.259725
1842 1 12.6126 -19.8324 2.93266 -0.111759 2.2997 1.80717
1843 1 8.2424 -4.48346 -22.5884 1.93019 2.62812 -0.511837
1844 1 -2.68709 -2.46559 7.037 -2.63763 -3.1436 -3.41764
1845 1 20.0224 22.145 23.7806 0.925564 3.74223 1.70872
1846 1 9.1909 -21.3075 6.28997 -0.935357 -0.199091 1.20052
1847 1 19.5161 -14.8281 17.6008 1.39174 -2.45884 3.58151
1848 1 5.7289 4.69436 -15.6759 -6.20636 -2.95289 -0.277365
1849 1 13.7716 -23.449 -13.3648 1.25754 -2.65282 1.47466
1850 1 17.4716 -20.2408 -8.49751 0.455373 -2.52347 -4.69011
1851 1 -7.82518 4.96462 -1.0617 -2.6639 0.860814 -2.87653
1852 1 -0.840194 2.22172 -20.083 0.21991 1.84104 0.658941
1853 1 5.76983 -12.1262 7.06189 -4.19192 -2.0379 3.44384
1854 1 5.14135 -24.5805 11.8131 6.09889 -5.34852 -2.13777
1855 1 1.31229 22.8928 -14.9498 -4.4901 2.45476 -1.408
1856 1 5.15966 -3.40578 -19.3606 -9.38672 -1.47274 0.354641
1857 1 0.529408 -21.0439 2.18708 -2.45757 3.02237 -2.00412
1858 1 -0.167126 -15.065 -12.674 -0.635619 6.9654 1.42483
1859 1 6.77708 -15.5808 -17.4902 4.42626 3.41618 -4.16754
1860 1 5.96227 0.237749 8.75089 -3.17117 2.6065 2.65033
1861 1 -14.7415 -21.5712 -17.9475 -0.500187 -1.02086 1.48417
1862 1 -12.5073 -2.37905 -8.66375 1.54601 -1.79 0.599176
1863 1 -5.598 -15.7919 -7.56703 0.586286 -0.992582 0.638792
1864 1 -7.44001 13.6964 19.4804 -2.61239 -5.28152 4.49632
1865 1 -10.8071 -4.44176 4.9011 0.702901 -5.3955 -2.84047
1866 1 7.60143 22.8992 13.6447 -3.14088 -1.49936 2.02642
1867 1 6.69871 -7.44053 -0.839102 -0.529688 -1.43187 0.323087
1868 1 -8.88429 3.73659 17.9357 -6.5368 6.75438 3.83656
1869 1 -0.582688 24.1277 16.6016 2.88111 0.168333 0.878356
1870 1 -15.9301 10.487 14.195 -1.30634 2.18323 0.414741
1871 1 18.277 -12.5801 5.31463 2.39825 2.28181 1.72916
1872 1 -2.67581 -9.60578 -12.8763 0.604291 1.78707 -3.13215
1873 1 -11.7572 16.2024 9.97739 -3.4757 -0.504731 -4.38585
1874 1 -11.9794 -14.0058 -20.5394 -1.02079 7.6578 5.7646
1875 1 19.4097 -6.39983 -13.1301 -2.15968 -0.103315 1.9217
1876 1 -22.6069 9.15709 -21.0225 -6.99474 3.67958 1.45171
1877 1 -15.304 -6.15184 8.93747 0.209312 0.786542 5.01322
1878 1 20.6695 22.3438 0.988709 3.12311 -1.65168 -4.27398
1879 1 -18.1492 -15.7807 -15.8677 -0.391587 6.59952 -0.4246
1880 1 -1.16807 24.0258 -19.8741 3.34502 1.19045 2.87661
1881 1 8.99255 3.16858 21.0548 1.96508 -4.22915 -0.555965
1882 1 -8.53797 7.83538 17.1384 4.72723 4.27555 1.03216
1883 1 -5.21839 -12.9175 -4.12681 0.702913 5.37328 3.09761
1884 1 14.0494 13.8363 8.41005 -4.51592 -1.71803 1.49197
1885 1 -9.68816 19.311 22.8713 1.94161 -2.32093 -1.66944
1886 1 20.691 23.567 7.83696 1.80825 2.88278 1.5408
1887 1 18.7006 -6.87269 14.3453 0.778745 -7.80318 -0.171527
1888 1 -8.5389 -19.313 -11.4296 -0.390498 -2.03724 2.05011
1889 1 -10.2153 -0.885468 9.09753 -1.04853 4.64053 -1.00948
1890 1 -23.6558 8.26512 -23.9632 2.54149 -1.91529 -0.67639
1891 1 -9.77901 -13.9792 -22.3768 -3.60034 3.24794 1.33426
1892 1 -2.81071 -12.8905 -17.44 4.15812 -2.58139 -2.3294
1893 1 3.86933 1.16173 20.825 -2.472 0.932656 0.977439
1894 1 -0.913343 -18.1002 -3.23932 -3.87798 0.638346 -3.17264
1895 1 -19.4535 -10.6811 15.3132 -0.698859 1.215 -1.03898
1896 1 14.4869 22.2031 -1.67224 5.22735 -4.27972 2.29077
1897 1 -12.5113 -23.14 -6.9183 -2.58097 -3.49323 1.7764
1898 1 -22.8819 18.5115 13.4524 -0.973531 0.0863798 -1.77742
1899 1 -7.94162 19.4999 -5.68813 3.09124 2.06745 -0.982444
1900 1 -11.571 1.56485 3.83199 1.94584 -0.904754 -1.3113
1901 1 -10.1279 -7.8337 -16.7657 -3.06788 2.71719 0.993738
1902 1 20.8072 6.50891e-05 -20.4412 1.81325 -1.61254 -3.3482
1903 1 -0.719045 -14.8624 -16.594 0.184684 -2.07953 -1.94181
1904 1 -8.38046 -22.4629 17.3767 -1.87032 2.29625 2.02557
1905 1 -13.53 10.4064 -6.47497 0.767862 -4.91589 -0.154731
1906 1 -18.7368 46.012 12.3677 1.61152 1.07845 2.78026
1907 1 -19.087 -12.3571 10.8495 2.90099 1.54785 -7.16446
1908 1 -16.0612 -5.40964 1.80625 1.71294 -1.08709 -1.41033
1909 1 8.32681 -9.84102 12.4999 0.309266 2.98495 1.76442
1910 1 -8.54906 -10.5868 14.6337 2.48488 -1.83332 0.964566
1911 1 21.1057 -0.598563 -4.39372 -0.683972 2.37949 -0.921501
1912 1 -15.1644 2.87966 0.207955 -1.10779 2.94109 2.04036
1913 1 -0.145301 19.029 0.00480275 1.80064 0.725695 0.600296
1914 1 20.3959 6.28218 4.34649 1.00247 1.18681 -5.70073
1915 1 17.8866 -18.3327 -14.9702 2.3357 5.46074 -2.09775
1916 1 -7.03818 14.7421 5.41538 0.366738 -3.23879 -0.855433
1917 1 -24.672 22.4693 19.9526 -5.49168 -2.4051 0.173514
1918 1 -18.36 -1.32824 -20.0829 4.30142 -1.78576 -0.730168
1919 1 -20.5441 10.459 -14.8708 -0.471868 1.98559 -0.288093
1920 1 22.404 -16.7782 1.60835 5.62527 2.68741 -1.77574
1921 1 18.1222 14.6815 -6.51055 -0.514569 -3.17944 0.861586
1922 1 5.92687 16.3971 20.0708 2.87707 -5.9147 -0.789246
1923 1 13.7983 0.894977 -10.4134 2.67559 2.26647 3.2402
1924 1 22.9968 -19.1113 -0.331087 1.9377 -1.78855 -6.19208
1925 1 22.571 -23.3134 16.6885 -2.13072 1.45594 3.16967
1926 1 13.6181 -5.35827 -8.17538 -0.592374 -3.16243 -2.33637
1927 1 -9.2335 -20.5656 -21.0127 -0.961528 0.506497 -0.641552
1928 1 22.1614 -3.36154 4.62871 -3.25945 1.90299 -1.83217
1929 1 6.99518 19.9914 2.27196 -4.24649 -3.49344 -1.51889
1930 1 -6.26878 -13.7309 -19.0139 -5.06016 1.17894 6.21302
1931 1 -9.81599 6.15673 -2.77657 4.20809 0.633077 -1.22296
1932 1 -2.7944 18.7341 5.9757 2.24515 0.168758 -2.07037
1933 1 -3.68641 21.1573 -19.1888 2.20746 -1.64588 -1.07635
1934 1 -0.410181 -10.789 -2.0912 -0.944689 0.652026 1.01752
1935 1 16.8864 -17.2846 3.35926 -3.02209 -0.450665 -2.58694
1936 1 18.9664 -22.5319 20.2558 -0.667261 4.76768 -1.31369
1937 1 2.94376 2.8387 18.4162 -5.36883 3.75338 4.3584
1938 1 0.605801 5.57295 17.7464 -1.74643 -0.407261 -1.00148
1939 1 8.4244 10.1889 2.62776 -1.87108 5.5842 -2.91522
1940 1 -18.8202 47.0532 5.79672 3.44691 1.34909 3.27181
1941 1 -0.749271 -23.8496 -10.6143 2.76605 1.64119 -1.88516
1942 1 -2.60792 9.49491 -4.93689 -4.14731 -1.43286 0.0650443
1943 1 4.39551 18.8981 -5.18563 -2.86579 -2.71386 -2.52234
1944 1 -20.8116 -24.0549 -2.04331 0.573547 0.116866 -3.21801
1945 1 -21.5191 -19.3306 20.7265 0.310192 -2.64675 -5.98765
1946 1 8.9739 10.3915 -7.04549 2.23032 -0.737591 0.701409
1947 1 -15.236 14.0007 -14.3169 1.89945 3.67046 1.92109
1948 1 14.7655 3.40503 -16.2612 -0.503286 1.83922 3.56672
1949 1 -8.59838 -6.34988 -11.8574 2.01388 -0.968423 -0.3499
1950 1 -22.6174 20.6757 -3.13341 -0.768054 -0.264846 0.478014
1951 1 -5.96895 -16.4379 13.6275 3.93245 -2.20394 -1.45562
1952 1 6.84844 -17.3544 -13.9031 -2.70255 -4.45745 0.195721
1953 1 17.4608 -18.2918 -2.2449 -0.155857 -4.95048 0.544684
1954 1 6.50936 7.7476 10.3484 1.44277 -2.1446 1.32318
1955 1 -13.554 -18.3422 21.8659 -2.18973 -3.58128 -0.0474367
1956 1 -7.1349 -0.273899 4.08228 -0.0567644 -1.832 0.952075
1957 1 15.3393 17.4118 9.30825 -0.582338 -0.176964 1.24757
1958 1 13.1128 6.02834 17.1852 3.27342 -1.15874 4.17826
1959 1 20.5763 -4.97638 -3.13001 9.10294 3.12333 -2.61034
1960 1 -17.5335 -5.79826 -22.2076 1.44312 1.09664 -4.73334
1961 1 17.5182 -14.2414 -5.12489 2.65073 0.410089 -1.13604
1962 1 -0.68051 -12.4846 -6.66422 -0.753865 -1.95438 3.63509
1963 1 -2.33552 16.8946 0.579714 4.06271 -2.63832 3.9537
1964 1 21.3622 25.6525 -14.2622 7.46363 2.99619 6.30186
1965 1 18.864 -7.8048 18.5978 2.09358 4.30673 -1.33876
1966 1 -21.3196 -18.0273 -9.85518 -2.84124 -4.90732 -5.37031
1967 1 -12.3207 46.904 17.7044 -1.97738 4.15218 0.707539
1968 1 -23.6929 13.3565 11.1302 -2.84845 2.4701 3.75448
1969 1 -2.93582 -9.82778 9.44526 -0.560117 2.1019 0.983983
1970 1 19.3844 -7.28758 -2.06957 -0.302959 0.373735 1.30084
1971 1 -24.3002 -4.9734 6.37652 1.24975 5.71982 -1.71352
1972 1 -3.22364 -7.88497 5.49912 -0.676377 -1.33931 -3.59835
1973 1 12.5068 -16.5392 21.2462 -2.52456 4.41633 -2.2372
1974 1 15.5777 -9.69646 10.7696 1.10519 5.70635 -3.25318
1975 1 11.5207 -21.1186 -17.6435 -2.54945 -6.09601 1.05639
1976 1 21.0993 -11.9984 -22.388 2.5256 -1.40674 -1.09771
1977 1 14.4304 -12.0073 13.3663 3.13421 -0.403591 -1.2748
1978 1 3.2983 -0.558497 23.4377 -0.331248 -0.57772 2.12543
1979 1 -0.855133 24.6201 12.5945 4.08212 2.25124 -4.22696
1980 1 -22.1114 7.215 -18.7019 -0.539632 -1.77894 -5.01913
1981 1 17.1477 24.9306 -2.80533 -1.51947 -0.675769 0.0836132
1982 1 -19.7836 -7.26008 20.3384 0.294336 0.767359 3.22079
1983 1 17.6306 -8.56909 -5.52785 5.24728 1.09351 1.08445
1984 1 3.4925 20.8977 19.7808 -0.142756 1.3246 0.503915
1985 1 3.27791 -21.8357 -9.25608 -1.76004 0.683615 -2.10398
1986 1 13.1134 -5.04492 2.35023 6.2066 4.34844 2.9674
1987 1 -19.0603 2.77927 8.89748 1.18391 -1.71111 -1.32926
1988 1 5.88685 20.8217 11.0435 1.80074 2.39317 -0.0981659
1989 1 -11.5994 -17.7416 10.6757 -1.84733 -7.08305 -2.95121
1990 1 20.1559 -15.4291 -6.39061 0.88991 -4.70783 -5.37697
1991 1 -22.0698 46.6782 22.3849 -3.44741 -2.67646 -4.49161
1992 1 11.623 19.2877 5.15501 1.27384 2.07047 -4.1854
1993 1 2.106 11.8717 -13.8201 0.801756 -5.0401 -0.779241
1994 1 23.7219 -19.868 4.71081 -0.838451 3.62887 -3.11654
1995 1 1.34579 2.7482 13.8354 3.17559 -7.21076 -0.975818
1996 1 -12.9583 8.72583 21.0432 -5.12226 0.259788 1.38171
1997 1 21.908 20.946 7.60996 0.756234 4.16048 -7.62445
1998 1 -15.237 9.26536 0.650045 -1.27258 -5.90739 2.8368
1999 1 -1.43956 -11.5321 23.8687 0.771614 -0.396548 -3.46398
2000 1 5.15868 4.91271 -18.4252 -2.42992 -4.11338 -2.76688
2001 1 -9.83006 -12.8569 -2.77432 -0.60655 0.157071 -3.34426
2002 1 -22.5199 21.3222 -6.76057 -1.31384 0.267719 3.1226
2003 1 9.34362 -3.41838 -11.6572 -0.301019 1.0086 4.61383
2004 1 -0.0356086 -23.1088 -23.5304 6.77964 2.57571 -1.89121
2005 1 5.88719 -2.44313 16.5837 2.65328 3.80273 4.45483
2006 1 7.47467 -12.1678 -7.76323 -0.834632 1.16199 2.25961
2007 1 -10.1203 14.1506 -11.7589 7.0828 -1.4888 1.08761
2008 1 -10.1229 25.2543 13.6135 -3.52107 2.28567 -4.24747
2009 1 -2.91338 0.953655 -1.28544 1.66896 4.51707 0.411226
2010 1 -9.31302 3.4988 22.5326 -2.5888 0.868836 -0.738217
2011 1 0.545621 9.80354 16.7312 1.37358 -4.53212 -0.956949
2012 1 17.1419 -20.1022 14.3721 -4.8358 0.319766 2.64852
2013 1 -13.8424 23.151 5.18688 -2.40433 6.46462 -4.17747
2014 1 -10.7814 -9.45059 13.6844 3.07381 -4.20642 -1.12468
2015 1 -2.43354 -5.60125 -3.4945 2.03612 -1.14557 0.45734
2016 1 -6.05791 -16.8532 -4.78612 1.54337 4.51177 0.939123
2017 1 12.9127 10.1122 21.6062 -0.786467 1.98442 -1.79441
2018 1 -15.9286 -2.73047 4.999 5.10175 0.0763585 3.70758
2019 1 2.33096 25.7275 21.3605 -2.80751 -1.06223 0.181686
2020 1 8.81023 -15.3811 -14.8931 1.84471 -1.50133 1.76434
2021 1 -5.04466 15.0389 13.2006 2.97156 0.0276839 -1.44215
2022 1 16.599 21.4441 9.65036 -0.396611 0.132319 0.283933
2023 1 -21.9062 -11.6055 7.53438 -2.00509 2.3016 0.619373
2024 1 9.4765 10.057 11.5943 0.721877 2.11097 -1.23521
2025 1 3.13337 -13.4922 22.9217 4.07453 -1.88414 1.24199
2026 1 5.71852 24.8219 12.2566 1.40321 -5.61927 -0.17995
2027 1 6.60136 16.2466 -11.8332 0.15845 0.463819 2.76447
2028 1 0.748927 -4.88691 -19.0627 0.58128 0.587117 -0.454459
2029 1 14.9881 -8.76371 -2.93712 -1.23153 0.745651 -6.49774
2030 1 10.8322 -17.5796 -22.1556 1.06699 0.738088 -1.97791
2031 1 -5.88757 -20.3037 -10.1801 0.0434327 1.10301 -1.25901
2032 1 -8.84161 4.11599 4.87384 5.34262 3.08439 1.78214
2033 1 9.10444 18.4302 0.865356 -3.54696 0.265473 3.33539
2034 1 -10.0842 0.50091 -18.1653 0.101337 -0.989838 -1.05618
2035 1 15.9439 -18.5607 -23.314 0.782814 0.684447 -0.470533
2036 1 -13.9908 9.24144 23.8805 3.03183 1.13391 4.62223
2037 1 -16.7879 7.57309 10.4864 0.487376 0.0426355 -1.92085
2038 1 20.5387 -0.780784 11.2518 1.73397 -1.77184 -1.29761
2039 1 8.54387 -22.8962 -23.1405 -0.324564 0.708615 0.605704
2040 1 -4.60052 -23.0426 -5.61206 -3.22905 -0.57388 4.71338
2041 1 -15.9595 -15.284 19.4535 -1.96622 -4.65866 2.22718
2042 1 7.02205 -20.8275 20.978 6.72219 -7.91417 3.26509
2043 1 17.5891 11.6434 12.1563 -2.42961 -4.50894 0.363799
2044 1 2.19508 -6.86276 0.724763 3.55777 0.349774 -0.854026
2045 1 5.70948 -18.3145 -16.5267 1.55256 -1.80963 0.980062
2046 1 -7.38145 17.6445 18.2331 2.46217 4.65408 -0.811605
2047 1 -5.36168 -14.4016 7.07257 0.386334 0.643812 -3.02345
2048 1 2.08713 15.5374 -16.4853 -0.191475 2.2826 0.0279864
2049 1 16.7593 21.0732 -19.1774 1.91903 -1.30713 -2.4102
2050 1 -11.38 7.46888 -8.82266 3.75986 -3.49883 -4.463
2051 1 -21.6399 9.25177 -7.40278 4.2972 -3.2833 -0.0554603
2052 1 -10.755 5.70367 23.9769 5.78781 3.62709 0.985559
2053 1 -22.7668 12.5943 -18.225 2.04055 -1.83808 -0.616226
2054 1 16.1674 5.00625 -0.10944 -2.27119 -0.965823 0.523575
2055 1 3.18352 16.8845 7.83713 -0.915367 -0.297274 -1.56052
2056 1 -3.78668 25.5641 22.6738 2.74515 -1.66344 2.69767
2057 1 15.7142 -3.44339 6.14718 -1.18571 -4.27723 0.468488
2058 1 20.9539 8.87328 -11.0881 8.31348 1.67082 0.4018
2059 1 5.34618 -9.79936 21.8728 1.00692 3.93483 0.403478
2060 1 -6.95907 -1.17565 -2.79904 -0.64862 -1.09099 -0.397273
2061 1 -15.9225 44.9808 -22.2291 -3.80967 -0.533931 5.38631
2062 1 -19.5648 20.6933 -7.34387 2.14602 2.18321 -6.78746
2063 1 -12.2786 -9.83571 -20.4814 -0.236708 -4.4796 2.03353
2064 1 -15.7497 -17.3938 11.0517 -1.72187 -1.85959 0.19525
2065 1 13.2829 -20.8228 -23.9846 -3.04228 -1.55972 -1.89061
2066 1 18.6004 4.03663 10.0459 0.605393 -3.71835 -1.97436
2067 1 22.8003 8.06097 19.85 0.628797 1.72354 0.101796
2068 1 -14.6729 8.7307 -3.40674 3.25362 2.20447 2.39373
2069 1 20.8988 -23.1024 -12.8864 0.186665 -2.3126 -1.70645
2070 1 21.9543 1.51434 -2.48384 -1.3409 2.91977 -1.30464
2071 1 23.8997 -16.0933 22.8101 2.57763 0.34483 -4.29043
2072 1 -19.2432 5.59318 19.9291 -0.293284 3.51137 1.37429
2073 1 -17.2804 7.40079 -14.929 -3.79413 1.18007 -0.00813005
2074 1 2.82735 11.1337 -11.1078 0.55704 2.37052 3.33225
2075 1 -8.36918 -16.3212 22.4561 -0.566382 3.52738 -0.447584
2076 1 -12.8574 24.1665 -8.35883 0.164196 -1.17107 1.64192
2077 1 -18.8237 -3.58457 4.7379 5.46068 0.0925598 -1.04963
2078 1 -14.9632 0.934975 -21.7963 3.19542 -2.92562 0.544559
2079 1 7.131 -15.8984 -20.3425 -0.505918 2.16011 -9.48182
2080 1 23.0305 46.9799 -16.8488 -0.773727 1.62995 1.35246
2081 1 -23.5106 19.7891 -10.9971 -1.44973 2.38594 -2.17271
2082 1 -8.16506 19.7582 4.19876 0.143332 1.80123 0.755968
2083 1 18.5286 10.821 -8.14673 -0.275974 -0.593774 6.10036
2084 1 12.4539 18.4812 18.492 5.35651 2.76992 -2.3814
2085 1 -21.7534 -22.6481 -8.42918 4.4181 -4.6591 -0.312388
2086 1 -10.3617 -14.226 5.21107 -1.98796 -2.20659 5.33009
2087 1 -10.5221 8.10176 -20.2419 -0.922834 0.980831 2.00356
2088 1 6.78552 21.4537 22.7965 -0.656256 -0.0603417 4.99851
2089 1 8.83517 15.0317 -19.1299 6.00388 3.06515 0.117811
2090 1 12.2174 8.95077 18.3921 0.155883 1.8516 2.45812
2091 1 -7.88961 9.70761 11.2956 -3.07274 3.47712 -0.990652
2092 1 -17.2967 24.9989 -22.046 -2.1304 -2.90792 -0.104654
2093 1 -5.93 13.022 -2.93158 -1.92347 0.899389 0.36989
2094 1 21.7482 13.7823 -1.14082 1.60129 -0.747906 -4.86608
2095 1 -22.532 -9.43677 3.88816 1.17251 4.02001 0.648659
2096 1 11.232 -3.83075 0.259144 -2.03209 -3.26855 -2.14573
2097 1 -3.77528 7.43692 10.5048 0.592942 -4.58768 3.15674
2098 1 -17.1404 -15.7041 -4.29003 3.57034 1.20952 0.425214
2099 1 13.4554 -11.1845 5.80408 -1.0638 2.61439 -0.702081
2100 1 -1.5613 -3.5156 21.027 -0.309288 1.27324 -3.44851
2101 1 -22.038 -8.15074 18.8984 -2.05262 -1.32519 0.372318
2102 1 6.70714 6.25568 -8.87174 1.40602 -1.18576 -1.08816
2103 1 11.6907 -15.8713 -15.3716 1.59789 1.66427 -1.6533
2104 1 -20.3928 -4.6492 19.0312 3.63789 5.34712 0.104951
2105 1 13.2952 9.42131 -11.2637 -2.22108 -0.21631 -2.89051
2106 1 -19.0923 -17.6609 -21.1812 0.720318 -1.79828 6.08651
2107 1 -8.69665 6.00393 -14.8927 2.43137 3.5884 -1.86875
2108 1 -11.745 12.1341 2.2813 0.716983 -1.26724 -2.30181
2109 1 -4.85852 10.973 20.3265 -1.85783 1.58289 4.25462
2110 1 0.22581 11.2388 3.3449 -1.95197 -3.8072 2.88103
2111 1 21.2824 -11.6986 20.006 -2.1696 -3.02663 -5.03196
2112 1 -8.66344 3.36058 8.59507 -3.23875 2.21307 2.4429
2113 1 -18.2123 -3.53101 20.5823 -3.24462 -6.28935 -1.09318
2114 1 -1.49411 -23.2847 20.3879 -1.46602 5.0018 -3.23161
2115 1 15.1357 -15.8242 -9.15841 -3.41222 -2.50166 -2.15594
2116 1 19.7875 -3.4191 6.47732 2.91561 -0.811668 5.85639
2117 1 22.8741 21.7229 4.04322 -2.77744 1.44139 -0.141093
2118 1 -9.35568 0.0663755 -4.49689 0.865464 2.09877 1.47402
2119 1 -10.3836 18.074 5.24938 0.625843 -0.427082 -1.02779
2120 1 16.1655 -18.1473 12.2856 -0.212108 -0.968589 -2.04504
2121 1 9.62797 -21.4638 22.6329 2.19973 2.65053 -11.3701
2122 1 10.4023 8.93905 -11.1226 2.12419 1.12954 0.0102854
2123 1 20.7708 -8.47313 -17.9921 -1.88557 -2.90283 -4.74111
2124 1 21.1775 -0.463025 -17.709 2.10995 -3.44142 1.58854
2125 1 -1.83504 -14.0807 15.7163 6.22961 1.93187 -0.22859
2126 1 14.9329 -7.62301 -5.55278 -1.83023 -3.1018 2.08647
2127 1 22.9987 -8.82548 -19.6741 1.63285 0.637991 -6.96945
2128 1 -18.4103 -20.5166 -1.18292 -2.33983 -0.327593 -0.701131
2129 1 -12.8924 -24.2868 13.619 3.3875 2.09103 2.05991
2130 1 -23.8012 11.0369 -8.73155 0.192646 -2.44598 -1.99695
2131 1 17.9439 -5.83289 -4.238 4.19821 -7.6277 1.20796
2132 1 12.0479 -23.1485 23.1121 -0.229129 -2.7662 1.28407
2133 1 -14.4241 -12.8728 6.20907 1.87743 -0.794812 3.22821
2134 1 9.30899 20.4123 6.91097 -3.00294 -0.507096 5.79888
2135 1 17.5481 9.98468 21.9422 -1.25096 2.13639 1.99492
2136 1 -4.52542 -21.3065 3.82533 1.79364 8.87421 3.12899
2137 1 14.6965 17.7386 23.5217 -2.98498 -2.25218 3.27034
2138 1 18.717 24.881 -14.783 2.87808 -0.164658 -3.75961
2139 1 -10.0092 5.47941 -19.2481 2.53809 -3.42708 -0.0504311
2140 1 10.4795 -15.7295 17.6185 1.83616 -1.27537 -0.0634838
2141 1 -22.664 -24.0465 1.74412 0.915011 4.03648 0.0981179
2142 1 -15.4949 -9.75611 16.1127 3.44387 2.49053 -5.26092
2143 1 19.297 5.82362 -16.2436 3.7904 -0.538116 3.10073
2144 1 5.53602 -1.38095 3.11648 1.5066 -3.37222 5.31854
2145 1 23.6764 12.1701 22.3866 3.64482 1.70771 0.0967063
2146 1 2.67312 9.63602 20.8199 2.32404 4.20379 -5.81667
2147 1 2.62369 4.71107 16.1231 0.773692 3.03136 -0.246865
2148 1 12.7158 46.3493 18.7661 4.22212 5.06219 -3.62018
2149 1 20.4641 -5.27074 -6.09253 -4.35022 4.88158 -1.74306
2150 1 17.2122 -7.76781 -0.116274 6.65185 0.44425 4.77922
2151 1 8.31336 4.42482 -10.4244 -5.6655 -3.6343 1.81092
2152 1 8.37218 21.897 -4.47379 -0.614454 0.485878 6.24089
2153 1 -7.9698 -10.5429 -0.599222 -4.65064 4.80758 -6.60555
2154 1 -11.6012 19.5644 -21.6427 3.45448 -0.537796 -0.488583
2155 1 15.4432 5.87727 21.8052 -2.61502 -0.878254 -0.894381
2156 1 -20.5305 18.0783 -6.6427 -0.65928 -0.853817 -0.385654
2157 1 -2.34481 16.7826 21.0154 -1.4952 -1.37823 -2.9021
2158 1 -17.0731 13.2623 14.7744 0.156342 2.26597 0.896479
2159 1 2.48397 -20.8088 11.6897 3.53839 -2.86243 -0.446883
2160 1 -20.8631 -1.9591 20.616 1.83356 -1.35072 1.46242
2161 1 0.133197 10.6447 -5.44299 4.59496 5.18852 -3.02636
2162 1 20.4101 11.7183 -3.0259 3.78063 -3.11708 -4.60377
2163 1 5.92695 -5.34008 13.6499 -3.63418 2.80911 4.11319
2164 1 18.4502 -0.218049 -10.6366 -1.09593 5.88815 -2.2787
2165 1 18.6223 20.8599 -15.9419 -2.12112 -1.47764 7.8998
2166 1 -15.205 19.0447 -14.7986 6.32697 3.09052 0.448618
2167 1 -14.7193 -10.1169 -15.9544 0.710692 0.491031 -2.0821
2168 1 -18.9532 20.1144 3.95799 0.763063 2.59994 -4.83429
2169 1 11.6432 -6.45521 -20.1344 0.282622 -0.620556 0.627847
2170 1 -7.43186 -15.6907 -0.931451 -1.88707 3.93672 -1.34896
2171 1 -2.59456 2.47337 2.80173 -5.41406 -1.26772 -0.0541672
2172 1 1.40796 20.1222 -4.75955 -0.761477 -1.71424 2.64105
2173 1 21.052 1.60788 -15.7525 1.43834 -0.0801348 -1.11489
2174 1 4.20093 10.3135 -3.58917 0.516839 -6.82651 -0.192356
2175 1 11.5419 -23.9779 11.566 -2.15652 -4.39106 0.302638
2176 1 10.3878 -18.7706 14.7973 -0.522857 2.09617 1.96265
2177 1 19.1376 16.373 17.4271 -2.54989 -0.674649 -1.99566
2178 1 16.8429 -17.9248 -6.7036 -3.52284 1.88935 0.623904
2179 1 10.5442 -3.93971 6.20644 -2.63758 1.88848 1.28245
2180 1 9.31578 -6.23032 -11.9397 -1.59944 -1.44737 -1.97333
2181 1 -15.7371 -22.703 19.7856 5.44692 0.0445059 -1.59416
2182 1 -3.37985 3.01189 10.0663 2.93896 1.66886 -6.32779
2183 1 5.24127 -3.89962 9.91492 2.70805 1.04031 2.05174
2184 1 14.4156 16.8949 -20.5517 -3.30125 -6.62094 5.82645
2185 1 8.13064 7.89785 19.5619 4.36039 -2.53496 -4.27169
2186 1 3.44294 -9.35974 -16.0738 -4.50018 -0.801361 -1.20395
2187 1 14.7359 -4.26328 9.89871 3.46147 -3.9497 3.45071
2188 1 -11.5765 3.69437 8.44113 -2.6397 -3.92143 0.32225
2189 1 3.12488 17.6149 -10.0845 -2.67892 -0.919479 2.74495
2190 1 -1.73963 3.82733 -11.3534 -1.61039 -8.29771 -1.56482
2191 1 11.8912 9.83561 5.17231 1.35341 -5.40881 5.35501
2192 1 -1.32242 2.68867 -23.231 -2.30221 1.5611 0.424738
2193 1 14.3705 -15.1177 -16.5394 0.434383 -0.911754 -0.44484
2194 1 -20.0712 3.98774 22.3636 -1.13961 3.03429 2.96335
2195 1 -12.0111 -17.0786 -9.76423 -3.07776 -0.246833 -1.70967
2196 1 -4.77763 6.63136 -11.2718 -2.55681 -1.43155 -2.76789
2197 1 15.2533 24.2257 18.4033 -0.325416 -2.51878 1.37877
2198 1 3.66876 13.035 -2.43194 -0.835995 3.23277 -1.54037
2199 1 -18.0301 10.771 0.468246 -5.21619 -4.04078 -0.631621
2200 1 -3.4725 -22.3604 1.34499 -3.10492 -0.367045 -0.35959
2201 1 17.9481 -12.1747 -22.2013 -0.266338 5.98168 -0.99777
2202 1 18.7233 -20.2108 -17.1969 -2.13043 0.642982 -1.77971
2203 1 8.83161 1.83962 -2.72133 -2.58919 -3.33753 2.24514
2204 1 5.70522 5.01828 -2.12223 7.56545 7.24975 1.5922
2205 1 -22.457 8.36029 -15.8643 2.78562 -1.70843 -0.979183
2206 1 -2.70993 -7.56767 -14.9211 -2.99784 -0.215061 -5.61268
2207 1 23.2139 -5.07395 -1.70753 0.380167 -0.667462 3.49047
2208 1 16.9656 21.4325 -5.55843 -6.12233 -2.82756 -1.89304
2209 1 -24.1096 24.2197 22.2096 1.3534 1.40446 -6.67395
2210 1 20.5627 -18.8958 1.08201 4.52554 3.11298 -1.17144
2211 1 -18.8185 6.47034 -20.5082 3.55178 4.70707 -1.40032
2212 1 -17.7374 -4.0786 -5.27178 -1.88468 0.173873 -0.760853
2213 1 18.173 8.91856 -5.11064 1.45082 0.664702 4.42738
2214 1 10.3063 9.57461 20.5959 3.56812 -0.612052 -1.86637
2215 1 9.96849 18.7728 -2.08142 -0.351546 1.6909 -2.57827
2216 1 2.34072 -2.37739 -12.7417 -3.9056 -1.78566 -2.06695
2217 1 12.4536 -13.6005 20.3709 -2.33518 4.24554 -1.75178
2218 1 -15.8997 -5.26391 20.7606 -2.12959 0.106373 -4.12379
2219 1 -9.63739 46.543 16.4031 -2.76677 5.66158 5.90254
2220 1 1.52769 15.1177 -11.0526 4.97359 3.17688 1.2647
2221 1 18.2854 4.23022 16.7031 1.95678 3.77654 3.18597
2222 1 1.43288 9.20658 4.9336 -0.878889 -0.103397 -1.56556
2223 1 -22.2155 12.3676 -20.976 3.23545 1.92262 1.76124
2224 1 -15.2547 13.9132 -3.99133 -1.60311 2.35507 -1.66938
2225 1 1.29913 -17.7071 -23.5642 6.65739 2.49924 -2.07727
2226 1 18.4436 -0.0919396 15.51 -0.152666 1.46244 -0.53223
2227 1 9.59896 4.00095 -6.35887 1.39974 -4.01944 1.75918
2228 1 -7.80964 -5.744 23.5451 1.71014 2.76006 1.12368
2229 1 16.171 6.67656 16.9015 -5.32913 -0.268223 -1.70919
2230 1 1.04083 22.8393 -4.97491 -2.65362 2.43219 0.531457
2231 1 -12.5089 22.638 8.84392 2.22561 -1.46432 1.25032
2232 1 -21.3051 24.4484 -15.6306 0.4992 0.909549 1.21284
2233 1 -11.6028 2.97284 -18.9168 -0.434731 2.32122 -2.45433
2234 1 -5.32671 -0.36146 -0.27675 3.93398 2.09756 -1.25799
2235 1 9.34358 -21.8777 10.94 -1.27292 0.805398 -1.47338
2236 1 21.3609 3.47142 -19.5517 3.19155 0.349769 0.0796277
2237 1 0.245221 -21.9916 -21.009 3.58509 -1.64875 0.690599
2238 1 16.3739 13.8425 -15.0667 1.69155 2.65822 -2.33902
2239 1 -13.6695 -10.5619 23.0044 2.17356 2.26322 -2.7238
2240 1 15.3103 17.7166 15.4946 1.29993 0.355042 -1.91104
2241 1 -22.2066 -2.62606 -16.4208 2.41698 -2.14769 0.407769
2242 1 -13.163 -14.2308 23.9246 -0.414107 0.547295 2.18178
2243 1 10.099 23.0904 -10.5778 -0.92665 -3.95654 -1.97092
2244 1 -24.1966 23.6361 -12.0749 -0.576113 0.724359 4.91011
2245 1 21.4843 -18.3627 10.5824 0.419413 4.33517 -1.24898
2246 1 1.42656 20.1212 -14.9247 0.861877 -1.64267 2.78357
2247 1 -23.7 -13.2604 10.9995 0.951615 -3.04323 1.15077
2248 1 -4.03209 -5.24762 -12.1047 1.66624 -1.47321 -0.235392
2249 1 -15.3025 12.4081 -16.8747 -0.425977 -7.67707 3.45056
2250 1 1.45672 -0.754174 7.23897 3.02287 0.221987 3.44443
2251 1 -11.3601 -6.55755 -13.306 5.54629 1.92184 4.55422
2252 1 23.3211 -13.3853 -1.40924 4.02113 -2.94093 -1.29488
2253 1 2.8812 -15.869 -5.65501 2.01731 2.37386 -5.58307
2254 1 5.1207 18.4085 13.6541 4.70733 1.96008 -1.09355
2255 1 2.43592 -2.59615 -18.2782 -1.86766 2.11812 2.93912
2256 1 13.5942 20.9587 -22.5547 -7.55905 -4.13714 2.51363
2257 1 -1.11579 4.04925 -7.93578 0.918829 -3.43179 -1.01679
2258 1 -11.2714 16.6543 -21.207 3.94058 2.45544 -1.23324
2259 1 -20.3453 -10.5053 22.8448 -0.508274 -4.44144 5.02572
2260 1 21.8295 17.3554 -16.1564 -0.980662 0.34712 -0.11872
2261 1 14.6408 -7.19195 -10.0265 -6.10411 -5.77675 1.53813
2262 1 18.058 -22.9439 -1.30283 3.36885 1.68662 1.21226
2263 1 0.183861 -15.2515 -4.44053 -1.91051 -0.975867 -3.64997
2264 1 -5.12145 19.2286 4.12737 1.40618 -2.78701 -0.65749
2265 1 -0.557487 2.31796 20.6184 0.865303 0.908449 -3.0221
2266 1 -23.6514 8.48263 10.9497 -1.48323 1.98701 -2.86313
2267 1 -10.3978 -15.6077 -1.18555 -2.07805 -5.67843 -0.274397
2268 1 14.3013 -1.18206 -5.34785 1.26572 -0.768385 0.953688
2269 1 15.3402 8.04355 -23.2889 -1.04185 -0.44813 6.78137
2270 1 -8.6483 19.1264 1.53682 0.355596 1.4024 2.16399
2271 1 20.6983 -17.6318 -8.56389 -0.607609 3.94043 4.32354
2272 1 0.19349 13.2992 13.954 -0.802314 1.40132 -6.87309
2273 1 -20.9741 -19.9349 15.9787 -0.358953 1.15466 2.75055
2274 1 -6.51566 -1.35941 17.2813 0.824863 -1.47417 -0.281575
2275 1 -11.8648 24.9217 -13.473 -0.929656 0.284712 0.456541
2276 1 -2.31706 10.2373 2.58215 -4.61152 2.28191 6.72915
2277 1 -12.7295 5.59849 16.5237 0.330392 3.59953 -0.53534
2278 1 -13.4703 -12.9203 -3.15003 5.39959 -7.81962 0.881385
2279 1 -12.2852 0.746664 7.94775 -2.25199 0.959713 -0.159733
2280 1 10.5286 -11.7153 -4.57599 4.20055 1.55581 -2.06498
2281 1 19.6166 12.2915 21.8847 0.529909 -2.26974 2.14168
2282 1 -7.25294 23.9325 7.37212 -2.51907 -1.11334 2.77327
2283 1 21.7964 -11.33 7.32505 -0.824935 -2.29033 -1.28023
2284 1 -20.1325 24.8594 -22.8277 -2.21428 7.49486 -2.02909
2285 1 -22.5378 17.6712 1.14144 -0.33472 2.66311 -0.0298642
2286 1 3.99913 -10.7004 5.44654 -1.27078 -0.930774 -3.74927
2287 1 21.2214 16.9728 15.5563 -2.69309 -0.700988 -2.5554
2288 1 -23.1919 -8.61617 -6.06658 1.60657 2.61821 -4.61718
2289 1 -2.3244 15.1428 -21.8447 0.850087 -0.0266931 -1.91004
2290 1 14.9244 -7.39178 22.528 -2.68632 1.42155 -0.802166
2291 1 0.830435 20.3709 19.8067 -2.36088 -1.44671 -0.324999
2292 1 -14.5069 -10.7028 -1.62119 -4.14285 -0.659164 4.25657
2293 1 1.59184 7.33167 12.4589 -3.05145 4.16448 -0.750143
2294 1 -19.8592 8.73164 -17.1918 -3.90135 3.03438 -4.75198
2295 1 -13.7138 13.2112 20.7646 1.51418 1.75113 2.02946
2296 1 -20.7269 -9.76291 -15.6332 -0.121532 1.99931 4.25127
2297 1 9.13747 7.19166 -21.3644 2.09878 -3.86483 3.46742
2298 1 -1.7923 -20.7136 -6.07282 -1.93913 -2.49527 0.442037
2299 1 8.04662 -10.8373 -4.15912 0.525116 -0.183667 -0.933328
2300 1 6.81695 13.4291 3.69555 1.34736 -0.939236 5.00257
2301 1 5.96169 -23.759 21.36 4.51881 -2.00777 2.25751
2302 1 15.217 11.243 -16.2204 -4.11068 4.60792 4.79826
2303 1 -11.9348 18.0283 -12.4366 7.41313 -0.079487 -2.53549
2304 1 6.50067 18.0552 10.9516 1.87001 1.55276 -2.44268
2305 1 -15.3031 16.9713 15.9259 -1.5473 1.14095 2.34166
2306 1 2.86594 -3.23079 19.4662 -2.8809 -3.01264 -2.30754
2307 1 -17.754 13.0917 23.2802 2.29068 3.14244 5.42654
2308 1 7.23638 1.55691 -16.9765 -1.87819 0.0997794 0.759343
2309 1 19.3982 17.9879 22.7225 -0.912244 1.61799 3.15382
2310 1 6.6436 -16.5686 8.3638 -0.941202 -1.37218 1.94273
2311 1 6.35906 1.5192 2.43068 -1.99642 -1.90541 2.21856
2312 1 -20.4252 -23.8034 8.06486 2.12573 -3.21603 -1.62309
2313 1 -6.32045 15.1419 -19.7329 0.862282 -5.31482 -0.944156
2314 1 -17.3318 5.3283 8.75808 0.778723 2.06533 0.107252
2315 1 -11.8869 11.0539 15.5941 2.08718 -0.897207 2.59836
2316 1 -17.3051 -11.5371 3.11585 2.73947 1.69307 1.3162
2317 1 -4.43288 -12.6985 -10.5183 -2.68195 -0.419684 -0.545488
2318 1 20.473 -8.14245 -6.04766 1.29636 2.30286 -3.94949
2319 1 5.89492 -10.3242 9.08733 -5.27142 -0.705964 2.42015
2320 1 -24.0758 2.57989 -19.2088 -0.572936 -0.421391 -0.570623
2321 1 -1.48769 25.0161 23.8214 -2.11533 1.47979 -4.86368
2322 1 -4.12619 21.3587 20.7211 5.50022 -0.429115 1.81515
2323 1 8.24437 -4.1211 -2.95999 6.44107 -5.89582 0.878579
2324 1 9.6436 -18.8559 -17.876 3.98064 -1.14839 2.519
2325 1 15.7014 -23.9627 -17.3888 3.21791 7.10531 1.55453
2326 1 20.2954 -9.05777 -13.259 1.04007 -1.04938 -1.05512
2327 1 11.2725 1.26711 -16.4096 0.99258 2.49194 1.10645
2328 1 -9.51193 -10.1661 -3.18695 -0.997794 -7.49153 -4.26192
2329 1 6.46906 6.71261 13.095 -0.668661 4.52383 -0.380959
2330 1 14.1222 46.0727 16.3576 -0.688078 2.60494 5.12563
2331 1 -17.8816 -17.194 13.0555 1.41831 -10.0918 0.598379
2332 1 18.8787 -17.4932 10.9086 1.66424 -0.531176 5.46967
2333 1 13.4294 -19.2678 -15.753 3.11922 -1.71915 1.03861
2334 1 -13.2489 20.7199 15.3462 -0.653375 -0.460075 0.548195
2335 1 -4.90841 19.3554 23.7926 -5.4458 -4.60903 -1.32017
2336 1 16.2472 -10.5868 -18.2253 2.69867 1.32261 -0.906011
2337 1 9.33861 7.68564 0.957809 3.84952 -1.3436 -3.34245
2338 1 3.16988 -3.31344 22.2647 -0.326752 0.80687 2.93319
2339 1 11.4286 10.7147 -3.6763 5.17383 -0.182587 0.7095
2340 1 6.95068 6.9866 16.0141 -3.38441 -0.478657 -1.43168
2341 1 7.4945 -20.2697 -22.657 3.13083 0.725329 2.62561
2342 1 10.6985 -12.9764 0.124312 1.89938 -5.52922 1.27402
2343 1 8.99426 21.839 2.48027 1.72302 -7.16989 -7.16323
2344 1 12.7445 24.4093 4.5201 -2.67836 1.29399 -1.20182
2345 1 6.02146 13.7377 -13.4923 -2.58613 -0.206164 -1.81141
2346 1 -4.54938 -20.3308 8.96005 1.76006 1.05107 -0.765355
2347 1 -14.1277 10.5373 -15.2739 -0.235815 2.75925 -2.21084
2348 1 9.26682 -2.12659 2.80817 -0.120498 1.57148 -2.31406
2349 1 -9.48973 22.7254 16.7029 -6.21191 1.49254 1.76752
2350 1 15.5704 5.78064 -9.05083 0.0276364 0.382946 -3.12237
2351 1 17.1545 10.4679 -13.946 -4.85139 0.762677 2.55994
2352 1 -0.239959 21.1112 -21.6579 -4.26466 1.28888 -3.63535
2353 1 13.151 -1.98529 6.20954 -2.84118 1.84023 2.93031
2354 1 18.3518 -19.1762 -21.6044 0.982885 -4.98065 2.55537
2355 1 -6.83872 3.17732 0.889349 2.62899 -1.1917 1.04649
2356 1 16.262 -22.5304 -9.72068 1.73064 -0.415376 4.48401
2357 1 0.136698 -1.6189 -2.15476 3.23664 2.88493 2.39717
2358 1 2.72226 -11.2621 -12.4595 -0.568351 -2.35138 -1.43469
2359 1 9.71542 9.7704 8.79825 -0.449516 -0.439131 3.55133
2360 1 12.3225 15.8141 2.6977 1.90741 0.280801 8.74394
2361 1 -22.0953 8.40178 -13.0374 -5.11992 -0.00891012 0.1764
2362 1 -23.1501 10.9396 12.6003 1.20349 -1.5979 4.78974
2363 1 17.6256 -9.83731 -2.5783 -0.0471134 1.26376 -1.61419
2364 1 5.60232 2.23251 -1.18661 2.87996 1.52149 1.72174
2365 1 -24.0279 -9.3578 -3.55975 0.773264 0.352524 -0.801272
2366 1 12.4239 5.35942 1.5674 0.903847 1.60254 -4.2581
2367 1 3.60633 20.9019 12.9476 5.70109 -4.32943 1.89476
2368 1 -6.43384 -18.9146 -7.38191 -1.39388 -4.04444 9.97737
2369 1 16.1977 2.68062 16.5409 -3.07348 1.3184 -3.38008
2370 1 -20.3549 -8.70613 -5.7389 1.59342 4.84133 0.777211
2371 1 16.3336 -19.3375 0.0908894 2.71937 1.94498 -2.67217
2372 1 21.3598 5.92624 -1.202 -4.57762 -1.50359 -4.32204
2373 1 9.99139 11.6143 15.7698 0.630814 0.89559 -3.10065
2374 1 -5.44236 6.85192 -1.86927 2.89589 -1.06601 -4.55477
2375 1 10.4765 23.9919 14.2834 2.62331 -7.93211 -1.30536
2376 1 -13.7815 1.29142 23.4314 3.84807 2.09866 1.60996
2377 1 -2.49806 -11.1596 -8.66427 -6.39432 0.670654 -0.298188
2378 1 4.55794 -0.971935 18.8021 -2.11139 -2.58887 1.96813
2379 1 -23.8532 13.99 8.10376 -2.42239 4.7192 1.91074
2380 1 10.4093 -14.7681 22.4575 -0.268716 7.34451 -3.41013
2381 1 14.4345 -12.4204 -3.33259 1.35323 -1.30367 -2.43675
2382 1 -16.8414 17.3414 -16.482 0.293389 2.22272 5.19549
2383 1 23.4374 -19.4136 7.6987 -1.76115 0.606957 -0.992848
2384 1 8.0557 -13.6516 23.6884 1.39319 -4.41293 -3.50036
2385 1 -1.38841 7.80733 -2.68522 -1.48189 0.673723 0.146693
2386 1 1.56143 -4.22214 5.47525 5.88209 3.31082 5.92607
2387 1 -14.1059 -7.61564 10.9777 -7.15263 3.99482 -0.336764
2388 1 9.80669 25.5439 21.5475 -1.73687 -5.24515 3.59395
2389 1 5.95321 -8.32071 12.8731 4.08298 0.0846967 5.91769
2390 1 -19.5111 -6.93489 -7.80552 -0.641637 0.0291169 1.81703
2391 1 -7.04392 -3.09576 6.87731 -1.17193 -1.67283 2.96979
2392 1 7.08956 -21.2754 -10.5616 1.59389 3.14215 -1.38882
2393 1 4.85567 -16.818 21.6856 1.72334 -2.79143 1.421
2394 1 15.7493 15.2426 -5.04934 0.724115 1.76567 -0.378404
2395 1 4.1981 18.7258 18.0557 -2.06942 -2.98013 -2.66368
2396 1 -15.838 -20.2019 -0.193822 -1.11094 0.54896 -4.82809
2397 1 -17.1108 -7.7684 19.5412 -3.02307 2.90396 -2.52253
2398 1 -8.68878 -2.31708 12.5574 -6.39144 1.68101 -3.81484
2399 1 -11.9567 -10.6172 9.98676 3.81877 -4.2251 -1.98083
2400 1 13.2426 -7.73954 15.6195 -1.63596 -2.21384 2.42746
2401 1 -17.8462 21.1948 -3.75122 0.192489 -1.99015 1.08392
2402 1 14.4893 13.4174 -18.878 2.53265 -2.70662 -1.23805
2403 1 -10.6943 -1.23905 23.2391 2.04796 -2.48219 5.13701
2404 1 -21.7304 -6.38885 -22.1251 -4.41929 -3.0285 -3.98718
2405 1 -4.90608 -9.67788 -20.1438 6.05116 -1.48684 2.73085
2406 1 22.7901 6.97793 -10.0416 -4.552 -2.99727 -1.67181
2407 1 -15.1953 -14.0661 12.8699 -3.77045 -5.85989 4.12251
2408 1 -20.5514 -4.69703 -12.5644 -0.708761 -2.25165 4.3852
2409 1 7.39052 9.59313 13.5098 2.8637 -5.58878 -0.674645
2410 1 6.97338 46.7542 23.8197 2.57416 -1.58386 -4.5264
2411 1 7.22288 11.0009 -20.0527 1.61051 1.06982 -2.79435
2412 1 9.55421 18.5519 18.2328 -0.564956 -0.699458 -4.35753
2413 1 -6.81007 22.2845 5.14912 8.10135 0.472362 0.518355
2414 1 11.3637 -6.95799 -8.85524 -1.17423 -1.7619 -2.53069
2415 1 22.6855 -22.0815 23.4335 -0.478607 2.66841 0.830702
2416 1 5.49539 12.9365 6.50849 0.0681945 1.50167 3.297
2417 1 -3.05405 -6.04169 1.42848 -1.36132 0.541537 2.90964
2418 1 14.1608 0.87895 -7.40597 2.13053 3.71206 -3.58753
2419 1 21.6194 5.90145 -18.1342 0.182919 3.2472 -7.65098
2420 1 -2.36011 -8.14799 -9.22603 -2.66568 0.226206 2.867
2421 1 -22.2017 16.3936 -8.40945 -0.141568 -2.73515 -1.67026
2422 1 -14.9436 3.55176 15.5224 -0.213349 2.19841 -0.121432
2423 1 12.2229 20.0694 7.95218 0.49801 -0.266568 -4.18536
2424 1 22.7216 15.1075 5.80983 -2.25852 1.12665 -2.88918
2425 1 -15.2684 11.8702 -23.8723 4.39359 -1.00907 1.26728
2426 1 0.0680535 15.358 21.7251 -0.960258 -2.2249 -3.67117
2427 1 15.1287 1.41037 5.58656 3.36795 2.14113 0.073183
2428 1 14.0741 -17.247 14.1296 -1.51971 -0.83119 -3.85337
2429 1 -8.32993 -6.67997 -14.9556 -2.94187 1.72274 1.63986
2430 1 -12.8924 -8.70299 15.4373 -2.4126 2.2342 2.31942
2431 1 -19.2021 16.6903 -9.12123 -2.72663 -2.15325 -0.00257889
2432 1 17.1744 14.3557 -17.825 -3.19661 -1.6285 -4.58035
2433 1 21.2498 -23.9855 19.1559 3.25089 0.139593 -3.87196
2434 1 1.64458 -21.8926 -0.50436 -0.753191 1.77031 6.52567
2435 1 -13.5539 23.095 11.3687 -3.19252 1.00764 -2.08439
2436 1 -6.92223 10.0604 18.2916 5.28512 2.29174 2.17937
2437 1 -10.6172 -7.22843 8.44673 -1.57957 -3.34787 1.47068
2438 1 -2.47082 47.1679 -23.1507 -1.81246 0.46533 3.35572
2439 1 -14.4233 18.5538 11.223 -6.12642 -3.02187 0.520428
2440 1 6.51442 -2.35451 -16.7213 -1.51457 1.95556 0.208923
2441 1 -23.6957 13.2184 19.5525 2.16911 -1.45736 -3.00846
2442 1 -1.93798 -9.67601 -20.4304 1.87564 3.00819 -5.88854
2443 1 9.1114 10.9366 -22.6486 1.99326 1.38957 -2.37111
2444 1 10.3195 22.8727 18.0735 3.67478 -3.88436 1.9498
2445 1 2.08024 4.91672 20.2801 1.29419 -2.03192 0.11568
2446 1 -2.36714 -5.67909 15.2145 -5.82947 -2.64226 3.6415
2447 1 -0.723329 -12.842 18.0912 -4.75845 1.3837 -0.41807
2448 1 1.11691 -13.3771 -8.5632 -1.48547 -1.94999 2.08994
2449 1 19.4204 -22.3428 12.9015 -0.442532 4.43978 -0.841925
2450 1 5.98927 11.1849 21.6154 1.67764 5.95565 1.52077
2451 1 7.22497 -20.5799 4.10598 7.97245 -1.47961 -2.51442
2452 1 13.7863 16.6 -13.2276 6.53554 -2.78479 1.64146
2453 1 -3.58706 10.2671 10.7138 1.72898 -2.29557 -1.29959
2454 1 -4.2871 10.1727 -16.022 -4.32028 2.50926 -2.14624
2455 1 10.8363 8.3012 13.5498 -2.76852 1.93512 -4.33831
2456 1 17.9359 19.5624 20.7627 -5.41036 -2.10504 4.10983
2457 1 -4.75827 4.96838 11.8864 -0.964444 3.67743 1.92878
2458 1 -20.2595 22.5091 -3.78096 -0.11496 -1.54588 5.09858
2459 1 -17.0309 14.9847 -8.29432 -0.71449 3.66191 -0.63404
2460 1 9.48042 11.8067 -13.7648 1.37876 -1.70918 -0.730577
2461 1 -20.4194 16.7101 -2.43368 7.28737 1.02841 -1.73067
2462 1 -13.0218 25.1328 3.57046 -0.513878 -4.87643 -2.4867
2463 1 -14.0315 -20.4822 19.8047 4.9958 1.354 -5.33899
2464 1 8.97573 19.8551 -13.5583 1.54479 3.90575 -0.699318
2465 1 -8.81892 -14.7047 -12.4802 0.103817 3.28316 4.15179
2466 1 1.5384 5.0113 -1.34086 1.02906 -1.75063 1.16005
2467 1 -0.225238 -17.2659 11.6664 -3.00243 -0.886689 3.98071
2468 1 -18.4844 46.6828 -5.86687 3.78122 -0.609419 -1.54879
2469 1 12.2467 46.9078 -22.7663 0.22161 2.29418 5.06995
2470 1 12.2189 -19.176 -7.66533 1.12943 6.34778 5.44118
2471 1 -0.0335679 25.9136 -21.9656 -2.56643 -0.00510416 0.783268
2472 1 -18.0739 -0.185826 16.5855 0.0467539 1.35223 -0.664143
2473 1 15.1812 8.64313 -8.86487 2.05335 3.54333 -1.97643
2474 1 -6.99959 -8.34534 -18.7291 3.27858 1.15713 2.07056
2475 1 -17.0518 10.3322 9.47907 -6.79238 -2.79874 1.98971
2476 1 -7.61954 -19.1165 -19.421 -3.15156 -2.01205 -3.12194
2477 1 8.63936 11.2343 -0.108347 -1.45149 -3.63663 -1.03499
2478 1 -2.89885 -21.7652 -1.33836 -3.81173 4.46579 0.880057
2479 1 -21.8778 -4.65565 2.28336 -0.15447 3.81693 0.989293
2480 1 0.589247 18.7001 -7.13212 1.67203 0.0601405 0.568981
2481 1 -14.2932 -8.09148 -8.7333 3.69387 -3.80069 -0.0528164
2482 1 9.34639 -1.95755 -1.00542 1.63167 -1.82566 -3.76906
2483 1 1.55886 8.37991 -10.7325 -2.65331 6.23782 -3.86952
2484 1 0.366399 -16.1108 -7.37434 0.669617 4.31385 -1.20324
2485 1 -0.310765 -17.8539 4.23197 -4.46963 2.92151 2.25444
2486 1 -3.84544 -18.6595 6.67576 -2.32996 5.37621 1.96256
2487 1 0.692142 22.1609 -1.48125 0.427539 -2.14424 -1.29381
2488 1 -10.5643 20.2304 20.3756 -0.625509 1.86476 -1.60518
2489 1 7.06261 20.2743 -9.22634 -0.0511359 3.61876 -0.526177
2490 1 -13.3144 24.7967 18.1886 -1.21262 -1.55799 0.861201
2491 1 13.1714 -21.954 -2.68651 3.96577 -2.7503 -0.708935
2492 1 22.0643 12.1897 1.2615 2.68132 1.94069 2.39883
2493 1 20.293 22.7231 -19.2513 -1.26111 -9.71002 1.37936
2494 1 -15.171 -16.1431 -23.2745 1.40283 3.66393 -2.1521
2495 1 13.348 -10.6815 -10.8271 3.84643 2.57926 1.57334
2496 1 3.66292 2.79075 -19.9566 -0.975463 -2.27348 1.53798
2497 1 6.30725 8.17397 21.8768 1.31087 0.303954 -0.615377
2498 1 -5.09434 5.99798 3.88313 1.42012 0.753961 0.388659
2499 1 -23.145 -15.057 9.08678 6.20321 -2.67708 2.73773
2500 1 8.67077 22.6089 9.13552 0.880599 -0.00135602 -1.59523
2501 1 2.75641 14.4843 4.14596 2.2149 -2.91887 -4.47212
2502 1 -6.71668 -11.9297 9.4747 0.74428 -0.397948 -2.56483
2503 1 14.6583 15.9626 -2.49341 -2.85774 1.50924 -1.5827
2504 1 8.6807 12.4561 9.05982 -2.07611 0.201939 0.347182
2505 1 -12.3929 19.3919 23.5982 -0.663514 -4.22797 1.56687
2506 1 -23.3867 10.8486 -11.8539 1.15902 -3.58205 1.87895
2507 1 9.14402 -0.887436 -17.1094 -2.48975 3.51338 0.846261
2508 1 13.3104 24.104 -6.08236 0.395786 3.12245 -0.386489
2509 1 0.228196 -8.69031 2.00829 2.03895 -0.198429 -3.97499
2510 1 -23.5907 2.72145 -2.85631 -3.00037 -0.593473 -3.03434
2511 1 3.85703 7.07789 20.2294 1.84017 6.01744 1.86295
2512 1 -11.3564 10.6118 12.6478 -2.73407 -1.5825 -0.0667936
2513 1 21.6646 4.64793 6.20227 -0.810011 -3.40741 3.46928
2514 1 20.1405 11.9733 -23.5501 4.86259 0.0532055 -3.03958
2515 1 2.9396 -21.6962 3.71943 -4.55864 -2.35504 4.16419
2516 1 4.51397 9.96449 -19.9002 1.216 3.02076 0.223193
2517 1 -11.9694 -13.8248 15.8352 1.33303 -0.60699 -4.4883
2518 1 -1.00018 -5.36225 -0.515242 5.93043 -0.824863 -1.53593
2519 1 -22.9935 21.3443 14.1486 3.57319 -3.41753 -5.84191
2520 1 -24.2206 -0.389142 -5.69055 0.10536 0.39051 2.09874
2521 1 10.2427 7.14503 17.1875 -2.29036 1.26964 5.16984
2522 1 -3.54866 8.48142 -0.518549 -4.81215 4.90588 2.20986
2523 1 -17.1567 46.8617 -20.408 -4.69727 1.27457 0.742175
2524 1 12.1519 23.6746 -19.8216 4.95336 2.08576 -2.34105
2525 1 -14.1761 -13.4295 -7.31741 0.302551 0.703565 1.4702
2526 1 -10.2997 -2.00748 -16.9284 -0.665219 -3.57671 -0.398139
2527 1 5.1778 5.67662 8.74481 2.25149 -0.26788 -0.540377
2528 1 -9.15576 12.9025 10.2496 -2.70467 0.99881 -4.42746
2529 1 -19.9573 -7.60794 -3.15268 -0.63729 -2.50757 -4.80658
2530 1 4.2898 -14.6272 -16.4434 -3.9793 -1.49003 -0.394554
2531 1 -17.7156 -9.50904 -15.0469 0.399351 0.138834 -2.37931
2532 1 -13.5166 -16.5169 0.77951 -0.807577 3.99162 1.20023
2533 1 -14.2496 23.0434 -0.815017 -1.13662 -3.70966 3.31259
2534 1 -18.8491 -10.0912 -2.7139 -3.94519 -8.07564 -5.61572
2535 1 16.3666 -4.89633 14.872 -2.67108 -7.53981 -2.20789
2536 1 -23.7204 -19.5123 23.0467 -4.30837 6.60727 0.608037
2537 1 -0.751674 -24.0073 13.7425 5.73324 3.5507 6.16989
2538 1 -6.90447 7.0703 -22.5065 -1.31635 -0.785737 -4.58032
2539 1 13.6839 -11.3129 16.4192 1.14535 0.336347 -3.37167
2540 1 22.9689 -8.40183 17.174 0.916374 -1.89058 -0.50089
2541 1 3.96239 7.37789 16.8043 -4.50403 1.66971 3.64368
2542 1 -12.0117 -7.08691 -21.5303 -0.628934 1.63368 -0.295165
2543 1 -15.7323 -5.65234 -6.48716 0.255365 1.15625 -0.693795
2544 1 12.0288 2.66477 8.202 -3.23606 2.59133 1.20497
2545 1 -12.6941 12.8581 -20.6257 1.44394 -2.55609 -1.65809
2546 1 -13.1648 0.00551405 12.0626 -2.03688 3.29059 1.42618
2547 1 -13.1467 -3.29219 5.88272 -1.77783 -3.303 3.83341
2548 1 17.7218 -8.61174 -8.63733 -0.0718447 2.88323 -1.60586
2549 1 8.33457 12.4717 -17.8389 -0.114053 1.58864 -0.607035
2550 1 -19.0319 -17.5866 -18.2123 -2.63787 -0.645882 1.52013
2551 1 -6.71123 14.2833 -16.292 1.21826 0.656576 -1.03382
2552 1 -0.956973 -14.4912 8.94258 2.11522 -1.70583 4.18408
2553 1 1.62464 25.9727 16.4678 -0.493464 1.66719 3.13066
2554 1 20.1186 24.7981 -6.3392 -4.12511 2.36203 -0.389207
2555 1 7.3854 15.8008 -7.15006 -1.20814 1.97866 -1.84436
2556 1 -9.8882 -15.1999 8.12124 5.90558 -3.0477 -1.34057
2557 1 18.3229 -22.6739 -13.7927 -2.85709 1.2073 -1.45862
2558 1 -19.7232 9.0668 -21.365 -1.26349 -0.578683 4.86891
2559 1 -16.431 7.79887 4.75279 1.77441 -0.318 -2.11871
2560 1 20.8194 -20.4534 8.82664 6.36891 -0.914167 0.384771
2561 1 -9.0581 -3.74475 10.0294 -0.813206 -1.80239 0.76563
2562 1 -18.846 -4.54089 -9.38947 -7.10592 -1.70714 3.56096
2563 1 18.5429 -2.88795 -21.5306 2.10383 0.903752 4.25225
2564 1 -11.3709 -14.3499 -11.1538 2.52585 4.7785 5.51818
2565 1 13.2033 18.1298 13.7712 -0.985117 -1.19708 3.8461
2566 1 -23.6431 -11.6238 13.9402 -1.90315 2.17579 4.27951
2567 1 -15.006 2.08116 -17.8064 3.17168 -2.6726 0.83765
2568 1 19.2124 -10.3899 -18.9333 1.0306 1.24779 0.651906
2569 1 -23.8143 -16.6699 -14.0643 -4.54102 -2.10773 -2.32977
2570 1 -23.5851 17.0202 -15.4667 -4.05138 -2.35068 -4.06802
2571 1 12.6601 0.0368615 20.8656 -3.30111 -3.72947 1.30627
2572 1 -22.9696 -19.6346 -5.07831 -0.188505 1.36664 0.641947
2573 1 20.041 -24.0462 -4.26469 -2.50471 -1.50381 -3.86698
2574 1 -19.0753 -23.8248 -8.49002 -2.01826 -3.29478 2.48572
2575 1 1.02486 17.0638 3.42556 -1.45273 1.42038 -1.94371
2576 1 22.4337 21.5388 15.3807 -1.01494 0.512924 0.966155
2577 1 14.0357 21.3888 -4.94746 1.00995 -1.00046 0.602423
2578 1 -20.0488 -15.8221 -3.57425 -7.3389 -0.826483 0.850321
2579 1 -9.09565 8.85613 1.59697 1.87525 -0.961538 -2.17045
2580 1 23.6634 14.2531 -21.5095 3.02797 2.91413 0.556293
2581 1 -6.78491 16.6243 20.9906 -1.43816 1.08726 -0.64604
2582 1 12.8994 23.573 10.2379 1.3973 -0.246957 2.55511
2583 1 5.86463 21.3673 -0.309466 2.30715 -3.27685 1.21599
2584 1 -11.6665 -21.53 -11.401 -0.239871 -1.38822 -2.29107
2585 1 17.092 -15.2878 20.8954 -1.58902 -6.77817 -4.36284
2586 1 -15.8291 13.6965 12.2674 -0.908783 2.73325 3.4816
2587 1 15.9072 -14.3787 8.64199 5.07769 -3.59647 2.15568
2588 1 18.0655 0.743672 -16.05 5.75274 -0.72526 5.00498
2589 1 0.919596 -8.29509 6.47445 -4.21069 1.6021 1.8637
2590 1 15.0022 3.32046 -10.6814 -1.30785 1.77477 0.76161
2591 1 -0.892068 -23.6731 10.8678 0.339882 2.6583 -5.03562
2592 1 0.247502 -18.7771 7.12318 -0.331589 -3.81917 2.90009
2593 1 -23.7796 -7.04586 22.3299 -2.49278 -2.45823 -1.21524
2594 1 -22.6001 -7.45929 15.9209 6.06449 -3.99183 0.219087
2595 1 -1.50758 -17.9247 -19.9285 -0.579683 8.95912 -3.29657
2596 1 -15.4939 12.1966 -21.0656 1.99565 1.10144 0.988171
2597 1 -18.1237 -2.658 -17.2834 -1.46179 2.10794 3.68797
2598 1 16.3534 -0.446889 -3.42348 0.0906768 -0.32866 0.962173
2599 1 -5.635 1.19391 9.9839 -3.65019 -4.93264 -1.59115
2600 1 3.62926 23.4785 1.67745 -0.0234756 0.801381 -1.5464
2601 1 -1.16136 8.03532 4.2955 2.30091 -5.02216 -0.890352
2602 1 -2.00486 -13.1384 -4.16431 -4.45714 -0.9438 0.29902
2603 1 22.3934 18.1482 -6.12024 -0.748648 -2.75606 5.7233
2604 1 15.4707 -12.0746 -8.08733 -2.25615 -0.654458 -1.21646
2605 1 -18.5529 7.14466 -4.71652 1.75038 2.07349 0.952172
2606 1 15.7823 17.4877 20.4989 -2.72783 0.685576 -0.0232747
2607 1 13.2712 1.65645 -22.3373 -3.67694 1.85497 -3.36913
2608 1 12.6461 -19.752 -21.4845 0.920946 -0.0945693 0.637159
2609 1 -13.7794 -3.17598 -18.968 3.37248 -4.13409 -0.0761274
2610 1 2.61738 2.02673 -15.3687 -0.271333 -1.48653 -2.83025
2611 1 -21.2534 24.624 -20.0996 3.22723 -0.651858 1.0066
2612 1 -12.8557 -19.099 17.6837 3.40863 0.641539 0.982226
2613 1 23.0662 4.88647 15.5745 -2.02928 4.17005 -0.734128
2614 1 -12.8652 13.547 -17.8783 1.9416 -3.18974 -4.36846
2615 1 -2.93549 1.36674 15.7138 -2.65647 0.291085 -3.92722
2616 1 -22.7066 -2.53287 -9.4953 1.52843 0.266819 -1.1245
2617 1 -3.78994 12.9613 -16.3297 7.74145 4.54859 0.697202
2618 1 -7.36754 -17.2324 -12.6146 0.330234 2.29277 -4.01342
2619 1 -3.50011 11.4714 -20.9128 3.56166 2.41704 -1.60991
2620 1 -11.0829 13.9272 8.16456 1.11765 1.70684 0.972929
2621 1 4.21509 -23.8071 5.34258 -0.199395 2.34763 2.33008
2622 1 -3.91279 -15.349 23.7581 -1.92153 -0.975108 -0.449559
2623 1 -17.7228 19.7821 -19.0937 4.6108 -1.65346 -1.84
2624 1 -17.8474 18.7989 -5.53552 -8.03095 2.11127 -1.07962
2625 1 -6.51737 -4.25631 20.9716 4.38593 0.226738 4.31091
2626 1 -4.88812 3.18462 22.2363 1.97662 5.79079 -2.80441
2627 1 14.1188 21.9533 8.38441 -5.78771 1.00819 0.623083
2628 1 12.071 -9.55184 -20.5034 0.270552 1.65857 0.755636
2629 1 -22.2269 -3.24033 7.40587 -0.682478 -3.91697 2.61416
2630 1 -13.729 -9.88332 18.2399 -1.58284 -0.749883 -8.60546
2631 1 16.9265 14.9396 1.2593 -0.196259 5.07907 -0.747538
2632 1 18.3889 -1.92642 -16.9512 -0.688205 3.65436 1.95563
2633 1 -4.99754 -18.0054 -11.6695 -3.31974 -3.74908 6.75261
2634 1 -6.5345 11.8266 -23.5355 2.59009 -2.0792 3.88116
2635 1 2.70242 12.3788 21.7051 4.30815 0.102658 3.42675
2636 1 -12.4585 -21.6729 14.2389 1.31107 -2.86025 1.49728
2637 1 9.82599 -15.8408 -17.7416 -1.01269 0.958163 0.667225
2638 1 13.1651 4.46831 -4.88108 -0.90654 -1.20953 -0.286733
2639 1 -2.93816 -7.59288 20.3479 1.42008 5.6672 -3.46066
2640 1 6.07036 13.1823 -16.1453 -0.998886 0.775736 1.12764
2641 1 23.1958 7.41482 -14.227 -1.99424 -4.41503 -6.56226
2642 1 -5.60079 -19.0785 2.33748 -1.25238 -0.234284 3.19674
2643 1 -4.19116 -15.1893 -21.6089 -3.90106 1.12247 5.98933
2644 1 16.7159 -20.2479 -13.227 3.90642 -0.605896 1.56886
2645 1 5.31027 -22.1539 15.0714 -4.5273 -3.03657 3.58822
2646 1 -6.69034 10.1491 -3.09962 -4.13748 -1.87476 -0.772834
2647 1 -11.9564 6.0163 3.95975 -0.30005 -2.11388 -4.5392
2648 1 19.938 -0.535913 0.372321 -1.76014 -8.4279 1.66684
2649 1 -18.7016 20.5438 -10.1991 -4.10868 -3.09305 -2.08575
2650 1 -2.72688 7.43308 13.8054 -3.39325 -4.44805 -1.40127
2651 1 -14.8344 -20.1827 14.6207 3.42425 1.31076 -2.08973
2652 1 -16.9168 -5.61284 -13.187 1.26946 1.96882 0.238829
2653 1 -8.04106 8.27618 -1.27585 2.08717 -3.47204 3.22896
2654 1 21.2494 -9.33015 -3.46538 0.931313 1.89666 1.88656
2655 1 -6.87299 -8.84212 1.48486 -3.08612 -0.520094 0.606507
2656 1 -3.6136 9.47496 -18.7507 -3.22136 2.67689 7.57358
2657 1 -7.6317 -7.03849 6.07284 1.69014 3.63094 -1.64847
2658 1 -6.5692 4.4621 15.8476 1.62691 -1.12945 -1.95221
2659 1 15.5882 -5.43548 -23.4133 2.12322 -1.40238 -0.177642
2660 1 -12.9446 24.9102 13.609 1.87877 -2.04707 -1.09336
2661 1 7.34164 5.27192 22.3421 2.76481 0.821587 -5.82816
2662 1 -21.962 -24.0955 10.7301 -0.479876 0.241398 -6.1339
2663 1 -8.0119 9.08021 22.4462 0.118259 1.26305 -0.459926
2664 1 -16.6025 18.3164 -24.1955 -0.47119 1.01693 -3.62093
2665 1 -23.5664 3.90265 -0.10683 -0.621062 2.25181 -4.20666
2666 1 18.6334 -22.4331 1.49455 1.8165 -0.966218 2.60011
2667 1 -7.84779 -6.87686 -3.88782 1.56714 3.65684 0.782501
2668 1 -9.97297 -19.1548 -23.5131 0.54879 4.04179 3.31066
2669 1 -0.0510903 -8.16417 19.1848 1.9985 -2.30357 0.130507
2670 1 -24.2213 24.4991 -14.931 -3.4268 -1.6682 -3.07081
2671 1 9.75416 21.1809 22.1305 1.65529 -5.22347 0.642371
2672 1 7.27253 -5.96763 9.42934 -1.28317 2.92577 -2.58456
2673 1 -13.4364 -22.0656 -2.77693 -1.91803 -1.94183 -0.780911
2674 1 -8.33756 -20.3076 -3.00453 1.49983 -2.34633 1.79064
2675 1 19.4768 2.85719 -12.0329 -5.54967 1.7912 -1.25781
2676 1 22.8976 23.5285 -17.8194 5.25801 -0.695577 0.135642
2677 1 -1.21938 -23.2747 2.63433 -0.518613 1.65708 4.3706
2678 1 3.53527 -20.4939 -15.9198 5.83085 -2.03991 -0.102444
2679 1 10.7523 -0.208859 -2.76755 0.750519 1.0891 3.73948
2680 1 9.70281 -2.12655 -9.17305 -2.12772 -4.70364 4.08209
2681 1 -15.4949 -6.88005 -18.9437 -2.93765 -2.11921 -0.460343
2682 1 -18.7442 1.22745 13.5972 0.816768 0.50213 -1.89249
2683 1 -17.7057 6.99622 -17.913 -5.82133 -4.46417 -1.65335
2684 1 23.0729 -13.0259 3.50419 -4.4091 1.05278 -3.35425
2685 1 1.47083 -10.1137 4.23426 -2.00136 3.39162 1.08057
2686 1 6.37445 -22.6306 -18.1761 1.85023 -2.77236 3.32884
2687 1 19.5289 -15.7536 -10.3259 -1.59464 0.158505 -1.7206
2688 1 -17.7455 -4.18855 -0.0944305 -6.31089 3.99707 -3.33923
2689 1 -8.46901 -3.40067 -7.16283 -2.05887 0.120386 -2.61916
2690 1 -12.4116 -11.6552 -15.945 -5.83937 -0.719824 3.03073
2691 1 -19.8411 46.4525 20.7638 2.06 0.0659504 -2.34834
2692 1 4.63584 0.118602 -10.0167 0.551814 3.80428 0.444039
2693 1 13.6875 20.0098 -17.3189 0.943043 -0.376233 -0.870897
2694 1 -5.07915 -13.0447 19.5805 1.2075 1.59285 0.783129
2695 1 14.1206 7.72825 12.2192 -1.36975 -2.44204 -4.11117
2696 1 21.7036 -18.0166 23.3324 2.55391 2.01632 -0.478767
2697 1 6.2913 1.67883 -4.039 1.38723 3.19553 7.44531
2698 1 13.9882 -12.1389 22.4252 4.8997 -0.457191 -4.01033
2699 1 -16.8844 14.4061 -1.69817 -2.55489 -0.383452 -2.5016
2700 1 -7.96295 -19.7583 0.72238 -1.2814 1.68258 -4.427
2701 1 -21.0302 22.1355 -0.33856 -1.35405 -1.01001 -3.32131
2702 1 -6.93449 18.6338 -17.2138 3.56551 -3.11278 -5.26259
2703 1 12.1244 -3.62342 -11.9238 2.43721 -1.63046 -3.47949
2704 1 3.64961 -23.4843 1.65041 -1.47036 4.07974 1.36857
2705 1 -2.88192 -5.15622 6.06651 1.23947 2.39714 0.419195
2706 1 3.08876 -23.667 21.5493 -1.83173 -2.1292 7.77814
2707 1 -8.73394 -13.0376 3.0594 -0.527673 5.66328 1.12654
2708 1 -10.974 1.74249 23.6759 -5.23404 -1.6022 -0.592726
2709 1 19.0767 -5.66281 20.6018 2.16647 0.363022 3.32321
2710 1 -3.47638 14.6095 19.3996 2.00902 1.49706 -1.45937
2711 1 -14.5975 -5.24978 23.8323 -0.565179 0.780432 -5.24386
2712 1 14.8822 13.8455 5.48683 -1.78538 -0.952452 -2.31583
2713 1 -23.1534 2.34728 -5.767 -2.34524 1.42539 -3.4208
2714 1 -19.0541 6.01573 -10.4851 2.18079 0.643045 -2.43441
2715 1 -9.60506 11.9281 16.697 -2.10798 1.0298 3.78646
2716 1 14.5369 12.1902 3.06874 -1.41784 -1.71634 -2.79233
2717 1 8.79554 21.0896 11.7427 0.287053 2.74557 0.265707
2718 1 11.3343 -14.7245 -22.9119 -1.08916 -2.24223 0.334075
2719 1 18.2375 -10.0796 3.8928 4.54521 3.40226 1.9608
2720 1 -14.727 -9.56214 -18.7593 3.84339 -1.58047 -5.29496
2721 1 3.3445 -11.8469 11.1723 -0.539054 -1.1405 1.95207
2722 1 -12.9967 19.6888 -6.16307 1.97329 9.55953 4.02064
2723 1 -4.57093 18.675 15.6296 -6.57985 -0.118022 2.65587
2724 1 -3.57758 3.89813 5.17665 2.46465 2.76852 -0.0517237
2725 1 -1.61781 8.84302 -16.2228 1.91167 1.84015 2.52713
2726 1 -11.993 -6.52211 23.7757 -1.09516 -5.70925 -0.863329
2727 1 -12.9505 -19.2139 -2.86022 -4.92488 4.58617 1.62853
2728 1 20.7668 -3.81801 11.5109 -3.7489 -1.32913 5.44551
2729 1 -2.34673 -21.2837 -20.4243 -3.40806 0.649246 -4.75121
2730 1 -8.06208 -16.6908 9.36538 0.11188 0.79303 -0.665488
2731 1 -22.9943 24.7356 -5.74754 3.10187 5.18173 -4.24242
2732 1 2.38138 1.53443 3.59299 -1.49378 -5.28271 0.148503
2733 1 -8.44756 10.1578 -19.603 -3.30925 -2.29823 2.41966
2734 1 17.3403 -9.10458 22.2913 -0.0606833 1.54651 -0.0173505
2735 1 -4.84647 8.19177 -13.8847 3.87218 -2.06036 2.17749
2736 1 17.1144 16.0651 22.8601 -2.56266 3.12427 -0.546447
2737 1 -20.3696 -18.8135 -0.0717949 -2.48923 -0.179113 3.19243
2738 1 -6.93404 9.52076 15.4225 -5.42564 -4.81038 -0.547639
2739 1 -14.2303 -7.55426 19.7817 1.77884 4.13235 0.147026
2740 1 -13.9227 -15.9996 -20.4773 -1.44602 -4.27869 4.77327
2741 1 -9.19868 6.21389 2.98547 0.420865 -0.477279 -1.28181
2742 1 -13.7581 13.6082 7.16018 2.04994 0.860409 3.13042
2743 1 2.23862 -18.6222 -6.84001 2.21689 1.40907 1.64048
2744 1 -16.8352 -19.7356 -23.4386 3.85778 -0.148594 -1.87872
2745 1 -11.4142 22.1427 1.79742 0.688281 2.31443 3.43052
2746 1 5.94632 -12.6613 -5.32159 -2.68326 -2.5051 -1.98373
2747 1 -0.115403 1.16301 15.6125 0.682192 0.415685 -1.9306
2748 1 -5.47972 -0.208246 -7.28 -1.43019 -3.0017 1.59246
2749 1 -12.1452 -8.43816 21.6397 3.70026 1.94106 -0.867818
2750 1 -13.0871 24.9173 -19.8624 -3.26375 0.83363 1.31535
2751 1 7.56463 -23.5448 7.89298 0.91197 1.59749 1.50258
2752 1 -9.249 18.0771 -10.0147 3.26701 3.56451 -2.5893
2753 1 -2.07981 -7.29012 10.6294 0.402167 3.80464 -0.0459788
2754 1 -12.5759 24.7967 0.666613 -3.7129 -0.609861 -3.9396
2755 1 1.93879 -14.0275 18.0248 0.820792 3.92981 1.42695
2756 1 -21.9129 9.47258 19.3924 1.28147 2.15813 -1.97514
2757 1 20.0383 -15.343 20.422 2.00045 2.06633 -1.80065
2758 1 23.221 -17.3433 -9.90531 8.35279 -4.91177 0.201858
2759 1 -17.7326 -16.3269 8.79468 -4.32071 -0.959167 -2.78205
2760 1 -0.474756 14.8345 -17.6028 -0.83219 -1.3528 -0.0688875
2761 1 -5.56512 -16.224 19.3406 1.60055 -0.407696 -0.702469
2762 1 -10.1858 10.2264 9.91518 -3.09081 1.66581 -0.081219
2763 1 -6.42149 -13.3062 16.8532 7.89565 -2.44965 1.74054
2764 1 9.36503 22.6069 -13.2222 2.80168 0.932693 -2.41242
2765 1 8.69132 -18.3386 -20.6022 -1.68821 0.61642 3.58964
2766 1 8.38523 11.8252 19.6346 0.732038 0.422937 0.895151
2767 1 -9.94815 -17.375 -19.0079 1.73239 -7.31527 4.53269
2768 1 -5.86393 22.9571 0.174997 5.27134 -0.712135 -0.590304
2769 1 -17.815 16.9123 17.2303 -0.298201 1.0295 -0.0325467
2770 1 20.3643 9.51891 1.76671 -1.72586 -3.84031 5.54122
2771 1 -16.0605 -14.3629 -17.0005 -3.87076 1.4917 5.00508
2772 1 -15.1072 18.3622 -18.6585 -0.798473 -0.0208791 -2.52382
2773 1 8.86541 22.5948 5.11883 -1.43236 -0.605883 -0.55931
2774 1 -22.9298 -0.216812 -14.9645 0.191113 4.13392 -3.46139
2775 1 -3.15575 -19.8434 14.5866 -1.94948 4.5293 0.32402
2776 1 12.6557 7.14243 -6.36172 0.808162 3.48697 -5.13294
2777 1 -12.9194 14.6945 4.62817 -2.5369 2.26666 3.12142
2778 1 -22.8867 16.1244 20.4048 0.805255 5.36764 0.0119758
2779 1 21.8754 12.6268 18.3282 -1.24375 -2.27939 0.16212
2780 1 -12.3617 0.527964 -6.15102 2.37972 -3.01411 0.597332
2781 1 13.9793 25.6125 11.858 -2.83304 -1.56191 1.15934
2782 1 8.99291 -7.83864 14.6976 -3.2217 5.18363 -1.00885
2783 1 10.8152 -8.08511 -13.8788 4.8651 2.82145 -2.27524
2784 1 -10.7902 0.862113 -1.69124 -2.23129 4.41521 -1.62728
2785 1 23.15 -1.3788 -13.4758 -0.607565 -0.983107 3.05649
2786 1 6.37297 -4.18471 2.96169 -5.25047 2.74495 2.29058
2787 1 -14.6559 14.3926 0.107698 -3.17051 1.52049 1.28781
2788 1 -19.3539 14.7053 11.0315 -1.69772 2.58221 1.55027
2789 1 11.273 -7.5687 -4.03916 2.80224 2.57379 -1.71627
2790 1 -7.89926 -2.25509 -15.9657 3.87679 4.73741 2.88631
2791 1 20.8267 13.6826 -5.29262 1.51335 1.23204 2.78348
2792 1 -7.34179 -5.21279 4.04799 -5.73171 2.77874 -3.80177
2793 1 -5.10839 1.85365 7.07157 -0.909807 -0.174236 0.928106
2794 1 8.84003 16.4233 -9.57379 -2.52042 -4.82044 0.562258
2795 1 16.1396 16.8496 -18.2671 -1.33024 -0.705473 -6.35585
2796 1 17.8192 -15.4595 12.5176 1.99115 -1.40047 3.72852
2797 1 18.0922 -9.22064 -21.4919 1.36749 4.9193 -5.20666
2798 1 -19.8393 -0.979222 -4.17491 -0.723708 1.01125 3.35781
2799 1 -2.11613 -16.7954 -5.74828 -1.99372 1.99727 0.228641
2800 1 -8.85419 -11.424 -15.207 -0.349967 2.66443 -0.127023
2801 1 0.702161 16.254 6.45371 2.49234 3.87024 1.55497
2802 1 8.49645 11.0768 -11.1643 1.97445 -1.58981 -0.665759
2803 1 23.4942 -4.14363 -13.1598 -2.7189 -3.50536 -0.391371
2804 1 -17.1712 13.1786 -10.5384 0.20381 -0.404536 2.70321
2805 1 -15.1119 6.37582 -9.35022 3.61715 -4.05466 6.29747
2806 1 -5.44961 20.4139 -15.404 0.865903 -2.06857 -6.7418
2807 1 -21.2575 19.1682 -1.06473 -2.60723 1.24651 6.53598
2808 1 3.1464 -24.3523 -10.5978 -4.64086 -3.29453 -0.0433237
2809 1 -12.6845 17.8973 16.5955 -3.49689 -0.154846 -3.46323
2810 1 7.09957 24.1601 -14.5173 -1.07543 2.89242 4.54129
2811 1 -14.0729 12.2264 3.76236 -1.92405 1.85957 1.77027
2812 1 -10.1871 -1.22225 20.4187 2.66792 -3.43134 2.68478
2813 1 -2.15347 -8.64947 -17.5633 5.01905 -4.44702 2.75995
2814 1 22.8436 -4.0855 -7.07104 1.00661 -1.12045 -6.72709
2815 1 19.6467 8.24863 8.53069 -6.85986 0.507812 4.03899
2816 1 2.52365 -15.8847 20.2901 0.628005 -2.03553 -1.19122
2817 1 8.27417 -17.801 -24.0854 -2.78958 -1.3078 1.82416
2818 1 4.58972 -0.552833 -1.16785 -3.24679 -0.243546 1.54304
2819 1 16.743 13.5055 14.6235 -3.68575 -0.961934 4.00731
2820 1 -16.4107 23.1474 10.5858 4.93424 2.36888 -0.318437
2821 1 17.5353 -15.4844 -14.2623 -2.50992 -0.00800139 0.170334
2822 1 -13.9616 -3.67214 3.13898 2.82753 3.37338 -3.16512
2823 1 12.9416 -14.2063 6.39729 2.34318 2.50171 0.463485
2824 1 6.11838 11.9115 14.1908 -1.75179 1.41236 -1.46585
2825 1 16.4041 20.175 -10.5966 -3.32204 -0.544117 -1.64253
2826 1 9.95535 -18.295 -2.1902 0.466594 -1.49405 -1.7486
2827 1 3.28666 -11.0947 -23.2522 -1.63102 -2.56941 -3.02941
2828 1 2.85323 -4.51843 -21.3605 1.32337 6.21053 -2.59818
2829 1 19.018 -22.1201 10.321 -1.22703 -0.435877 -2.37634
2830 1 -23.9566 6.91897 0.12403 0.605989 -5.23916 0.132377
2831 1 18.0043 4.92149 -13.4884 2.36074 1.38875 3.25596
2832 1 22.7588 -18.8125 -6.4832 -0.970428 -0.85696 -3.79343
2833 1 -22.8395 0.838131 7.43785 -0.915311 -3.75365 -0.684897
2834 1 -11.1257 -16.5709 21.1763 -4.12257 1.34091 1.89455
2835 1 -0.695754 4.64534 0.254256 -5.32576 2.09201 -0.955563
2836 1 -15.0604 20.4503 -4.36623 -2.2554 2.52048 3.30904
2837 1 -17.6417 10.7147 -7.05476 2.29518 -0.525432 4.01667
2838 1 20.2823 -11.1521 22.6579 1.69075 5.53407 -3.01028
2839 1 -17.9961 -2.93211 -22.5885 -2.88257 -0.477794 4.65442
2840 1 4.01023 -20.7125 -23.9025 -0.903563 -4.43505 0.184645
2841 1 16.3014 -19.8877 -4.4199 4.33682 0.235477 -4.44164
2842 1 -4.53865 -11.6893 -13.2011 1.04887 1.73229 -0.07408
2843 1 15.5295 4.56748 -20.0377 2.7892 -0.505198 -0.561218
2844 1 20.5704 16.1457 7.62408 -0.58262 0.0625588 1.06453
2845 1 21.8914 2.07546 -22.2971 -3.37754 -3.95499 0.091304
2846 1 -21.9543 0.77895 2.89281 3.84361 -2.70684 2.61106
2847 1 6.8483 15.1901 0.597327 4.83674 3.8602 2.75647
2848 1 -17.5225 -24.2995 -11.0223 3.42552 -0.372273 -1.27009
2849 1 -19.7616 -22.8284 12.5519 -0.670714 -1.22592 -1.9041
2850 1 1.44369 4.62299 -8.53092 1.53051 -3.33604 1.10204
2851 1 -6.43986 23.8004 18.4341 0.622327 -2.65471 3.45793
2852 1 6.39758 -2.739 -1.05997 -0.175678 -1.92005 5.93428
2853 1 -0.131178 24.2541 21.4021 2.96502 6.99449 -3.8093
2854 1 6.18644 -6.09093 -3.49306 3.06757 -1.94686 1.33308
2855 1 -18.3492 -7.45908 -19.8239 0.353707 -0.349654 -1.66004
2856 1 16.9349 -15.0068 1.88866 2.5234 0.359191 0.106833
2857 1 18.3931 12.1737 9.36462 -0.596834 -2.2294 -0.326585
2858 1 12.1132 -1.96873 -22.4893 1.80011 -0.999081 -2.00551
2859 1 -22.8688 -24.0975 -18.533 -1.47848 2.78222 0.346312
2860 1 -22.1453 7.30543 17.3658 -1.8128 -4.13457 -1.4029
2861 1 12.8003 13.0559 21.3379 0.51697 -0.918571 -3.39167
2862 1 11.4187 -1.9783 -18.3233 -1.99823 4.3755 -0.547853
2863 1 -23.9983 -17.8779 -16.8531 2.96201 0.754961 3.4329
2864 1 -16.4391 13.2946 17.688 0.707664 0.388083 -2.46066
2865 1 3.17398 11.9728 2.81866 -2.79223 1.58251 4.05487
2866 1 -18.0651 24.738 -5.92119 3.47057 2.73065 3.12736
2867 1 -19.5262 18.3463 -13.9302 4.53932 -1.27885 -2.28049
2868 1 0.945278 -24.4967 20.0879 -2.63027 -1.30858 4.77479
2869 1 -18.7504 -15.5246 18.4711 -1.39029 0.606938 -0.527867
2870 1 -12.439 15.0743 -10.2497 -4.31314 -0.926034 0.825632
2871 1 -16.2616 20.6963 -22.6521 -0.0502144 -3.38715 -3.09824
2872 1 5.46056 10.0243 8.8799 0.505844 -1.67622 -0.954666
2873 1 -11.8061 -0.749587 5.65441 1.09051 2.34027 1.46146
2874 1 -0.10281 -11.0928 -12.1984 -0.974477 -1.71482 -0.146793
2875 1 22.6237 -5.79595 -9.49826 -4.77677 -1.6602 -5.27441
2876 1 22.3181 -22.4476 -21.8562 -4.33631 3.23902 0.870864
2877 1 11.0068 -5.6158 4.13536 4.44283 4.40003 2.3668
2878 1 -17.9175 22.6277 -12.2396 1.78922 -3.76955 -3.98474
2879 1 -1.49732 18.4471 3.21951 1.94119 3.36876 0.947705
2880 1 -0.862899 -0.755899 13.6368 3.35892 -2.48464 3.35355
2881 1 -16.121 14.8592 -17.7348 3.10605 0.270561 -1.15537
2882 1 -21.2912 -17.2089 18.4435 -1.12671 1.99898 -1.20011
2883 1 13.8806 -12.5397 -0.0872525 3.22706 -0.315889 3.30412
2884 1 10.0821 -7.94346 -22.2697 0.689993 0.156091 -2.7143
2885 1 -5.24379 3.81549 -4.04989 -0.314809 -0.804185 -5.93891
2886 1 11.1674 23.8252 2.11789 -1.61913 -0.08097 -0.730109
2887 1 22.004 17.6601 21.5545 3.84138 -2.65869 1.62771
2888 1 -13.3884 4.25115 -23.7787 7.06873 5.71825 2.46184
2889 1 3.92013 -4.3692 7.22753 1.23242 0.170068 -1.29991
2890 1 -4.52119 -4.97792 22.9491 -3.23475 2.91774 -2.9153
2891 1 9.76947 -5.57532 18.1233 3.5895 -4.05424 3.19714
2892 1 22.0012 21.5969 -10.7023 2.98957 -4.24167 2.94353
2893 1 -10.9748 -16.3028 -23.9029 0.527335 -4.04696 -1.55866
2894 1 -6.46781 7.2344 18.8907 0.582059 -1.21925 1.18995
2895 1 -18.7382 18.0627 20.0948 2.64819 1.90144 2.27394
2896 1 -11.5216 3.62566 14.6003 -3.29154 2.04915 -0.200987
2897 1 -3.31272 15.5681 -1.91712 -1.32648 -2.06289 -2.27523
2898 1 -9.33283 -7.76945 -21.9653 -1.28683 -2.04111 -1.58084
2899 1 -4.47175 -22.2444 17.9147 1.07881 3.48912 1.6517
2900 1 19.1098 4.1274 23.3124 -0.444064 -0.834408 -5.70369
2901 1 -10.3368 -16.1306 -14.5706 -2.19118 -0.879032 5.23274
2902 1 -21.2826 0.268714 -21.7808 -1.447 3.53452 -7.61218
2903 1 -15.0295 -13.2968 3.38308 -3.50566 -0.474842 -2.8582
2904 1 -8.23277 13.0169 -0.83141 2.18382 1.46565 0.411818
2905 1 -18.7875 22.0488 22.307 -1.47792 -7.26842 1.25684
2906 1 10.1409 3.35354 18.3594 -2.03204 -2.61722 0.964346
2907 1 -16.041 22.8103 -5.77496 -1.44587 4.16942 -3.55905
2908 1 -3.98731 12.2891 13.0392 0.712205 1.4735 -0.137988
2909 1 -6.51625 -0.881448 -23.621 -0.776964 -0.324209 -3.99215
2910 1 -11.4374 8.26011 16.4191 4.80229 1.03397 4.54306
2911 1 -0.108453 4.24188 -18.2763 -5.68475 0.506989 -0.588068
2912 1 11.2075 -16.8264 -10.3131 2.6839 4.47526 -1.67256
2913 1 13.8455 5.15833 -2.21567 0.118946 2.0839 0.237779
2914 1 0.600209 1.49633 11.1243 -4.21792 1.32915 3.60081
2915 1 -13.5204 -11.926 -22.3491 0.000753055 -2.1649 -0.104337
2916 1 -24.417 22.3938 -4.54559 0.899403 0.500224 -2.39726
2917 1 -7.53266 6.70791 5.40333 0.693423 0.732508 -2.26674
2918 1 19.6669 8.08058 -7.6775 -1.4833 2.10001 -0.795159
2919 1 21.1541 -18.1623 -2.85312 -2.71668 -3.78421 -0.91055
2920 1 23.1846 13.3157 3.59515 4.39815 -1.08381 -0.947966
2921 1 -19.0841 22.3532 9.49512 -1.66661 -1.53143 2.37183
2922 1 -17.1476 -22.5373 -23.8379 1.28115 0.911349 -2.66635
2923 1 -14.1646 0.941126 17.8119 -1.44909 1.66425 -0.0134149
2924 1 -1.08565 -15.9805 -23.7966 0.313709 -2.16049 -1.99267
2925 1 18.6392 -9.36602 12.5029 0.139751 1.0931 -5.10283
2926 1 -8.89065 8.77256 -15.3068 5.62643 -0.750537 1.13171
2927 1 11.3659 5.6407 4.20636 3.08585 -5.31359 0.502865
2928 1 -22.4747 46.032 -8.95796 0.180393 5.81418 2.77496
2929 1 6.82372 -13.7455 9.39285 -0.450327 1.08265 -0.592054
2930 1 -20.5396 4.81518 -4.37123 2.17395 -0.138197 -1.0676
2931 1 1.00088 -9.81628 23.5767 -1.74384 0.664034 -3.18278
2932 1 8.78439 21.0861 19.3457 -0.343959 1.82707 -2.08265
2933 1 22.5383 -5.19879 13.441 -0.465259 5.66901 0.113991
2934 1 10.513 2.05411 -21.5965 -1.6503 -2.41022 -1.87964
2935 1 8.4888 23.9878 0.489224 3.16037 -0.110885 1.87264
2936 1 -23.8561 8.0347 -5.51231 -1.51325 -2.15922 -2.61564
2937 1 -18.6975 3.13171 -14.3668 -3.19052 3.04051 0.192208
2938 1 -5.81153 -6.88139 -1.48822 -2.29254 -0.409883 0.0314864
2939 1 -13.071 19.3359 5.46761 -2.09281 -6.18962 -2.27482
2940 1 14.9774 17.9527 -0.521929 -4.21141 -3.14426 0.579745
2941 1 -5.37247 2.94878 -9.52244 1.26387 -2.33914 1.38375
2942 1 -21.6897 11.7422 21.3047 1.25406 -0.693444 -1.65544
2943 1 22.1213 6.61787 8.46615 4.64203 -1.86586 -4.15042
2944 1 8.1826 -22.7266 14.357 2.01401 4.25884 -1.74205
2945 1 -6.05157 11.5554 -9.4852 -1.19608 1.74111 1.37868
2946 1 10.1421 1.13512 12.233 0.0908698 -0.358124 -0.618348
2947 1 15.3908 -16.3026 -21.2443 -0.537072 -4.73553 -4.08787
2948 1 0.965789 -18.8419 -1.15861 -5.92174 1.96239 2.54103
2949 1 -8.35473 -21.2727 23.601 -4.27642 0.122682 1.36957
2950 1 -20.761 13.7088 3.73457 8.24765 2.2721 -1.64874
2951 1 13.8804 -14.3518 -12.6011 0.790016 1.0904 -0.0306125
2952 1 -12.1473 22.456 -21.308 -2.96518 -1.60648 2.26321
2953 1 16.1195 3.76074 2.63954 -4.01413 -1.81976 0.388836
2954 1 -15.8699 -1.55415 10.3708 -1.1875 -0.6937 -1.64439
2955 1 11.3499 -9.80893 14.9806 3.32753 -5.94335 -1.70057
2956 1 -16.3362 18.9202 0.398829 0.932417 -1.33328 -0.652121
2957 1 0.653655 -19.4049 14.7912 -5.40612 3.29545 1.43386
2958 1 7.32931 -10.9012 -10.6803 2.51689 2.02428 -2.47307
2959 1 -17.7082 17.0294 -20.0672 -1.25282 4.85507 -4.24829
2960 1 -13.3422 -1.38459 -23.2969 -3.64899 2.01347 -2.06646
2961 1 -10.5845 -11.2647 -22.4453 -0.120532 -1.48052 1.52336
2962 1 -7.58065 2.38155 -15.0293 -5.7878 2.42068 -0.47801
2963 1 22.9173 10.7826 -4.72631 3.34119 0.372953 5.49054
2964 1 1.88901 -19.7872 -21.6706 -0.709079 0.0861107 -4.66092
2965 1 20.8586 0.345527 -13.1281 0.667077 -0.401428 3.30098
2966 1 -1.56444 -21.877 17.9431 -2.73418 3.18949 2.39992
2967 1 -0.626959 12.6758 11.133 4.46689 3.06628 -2.45158
2968 1 -1.19379 -13.5245 2.13614 -3.44849 -1.31887 3.44481
2969 1 -6.53221 1.89067 14.8779 -3.46792 0.67516 0.951237
2970 1 22.7215 -13.9659 -13.6114 -2.63909 -4.30561 -6.0767
2971 1 -4.40158 19.3125 10.342 -4.36838 -2.6905 1.21727
2972 1 -8.11179 9.53266 -10.5733 -2.97024 3.66923 -0.393926
2973 1 -14.2927 16.3078 20.9077 -2.30892 -3.87321 1.01004
2974 1 20.0062 -1.10121 19.3187 -0.860816 1.16897 3.56334
2975 1 16.2108 9.93963 -0.303492 -0.528018 4.92691 -3.36405
2976 1 -22.8578 21.3751 -13.34 1.17999 4.47389 0.605215
2977 1 4.07953 -10.3402 -1.7309 -2.5023 -0.349992 0.80456
2978 1 14.7835 17.491 -15.9787 -2.95113 5.80151 0.0384906
2979 1 6.13659 6.05538 18.6163 1.44257 2.56226 -2.22079
2980 1 -3.91304 10.7539 -2.65138 -0.433014 3.027 6.17881
2981 1 -15.1914 7.45423 16.5174 0.335855 -3.38185 -1.04979
2982 1 -12.2152 -7.11503 5.17531 0.320632 -0.513768 3.58544
2983 1 -9.40318 15.0572 -23.0194 -0.423231 -5.87682 -5.30997
2984 1 -1.32478 0.145402 23.2719 -3.53852 3.05871 2.64742
2985 1 -13.1957 -14.2433 10.7479 -2.33372 0.8578 3.24792
2986 1 -5.69172 17.7931 -20.8922 -0.501288 -4.2518 -3.91216
2987 1 -22.6218 46.3193 -5.91533 -2.8126 1.43455 -2.32154
2988 1 2.6141 -22.231 -4.60525 2.61626 -1.28054 5.1428
2989 1 -24.272 17.5897 -12.7263 -1.89124 2.70018 0.261696
2990 1 12.4725 -17.5595 16.5881 -2.31134 -0.964064 -1.46004
2991 1 3.70381 2.15883 12.0572 -1.05448 2.53515 -0.875164
2992 1 21.8058 11.5797 -11.4995 4.74416 1.31993 -0.893514
2993 1 22.0355 17.271 18.4131 3.69252 -1.26666 0.616565
2994 1 15.1041 -0.189475 13.6375 3.4483 2.29616 -3.41537
2995 1 -3.42369 13.6583 -4.18127 -2.25615 -0.53365 -1.20653
2996 1 8.49611 2.9712 6.34954 2.46444 1.15944 -5.1315
2997 1 -5.9506 -17.5612 5.05136 -1.51309 -6.01429 -1.38658
2998 1 3.13871 -14.6647 15.3379 3.9209 -2.40214 4.31416
2999 1 13.8871 -18.2542 0.859953 -3.54021 -0.738334 3.36889
3000 1 -0.934195 12.4473 16.3397 1.1522 3.02509 -2.40159
3001 1 10.2101 14.9856 9.45504 1.14223 -4.33784 2.6321
3002 1 -20.931 20.123 17.3419 -0.39108 4.42917 -1.39038
3003 1 14.6168 11.9992 11.67 -0.116218 3.53317 1.24901
3004 1 19.1207 18.2548 -16.1623 -5.35862 -0.85149 -5.72145
3005 1 2.66273 2.77752 -6.7885 1.53564 -1.81708 1.23522
3006 1 19.3044 11.4606 -20.6971 -0.76572 -0.423633 -6.00189
3007 1 -8.96738 -23.455 -20.8671 -4.7677 -1.76053 4.62353
3008 1 -3.59818 -19.7445 23.2836 5.6527 1.88796 0.430406
3009 1 -13.9934 -23.1158 7.08157 0.177639 -1.0395 -2.9812
3010 1 -16.5458 -18.4562 -15.4723 0.289907 -0.313283 3.56305
3011 1 -6.78422 -0.818059 -11.7914 3.27951 -0.202732 7.56458
3012 1 1.89809 -23.1137 -18.9882 -1.60303 -3.82262 3.69845
3013 1 13.4299 -19.4378 21.7091 -5.05619 -1.82411 -3.92265
3014 1 -23.8324 10.8703 -23.1544 -1.72855 -0.647394 0.151807
3015 1 -2.91402 9.28307 6.30903 -0.504189 -0.453027 0.763835
3016 1 19.0924 -15.0479 -19.2288 0.624505 4.18149 0.724085
3017 1 -17.0996 4.4384 18.3043 -0.990488 0.350693 -2.87842
3018 1 -19.7652 -2.23198 -10.7635 1.32713 -2.11411 -1.03158
3019 1 -18.7082 -20.7814 11.0534 0.0604869 -1.36336 0.569649
3020 1 -13.6082 -10.6418 7.8014 1.25327 5.69014 1.26349
3021 1 -18.3917 25.6074 -3.02362 0.930339 -0.750942 4.11044
3022 1 16.7106 -12.2752 -1.36175 1.54067 -0.0954274 1.29256
3023 1 1.73785 16.6571 -2.55887 -2.16285 -2.81328 5.68493
3024 1 -23.6752 7.83849 2.99942 -0.11268 -3.80001 -0.10623
3025 1 4.9012 -23.2791 8.11723 -0.505871 0.905347 -4.40522
3026 1 4.51554 -19.6215 4.46278 2.11245 -4.10118 0.0284803
3027 1 13.0282 1.08612 11.9903 -3.57682 2.26794 0.250342
3028 1 -11.6109 9.77649 18.8704 -1.4098 -0.305344 -0.133534
3029 1 6.22002 3.9167 12.6037 1.96917 1.91855 -1.92692
3030 1 -16.8587 18.3606 -10.059 -1.89065 4.80262 -1.30877
3031 1 -23.4849 -6.94108 -18.5649 1.79131 2.87664 0.815933
3032 1 17.8226 -11.5124 -5.1162 1.16341 -0.941484 -4.88053
3033 1 -11.5387 3.80038 5.66407 -2.56116 -1.69597 2.80719
3034 1 -16.5973 -4.93823 -16.0589 -0.284903 0.203235 1.5357
3035 1 18.4718 15.7411 5.37939 -0.462032 -1.54132 0.0664029
3036 1 13.0919 18.4593 21.2611 0.484315 7.36895 -1.89197
3037 1 -1.48279 -9.39146 6.87444 -4.51392 -0.40093 -3.86636
3038 1 -16.4084 -23.4069 -16.2359 -1.74726 -4.00844 0.754004
3039 1 16.0775 -20.2929 20.7518 3.23332 -0.0719492 5.33791
3040 1 5.66071 -19.3707 14.0267 -2.56784 -5.72405 7.41883
3041 1 -21.0011 21.9053 2.57437 -1.14536 -0.272544 -0.114576
3042 1 -10.3984 20.0483 16.0796 2.22014 0.226796 -0.240882
3043 1 5.58775 -12.7632 -18.4772 1.14944 3.15479 -1.07718
3044 1 -5.8628 15.8877 -2.72052 1.17857 -1.52309 2.88549
3045 1 1.39862 -6.5481 3.77368 3.07004 -5.6238 -8.29471
3046 1 15.9168 -8.56018 -15.9438 4.1461 -0.448834 -0.37077
3047 1 5.31172 19.4263 8.39065 -2.77135 1.63073 -0.46978
3048 1 7.96369 -10.7459 22.8924 1.32402 5.12091 4.14839
3049 1 -9.30947 -20.4782 -15.6318 -0.0904735 -1.41078 -1.68744
3050 1 2.38638 46.5139 17.7293 -0.800299 -5.97978 -3.83112
3051 1 -16.7537 1.01192 -11.703 2.56228 -5.28955 -3.74529
3052 1 -19.7509 13.3849 -14.0111 3.90484 -4.45488 5.65688
3053 1 22.0487 -23.5482 0.0857715 2.43734 -2.35064 -1.21053
3054 1 20.0514 -5.33146 23.3631 0.408632 3.54958 -1.26226
3055 1 20.9555 1.36525 2.18055 1.77097 -2.71617 3.19195
3056 1 -24.2462 12.1145 15.0233 0.776668 -2.36164 -1.02683
3057 1 17.3561 6.89244 19.5031 -2.90858 -4.33729 4.01997
3058 1 11.1959 -6.046 9.33461 -5.80302 -2.01285 -0.489032
3059 1 -9.79387 -23.3601 -6.10527 -4.98582 -0.680106 2.27834
3060 1 -20.5068 23.5081 -6.51405 -4.42863 -4.38744 0.105315
3061 1 -11.2312 24.094 -16.1241 -3.93006 -1.45192 -1.35451
3062 1 -9.27882 15.2943 -16.8127 1.02513 1.63759 4.47992
3063 1 11.8711 23.3855 -14.6969 0.577543 0.11997 -1.26934
3064 1 0.253542 17.1114 -21.9691 0.537482 3.02645 -2.49317
3065 1 7.15015 -12.5837 -12.955 -0.296755 -7.15929 -1.82704
3066 1 22.7398 -0.48826 -0.638246 1.85048 -0.914204 3.42893
3067 1 18.0237 20.737 -12.9046 2.76033 -0.772932 4.48193
3068 1 18.755 17.4121 -2.30723 3.20142 -1.64526 1.5602
3069 1 8.45628 -7.05323 -5.05098 5.0873 2.75671 3.07643
3070 1 21.7797 -9.25463 0.931845 0.410158 1.71043 5.45169
3071 1 -3.93782 -3.74755 -4.86361 2.05096 9.24553 -0.649443
3072 1 -0.270314 9.15598 20.9682 4.56903 5.01128 2.48294
3073 1 2.22827 19.3903 -2.03516 1.12691 2.24047 -3.11222
3074 1 -7.90776 -8.70166 8.51574 -0.938778 2.83498 0.879121
3075 1 17.4601 10.4218 -22.964 3.22446 1.03511 3.01827
3076 1 -10.9972 20.5801 10.0778 -5.41135 -5.15442 4.37525
3077 1 -14.4408 46.034 -6.64185 3.15501 4.16709 2.84359
3078 1 -22.1565 5.38776 -16.5017 -4.14327 4.122 -6.81586
3079 1 12.7452 -5.5107 -5.48703 1.53921 1.74358 -7.17064
3080 1 -21.227 12.1785 -7.24066 -0.262115 1.94686 -1.16597
3081 1 -19.5294 7.25371 5.33686 0.145073 -3.5099 -0.73737
3082 1 -4.10128 3.60371 -23.1342 2.30298 -2.75876 1.3743
3083 1 3.84876 -16.0519 -10.5742 0.458861 -0.9602 -0.127308
3084 1 -16.0798 46.229 6.30514 -1.70346 0.634886 5.51693
3085 1 -13.3576 -3.94601 -6.5225 0.349142 -0.204449 -0.210972
3086 1 13.6729 20.6815 3.56542 -1.0736 1.65147 3.45434
3087 1 -9.59451 -24.2838 10.5518 2.21996 0.0653023 -2.1912
3088 1 8.68682 4.65178 16.242 3.30918 -1.6168 1.51784
3089 1 8.15973 -20.0673 12.8878 -0.286911 4.65812 -2.26588
3090 1 19.369 -2.62497 -5.43936 2.73627 1.04477 2.07341
3091 1 -3.18279 1.18733 21.0699 2.36834 0.1258 2.04167
3092 1 -8.41581 -9.47992 19.4108 -1.96336 -1.79093 -0.515924
3093 1 -14.8157 6.6205 -23.1173 3.04592 -1.45147 2.84562
3094 1 13.257 6.67469 19.9451 1.31386 -4.99069 -5.45812
3095 1 -15.9686 -14.0249 -1.92679 0.400788 4.87574 1.2103
3096 1 2.59733 3.92898 -22.2043 -0.938286 -1.57022 -1.87455
3097 1 -8.63353 -10.1321 -20.7581 1.95787 1.5307 -0.0352933
3098 1 -10.9938 -19.2532 4.0481 -0.955944 -1.08173 2.67118
3099 1 -19.4888 8.42129 20.2365 2.83946 -0.538746 2.71346
3100 1 16.2605 -8.05229 -19.6456 0.491656 -1.42302 1.60338
3101 1 -24.1325 -16.0964 -21.4595 -2.62354 4.72192 0.64529
3102 1 4.39987 5.14066 -23.9108 2.38516 -2.20512 -1.33259
3103 1 -6.3305 -11.675 -21.9826 0.625998 -2.40147 -2.18564
3104 1 -22.5422 -6.92915 5.53499 -0.960957 1.61068 -4.25188
3105 1 -24.2096 -6.45809 19.5237 -0.398536 0.264567 -2.54059
3106 1 0.915575 -10.9108 -4.7243 1.12188 1.60172 -0.247692
3107 1 18.8768 -14.5198 23.1963 -4.49699 -2.69013 1.97279
3108 1 10.1674 -16.5996 -6.20822 1.67513 -3.83185 2.18769
3109 1 4.06719 2.81269 1.4426 2.32568 -0.854496 2.06877
3110 1 1.82962 9.88134 1.23081 4.53951 4.77448 2.36151
3111 1 9.19884 -22.1024 -14.1467 -1.11881 -3.02265 -0.902809
3112 1 -1.21947 -15.2034 -21.0597 3.25078 -5.64799 -1.28518
3113 1 7.92476 -12.9942 -16.7187 -4.78548 -0.0315482 -5.76092
3114 1 2.46685 3.9173 -17.4506 -0.623835 -0.460246 -2.87726
3115 1 -21.8594 19.4607 -15.4021 0.923268 -0.304897 7.52774
3116 1 -10.9624 15.8779 -0.0171869 0.964639 -0.480307 6.01018
3117 1 10.8303 -13.9565 -9.654 0.995468 -0.192498 1.73611
3118 1 3.86586 6.17788 6.23205 2.51697 -0.49613 -2.8814
3119 1 -9.14511 -9.21678 5.00328 -3.21947 1.09787 0.0258934
3120 1 -10.8894 -3.15079 -19.5062 -2.80575 -3.67157 -3.16629
3121 1 -2.51384 -22.6827 15.3263 1.03409 -1.61721 -2.44545
3122 1 -14.0595 23.0043 21.98 -0.449515 -6.03458 1.70907
3123 1 15.1486 14.7955 12.4753 -3.07826 0.0561573 0.459172
3124 1 -15.336 11.5747 -8.61688 0.670797 -3.10456 -4.64251
3125 1 -3.52986 -15.2138 -0.209972 -0.431661 -4.31635 -0.781652
3126 1 5.57904 7.99307 -6.71832 3.96133 -5.4484 3.82605
3127 1 15.0938 4.09986 5.39485 -2.86107 -2.40388 -2.34682
3128 1 4.26508 11.1618 -15.6233 0.164396 3.63194 -1.71354
3129 1 -0.974691 -11.1437 11.0959 0.389573 1.87974 1.65181
3130 1 22.2738 -9.57983 13.0669 1.64177 -1.28568 0.775572
3131 1 -10.5177 14.6824 2.94499 2.85048 -0.499251 -0.292383
3132 1 -1.34266 11.5982 6.04875 1.7409 1.15231 -6.59083
3133 1 -0.635886 12.2072 -12.482 0.526653 3.53783 -3.75412
3134 1 19.4738 7.56301 -2.66603 2.73727 5.30789 1.61457
3135 1 -18.1171 -12.8686 -3.60721 -1.51087 0.63856 2.06961
3136 1 -17.7253 -21.9271 4.99822 4.17264 -0.824026 -0.715053
3137 1 5.09273 -7.56905 -18.0516 -3.35216 -0.672631 0.187073
3138 1 17.7333 -3.28612 23.7171 -4.94209 -2.1478 5.7941
3139 1 5.69528 8.63292 -10.6066 -1.01605 -0.160359 -7.4338
3140 1 0.756733 19.5227 -17.9317 0.558373 -1.44446 -1.02479
3141 1 13.497 -2.82416 -9.28841 0.276827 -0.727395 4.50887
3142 1 6.49989 24.8492 -20.0656 -1.28896 2.321 -3.21984
3143 1 22.2361 23.2342 -21.6321 1.21879 0.632398 -2.89252
3144 1 -4.45107 13.354 -0.26824 1.6741 -3.13952 -2.63659
3145 1 16.253 -17.446 9.49419 -3.61601 0.170678 -0.156562
3146 1 -1.02705 8.69687 -9.58749 2.9564 -2.53989 3.18157
3147 1 -0.375833 -18.4377 1.45296 5.32891 -1.86236 2.61001
3148 1 7.46196 -7.8298 5.86164 2.09039 1.74281 -2.16218
3149 1 9.04871 6.87084 -18.6303 9.35442 -2.52117 -0.0339572
3150 1 -22.762 14.0108 1.34141 -1.51048 -1.5602 -2.96002
3151 1 -10.4693 -23.1503 -16.4799 -1.08649 -3.60579 -3.39529
3152 1 -12.9431 16.2356 -18.9438 -5.4626 2.80336 2.21743
3153 1 14.9124 3.97985 -23.0212 0.726822 -0.804658 5.35816
3154 1 4.34517 20.0407 5.78517 -2.94583 -4.10181 1.15184
3155 1 -3.64363 -12.3722 2.95998 2.60052 0.859405 3.93035
3156 1 19.2833 -4.72217 9.13895 -5.22329 1.39774 2.1825
3157 1 9.89322 3.25879 3.85293 -0.418317 5.3093 6.04584
3158 1 21.1448 -21.9903 -8.76194 1.40508 2.23598 1.5099
3159 1 19.4488 5.40336 -7.50409 9.94661e-05 -0.968981 -2.35816
3160 1 -12.3014 -23.5644 24.1212 4.37303 2.01949 0.0269474
3161 1 -9.31891 -18.4959 -7.01041 0.744041 -5.03711 4.04535
3162 1 -15.041 -12.7043 -12.7462 -1.33354 4.55923 -1.4484
3163 1 22.3399 -0.664443 14.5289 2.59189 0.740233 0.412311
3164 1 -19.2341 0.0844857 21.3482 2.60635 2.93107 -2.37518
3165 1 -6.47424 24.3796 -14.7714 2.92229 0.678519 -6.87271
3166 1 14.8488 -8.84428 17.755 -1.25584 -1.34887 -2.22154
3167 1 21.3579 -18.0726 -21.5387 0.604817 -3.39126 0.685301
3168 1 -15.2312 -22.172 16.8398 -0.0326986 -2.91523 -3.22238
3169 1 12.5436 -22.2467 -20.0948 0.226957 2.59731 -1.69644
3170 1 5.9248 24.2532 23.3354 -0.932619 5.81126 -5.49493
3171 1 -6.50482 14.557 -22.5264 1.95578 -0.367079 -0.863702
3172 1 -7.7023 2.00148 6.15169 -1.70306 1.84656 1.74144
3173 1 9.2669 18.426 11.3127 -2.07679 -1.03518 4.86992
3174 1 23.0157 14.3269 -10.8377 2.11053 1.57286 -2.07044
3175 1 20.74 4.26345 -5.28155 1.90261 0.764908 -3.14109
3176 1 20.8547 1.61176 15.7309 -0.377546 1.98469 -4.58702
3177 1 0.479395 -13.6132 -23.5208 5.83673 -5.29516 -5.77419
3178 1 17.648 19.9921 13.6844 1.05013 3.76761 1.21177
3179 1 1.07279 0.434258 21.879 2.58069 -0.715351 2.61291
3180 1 -3.11376 12.6571 3.71084 -3.07291 0.111047 6.13813
3181 1 -19.164 -14.1062 20.9354 4.85673 -3.82042 -5.55242
3182 1 -17.6719 44.9294 21.5433 1.54296 -0.343407 4.14824
3183 1 22.2277 15.8553 -4.26463 1.6757 -6.31037 0.0365835
3184 1 14.1101 -2.78442 3.56978 -3.76198 -0.252053 0.550477
3185 1 -15.6713 21.5698 -19.9864 1.00959 4.13329 0.994794
3186 1 -4.24164 21.5474 6.18531 -0.689984 -5.21437 0.198052
3187 1 -21.7468 -14.0756 1.94842 1.5505 -2.90541 3.86182
3188 1 -19.4135 15.1316 -11.6556 0.192775 -1.03409 -3.49225
3189 1 14.7478 11.05 9.1219 0.463678 2.20464 3.76778
3190 1 23.4654 19.8583 -16.6749 -2.71046 -3.80443 -2.02832
3191 1 7.41292 -5.78858 -7.31936 0.271235 -2.16133 4.05402
3192 1 22.8395 9.41461 0.108313 -2.80409 0.160424 4.22273
3193 1 -18.2545 22.8697 0.31865 -0.680243 1.14087 3.59447
3194 1 -18.9803 -7.7429 1.42352 -2.73916 2.31601 -4.24115
3195 1 -17.1418 -0.753837 3.3636 2.40514 -2.68728 -8.3592
3196 1 0.112737 -2.26575 -5.00211 -0.119053 0.17059 1.63207
3197 1 -4.77768 9.01398 3.6327 6.25678 -3.29037 -0.554623
3198 1 12.1785 4.84687 -16.0969 3.11837 2.34461 -2.07423
3199 1 14.9572 -22.9173 7.02331 1.58669 4.19585 1.06091
3200 1 -24.1941 -2.95217 -4.57396 -1.04301 -0.100094 1.09638
3201 1 -13.907 -2.8719 19.6593 -0.456153 1.64145 -1.77317
3202 1 -20.4498 -12.5076 -9.72892 3.04973 -0.508662 -0.219042
3203 1 18.9165 9.25818 19.635 -2.0515 2.52063 8.25282
3204 1 -17.2982 -8.26696 9.2924 3.20543 0.173263 -4.11293
3205 1 -11.9489 3.31341 -5.90296 1.82988 -3.38967 -2.4143
3206 1 16.2495 12.8624 -3.52105 -5.01881 -2.36136 -3.23147
3207 1 1.16674 -3.46575 -23.5132 1.55244 -2.20157 -0.328849
3208 1 4.80613 -7.89417 1.38186 0.796108 -2.69406 -4.46886
3209 1 14.9725 -16.7138 22.5145 0.974424 1.97991 -1.39454
3210 1 -13.0854 10.2944 -1.21191 -6.97719 0.951526 -1.71737
3211 1 -2.92577 20.815 12.2033 2.55229 0.265914 -1.24699
3212 1 -13.1541 8.25639 -21.2835 -4.2533 1.87941 0.751694
3213 1 -0.956964 1.63268 -13.2226 -0.24032 -0.655418 2.75225
3214 1 -4.9131 16.1206 17.6292 -0.250279 -0.0958946 3.49632
3215 1 9.07373 3.92947 12.085 2.70164 2.9143 1.62254
3216 1 -24.2293 -2.72542 9.47601 -3.51239 -0.852147 -4.38111
3217 1 9.38904 2.97681 9.26616 -1.33801 -0.63289 0.301242
3218 1 -6.24927 20.2944 -7.83334 -0.251544 -2.05428 7.08243
3219 1 -6.63005 -20.2597 -17.0469 0.105683 -0.952042 -1.91232
3220 1 -3.99479 -9.54127 17.3941 -0.183101 2.53978 3.23916
3221 1 -2.61995 -7.96633 -0.960688 -0.0808651 -3.11545 1.15173
3222 1 -15.7417 -18.4515 1.95043 0.592218 -0.113955 -1.5298
3223 1 21.6804 6.32343 17.9552 -6.90333 -3.1876 1.28377
3224 1 -2.56193 -10.7119 0.557097 1.44881 -0.652405 0.62101
3225 1 -9.96711 -6.80537 14.2799 -1.42941 -1.66052 -0.853416
3226 1 -22.3518 26.5514 -7.70236 -0.408226 -2.09231 -2.47959
3227 1 5.55316 21.8591 -3.34201 2.69913 -0.799409 -3.07396
3228 1 -11.1338 10.5484 -8.39934 0.54316 -0.967052 -3.58132
3229 1 -6.43737 1.11334 -4.80988 0.634706 -0.105091 -3.64567
3230 1 -23.9726 15.9422 -23.7739 2.32022 -3.36319 -0.287821
3231 1 -18.8519 -16.504 -1.04049 -4.77183 4.69701 2.57356
3232 1 -22.7402 11.8916 4.94454 -1.78249 5.84192 -0.162363
3233 1 -4.76057 17.5666 7.69191 -2.59221 2.98089 -0.157018
3234 1 7.56886 -5.96357 -14.2553 0.186611 3.80852 -5.48913
3235 1 -5.8806 12.2268 -12.2912 -0.660326 -4.51624 -0.23152
3236 1 17.7355 18.8825 9.18583 1.45107 -4.17335 -1.9584
3237 1 -4.55713 -12.4457 -24.0588 -1.17499 -5.19308 -7.68116
3238 1 21.0052 18.6428 -3.55866 9.74724 -2.9547 -1.68667
3239 1 -14.5663 -20.7382 8.36921 5.16043 1.83745 -3.19019
3240 1 -12.8336 -17.4156 -16.0175 2.54524 0.127771 -0.0237368
3241 1 1.09039 -21.5499 16.7347 3.6053 -2.64029 1.54127
3242 1 20.8685 -10.1093 -15.6553 2.61112 0.00480691 1.51593
3243 1 8.00123 18.6112 23.4239 0.47483 3.05889 0.995003
3244 1 20.9138 15.1308 -14.6751 0.248394 -1.24834 2.33574
3245 1 -8.75923 21.1102 11.6745 -0.979436 4.06374 3.3961
3246 1 19.23 3.00608 5.91604 -1.49555 -2.02728 -0.546819
3247 1 -7.08174 9.74179 -13.1602 -2.8419 4.8291 -1.30779
3248 1 8.67395 5.3035 -2.03506 0.554129 2.77371 -2.83856
3249 1 9.16821 -4.99094 11.0774 1.94025 -0.565121 -4.24728
3250 1 14.5437 8.81433 -17.3848 3.81364 -1.93762 -3.76096
3251 1 -1.23621 19.7602 14.108 -2.80908 -0.789385 -2.46486
3252 1 17.7068 -23.0476 15.2064 -3.25618 -0.656166 2.50319
3253 1 8.26313 16.7012 2.9538 1.08125 0.352478 5.56129
3254 1 20.9462 4.64377 -9.8633 -0.63034 2.8437 1.05668
3255 1 -18.8224 14.9431 -18.0926 -1.79856 -0.176616 1.54046
3256 1 -6.8238 17.3887 -8.33413 -1.89495 -0.122854 0.192297
3257 1 -10.281 6.01464 18.4718 0.355512 4.25283 0.917408
3258 1 -19.3857 -9.14623 18.103 0.892305 0.478458 -4.98664
3259 1 15.7633 19.0282 3.65527 -3.46436 4.61435 5.21906
3260 1 19.8327 46.0215 -6.66328 4.73855 0.476965 1.41184
3261 1 -13.2712 -1.30058 -16.6331 4.30007 -2.88269 3.50621
3262 1 9.14605 6.85687 11.7029 -2.16182 -1.69722 -3.3394
3263 1 21.4334 2.98979 20.2487 1.69689 -2.54023 -4.36129
3264 1 9.9788 8.9487 23.4354 -0.561315 -3.96552 6.04224
3265 1 6.1257 -10.0293 -16.8699 3.54287 2.34046 -2.63655
3266 1 8.58652 -0.201303 23.1575 4.82615 0.222922 1.83013
3267 1 -17.9903 7.97208 0.238004 -5.26919 -0.420092 -1.40307
3268 1 7.67578 -20.8688 8.6933 0.375444 -1.37921 0.49979
3269 1 5.16379 19.1762 -2.1389 -0.908881 2.979 -0.817468
3270 1 16.5398 -16.0159 15.1801 -2.98474 2.10296 -1.86608
3271 1 8.09528 -11.1335 19.276 -4.72303 1.8256 0.113991
3272 1 4.30651 11.861 -7.08898 0.55766 -0.671755 -1.14595
3273 1 -16.1338 9.4419 -13.3359 -1.83961 -1.7618 0.954905
3274 1 11.7282 -19.3515 5.74245 1.42053 1.23797 -3.21876
3275 1 20.1249 6.39964 10.5548 -1.30249 4.01604 -1.07799
3276 1 6.39053 3.01521 15.2585 1.70642 1.35218 4.3918
3277 1 -1.88245 -15.5376 4.30474 -0.821186 5.29448 1.14762
3278 1 -1.87506 -6.00426 22.4337 1.69047 0.469845 2.73372
3279 1 8.35801 -1.34001 20.4531 -4.47848 -0.748498 0.880394
3280 1 10.2751 17.5887 14.0926 -2.40017 -1.88509 -1.12617
3281 1 -4.83409 -14.4998 12.1167 -0.748927 3.95444 1.21687
3282 1 4.98697 -1.83878 -14.2652 2.78137 -0.383415 3.89432
3283 1 -4.15155 2.13898 13.0089 7.46825 -0.801696 1.80681
3284 1 16.2352 25.137 -18.7418 3.26617 -1.76042 -1.74472
3285 1 -0.221316 19.6526 -12.7721 0.815583 -0.0677786 -1.13219
3286 1 -16.5091 18.2725 3.27513 0.250373 3.06104 0.597631
3287 1 -2.82424 -15.9813 17.4003 0.82343 -0.235871 -2.65329
3288 1 1.81298 8.6051 -17.3377 0.366607 3.9263 -3.46526
3289 1 -16.7927 46.5587 10.4651 2.78479 -0.605834 6.35533
3290 1 -15.8708 21.3897 16.6748 1.79481 -2.38946 0.761802
3291 1 21.6889 25.7183 -11.6371 0.214762 -0.644019 2.62366
3292 1 -22.7243 23.6238 4.21275 -4.352 1.36264 0.316489
3293 1 -9.88243 12.7702 23.2362 3.18682 1.37173 -2.96623
3294 1 -21.3034 2.48253 -15.8728 3.19624 -1.21265 3.15067
3295 1 5.89205 -23.867 -0.610298 1.54778 -0.477619 -0.574022
3296 1 -16.4208 -12.6264 16.1378 -1.38268 -2.75491 -1.30892
3297 1 -18.495 22.4205 -22.8882 2.03058 4.04701 2.54479
3298 1 5.3235 -10.0632 -19.7374 5.57652 -0.684026 2.04818
3299 1 -13.7479 24.6172 -5.8753 -0.807543 -4.30953 1.69728
3300 1 -2.34223 6.18022 -9.2941 2.11658 1.91852 3.81414
3301 1 22.4445 8.86041 -7.69895 3.47166 0.227145 -0.888742
3302 1 -17.9183 -11.3397 24.0328 0.51362 1.92345 2.71654
3303 1 23.2132 -23.7504 -14.2785 0.244477 -3.81188 1.41655
3304 1 -0.918455 16.7631 14.3035 -1.97899 2.92589 4.56631
3305 1 1.02622 6.59433 -3.53057 -3.77945 -1.58593 0.0562714
3306 1 -9.23297 11.1994 -22.4049 0.0513813 6.41089 -1.93479
3307 1 -16.913 12.8883 20.6286 1.61064 -0.133106 -0.471969
3308 1 -15.1223 18.8415 -2.12693 -0.823658 -0.075901 8.49627
3309 1 2.73252 -0.640689 11.0993 5.017 -1.95831 -1.07423
3310 1 14.3605 22.2267 5.72173 -1.06334 2.01005 0.796465
3311 1 8.36365 1.99569 -9.35949 -0.0823462 0.368614 1.74541
3312 1 -24.2769 6.76389 13.2468 0.983902 2.51293 1.29658
3313 1 13.068 10.0444 13.0748 -2.31639 -0.50215 -1.10258
3314 1 -0.784177 -3.15528 10.7378 -4.4264 1.1743 -4.20611
3315 1 20.5747 -12.8714 -19.637 0.066704 1.5983 1.75017
3316 1 1.22739 -7.00763 -9.84821 -1.13036 -0.311953 -4.9685
3317 1 2.60641 -1.37248 4.29252 0.940607 -1.57784 1.97681
3318 1 -11.6495 -0.00853101 16.4952 -3.38936 -2.77447 1.77978
3319 1 0.253239 0.533902 -15.4869 1.38834 0.728817 2.81568
3320 1 4.76602 2.88414 -13.2352 -1.9643 3.58951 5.44737
3321 1 -9.77504 -19.167 19.755 -0.0599726 -4.53914 1.74721
3322 1 15.2584 -11.8297 -23.101 -0.771074 -2.20201 -0.978058
3323 1 -2.34107 16.9738 16.7672 0.350499 3.92073 4.37374
3324 1 10.2305 -19.5837 -9.61213 0.155946 1.73747 0.789415
3325 1 -9.99693 15.2091 5.81306 -0.0956777 -1.60966 1.11708
3326 1 22.4415 6.27143 -22.8424 -0.32397 0.695731 -2.86451
3327 1 8.3964 -23.3392 -7.42645 3.66763 2.07393 0.0382533
3328 1 -0.895883 -17.4745 -11.4232 0.460008 0.706893 -0.585654
3329 1 12.1524 7.47617 -14.4812 2.24784 -1.08406 -1.5667
3330 1 -9.34253 17.7265 -15.3718 -0.00881064 3.77065 3.18611
3331 1 -20.282 -3.60411 -2.63818 -2.70692 -5.26345 3.45088
3332 1 -4.36579 8.09534 20.596 3.02855 -1.52039 -4.17583
3333 1 4.2864 -8.38056 24.3008 3.70045 -0.149742 4.01935
3334 1 -20.114 21.4757 14.9075 3.23328 1.1649 -2.63387
3335 1 19.514 2.23313 -3.91379 -0.492446 -5.79438 -5.14706
3336 1 12.6702 -15.7609 3.86497 -1.47702 5.66616 1.69473
3337 1 -13.0201 10.4134 10.1434 -8.0645 3.87718 -1.94975
3338 1 9.51524 19.7935 15.5892 -3.67817 2.35977 -0.819359
3339 1 12.3313 17.8332 -18.6998 5.57495 -1.28587 -9.02033
3340 1 18.1721 0.876673 -21.4388 0.865712 0.062632 3.27237
3341 1 22.4819 21.6077 -14.8454 -0.857618 -0.229814 3.02452
3342 1 -1.38155 0.254559 4.06409 -1.89856 -2.84041 -2.01142
3343 1 -22.0486 -5.12642 -14.9021 1.68782 -0.6639 2.8182
3344 1 15.6533 -18.8446 18.2827 1.14936 0.0136758 -1.54565
3345 1 13.0253 23.2345 23.9587 3.04853 -3.10466 1.3134
3346 1 10.0676 -23.0956 0.787859 -5.04851 -0.246462 0.618672
3347 1 -23.0817 11.8628 -14.6497 0.633066 0.742903 2.72507
3348 1 -10.7811 -19.8848 1.30946 -0.300459 -1.88827 -0.958265
3349 1 16.2732 17.8532 -12.3824 -5.34758 2.71689 3.14993
3350 1 -5.32693 -6.24107 14.0276 -3.61661 -1.3408 3.36916
3351 1 -21.754 -9.60714 14.1325 6.26539 1.50481 -1.52152
3352 1 4.73475 15.6095 5.99315 -4.40241 -1.26193 -2.96628
3353 1 -23.4069 4.5699 21.529 0.644393 -1.00756 3.21736
3354 1 -15.056 7.01611 -0.95468 -0.846087 2.70195 1.15647
3355 1 -17.5678 -18.9112 -7.09082 -0.624199 0.477105 4.61371
3356 1 -9.44948 21.9181 7.8606 -3.37842 0.0665602 4.26897
3357 1 8.46782 -7.85117 23.3989 0.0760033 1.0512 -0.403959
3358 1 -3.04613 21.3152 15.8511 -2.08508 -2.37596 3.95051
3359 1 -4.7644 22.4488 13.2653 -1.75107 -0.505768 -8.30829
3360 1 -5.55855 -16.6982 16.372 -2.09495 -1.21111 -1.47938
3361 1 -5.5211 23.626 10.6548 -0.512442 -2.53325 0.982872
3362 1 -6.54515 4.7732 -15.945 -0.672218 0.932936 4.51547
3363 1 11.0364 -2.48389 -14.2717 -4.07911 -0.653894 -1.59878
3364 1 -21.3777 -6.94749 -0.215566 1.24669 -1.04382 0.536298
3365 1 1.53178 -9.71745 11.1625 -0.193564 -0.402202 -1.94368
3366 1 -20.4516 -22.7702 -18.4352 3.07083 -0.671871 0.734742
3367 1 1.14973 -18.3064 -19.2184 -3.25764 -2.09354 1.36662
3368 1 19.498 -20.2091 18.8035 -4.97039 -3.33265 -1.0097
3369 1 -5.20173 -1.41503 -9.71896 -2.80946 2.60672 -2.91524
3370 1 -18.7888 -15.6631 -12.7236 -1.69258 3.32562 0.00921807
3371 1 -7.12524 3.53778 11.0788 2.38489 -1.31948 -2.28822
3372 1 6.10069 -3.03707 -7.87186 5.35864 7.26762 1.17897
3373 1 16.7547 -4.06617 20.999 -1.9269 0.394879 -3.17542
3374 1 -24.2247 -13.4917 -22.5582 -3.57584 -1.53262 -4.25346
3375 1 17.4912 -10.4816 0.886404 -1.34274 -0.13606 0.43764
3376 1 -17.1861 6.09533 12.835 -1.90237 -0.908693 3.54637
3377 1 4.61716 -10.7129 13.8002 -5.28688 0.638896 -2.16229
3378 1 -8.81371 -18.1021 -1.30508 4.1228 2.7233 -4.72609
3379 1 8.11906 -5.48284 6.85502 1.71928 -0.288735 -3.05744
3380 1 0.362474 19.323 -23.7229 1.03003 -2.31363 1.94086
3381 1 -5.54715 -17.6131 -20.7672 -0.645027 1.27423 3.33132
3382 1 -21.5515 13.858 17.4482 -3.18167 -5.05256 -1.38497
3383 1 -19.8406 25.6391 -17.5436 -8.21927 -4.3774 -1.35363
3384 1 13.9384 -20.7774 -13.6476 -0.17426 -0.210856 3.77966
3385 1 -4.05746 -19.1146 -5.1106 -6.30764 3.95361 -0.412671
3386 1 12.5483 -11.9791 -21.8578 -0.330957 -1.38853 3.07958
3387 1 -19.6428 -2.81118 1.77883 -0.146428 2.69599 -1.30937
3388 1 -19.1281 -2.97858 17.2126 -5.67595 3.36959 -5.61557
3389 1 -10.8164 -10.275 -12.0239 -5.26276 -3.02845 2.53858
3390 1 -21.8714 -21.9994 14.2569 1.78362 -1.69176 1.16614
3391 1 -7.532 -11.3713 4.9384 1.45336 -7.27983 0.164965
3392 1 -6.9307 5.55601 -18.806 0.950883 1.78539 3.36385
3393 1 -9.05773 15.9256 -19.621 -2.65233 -2.91972 2.23865
3394 1 -12.0455 -4.11235 9.90124 -2.93355 3.57362 -1.67964
3395 1 11.775 -15.4648 10.77 -1.1319 3.20627 4.60068
3396 1 -20.9376 6.49075 -6.62119 -5.30254 -0.317351 -0.403438
3397 1 -5.19098 1.44166 17.3407 2.66228 -2.74354 -1.99355
3398 1 -6.49712 -20.914 -5.19896 -0.869009 -6.84404 1.99596
3399 1 2.14384 -2.17318 -0.0454602 -2.93612 0.257848 -1.13939
3400 1 16.964 -23.5397 -19.9087 2.95077 -2.85823 -2.58067
3401 1 -20.6775 -23.1548 -12.9855 1.86398 2.49642 0.356198
3402 1 12.4211 -17.2384 -17.7206 -1.11078 -1.40593 -0.514733
3403 1 -14.1778 -22.466 -0.0592928 2.80145 4.21943 3.62411
3404 1 -17.4944 -9.28058 -0.346197 -4.78303 -0.561982 -0.630817
3405 1 14.9579 4.93955 12.756 1.16348 4.76991 -1.45819
3406 1 3.63339 -3.52706 2.4159 -2.15923 -1.3742 1.52303
3407 1 11.0141 1.21018 -12.2551 0.457224 -5.9278 0.571145
3408 1 -17.7938 14.0042 -22.0762 4.39748 -0.993896 -1.69782
3409 1 -4.74126 -19.5389 18.9189 -2.12917 -1.60899 2.36353
3410 1 -20.3283 -9.07282 11.7683 2.47052 1.03955 1.757
3411 1 -6.30002 -4.24594 17.8067 5.56143 -3.88961 -5.90077
3412 1 5.233 -4.45721 -10.2666 -2.33139 0.338233 1.4775
3413 1 -2.53485 -17.1212 -17.3243 -4.0969 3.62199 0.0809914
3414 1 -18.5153 4.86845 -6.85574 -1.34926 -0.0156733 2.32147
3415 1 -17.2401 0.383499 -14.5795 -3.7925 1.61988 1.75886
3416 1 22.3703 -22.3192 -4.41954 -2.45286 -0.658636 0.424533
3417 1 -21.71 -11.3192 10.2718 3.66364 -5.80485 1.44277
3418 1 22.1441 18.9991 13.9212 1.44665 0.526769 0.744507
3419 1 -10.1005 -11.4506 1.005 -0.77382 -1.9459 1.87973
3420 1 -19.9214 11.0153 7.68573 -3.71009 0.880706 3.29975
3421 1 11.6058 18.4382 -13.4084 -0.292206 -0.3131 2.68152
3422 1 6.4689 -14.8175 -3.3811 0.200696 1.77184 0.200361
3423 1 -12.2527 3.0237 -0.396677 -0.156969 -1.78732 -5.60736
3424 1 2.81376 -4.59324 -1.22405 -0.703909 3.34507 -0.149693
3425 1 23.0142 -11.1867 17.953 -3.60265 -6.02207 1.84424
3426 1 -20.0748 -6.1958 3.72168 0.496759 -0.47554 -2.82382
3427 1 -24.2278 10.6808 -16.7972 -1.08096 -2.65688 -2.82654
3428 1 -6.10879 14.4358 15.6842 4.59111 0.445143 2.1809
3429 1 2.85565 -17.75 16.1608 -0.161694 -2.04158 0.518668
3430 1 -13.473 -16.6663 19.3402 2.47446 2.20939 1.49815
3431 1 -8.71238 -3.61696 -1.55089 2.5154 -3.92205 2.16647
3432 1 -0.666646 9.7798 10.326 1.95948 1.14045 -3.36464
3433 1 -7.50414 1.33601 -21.9074 1.54836 -0.00972044 -1.75067
3434 1 14.0429 19.8711 -8.43035 -3.78304 1.48013 0.545208
3435 1 -4.19496 22.7737 -14.4555 -1.21516 4.28781 2.09991
3436 1 -4.29039 8.80652 15.6943 -1.85102 -2.5123 1.17342
3437 1 13.4884 15.9784 -6.23783 1.45855 -3.12461 6.36296
3438 1 -21.2175 5.8967 0.635405 0.267592 4.85381 -0.518874
3439 1 2.37737 -13.9689 12.8384 0.863712 1.54153 -4.91208
3440 1 2.95115 21.5683 -8.63694 -1.45723 -2.00127 -1.47025
3441 1 6.07165 -15.4664 -6.36521 1.6188 2.58988 2.71067
3442 1 -8.68074 -0.370383 1.63211 -2.64952 -0.748627 -0.472496
3443 1 20.6155 3.13546 -0.365936 1.03499 -0.576073 2.92802
3444 1 -16.9469 14.0062 3.50717 5.27678 -0.458915 -0.954485
3445 1 -11.7719 3.04725 -13.023 0.410781 -5.45922 -2.63921
3446 1 -2.99231 -21.2544 -17.8053 5.3502 -2.28464 -3.25707
3447 1 -5.23108 5.79643 -8.5929 3.24392 -2.9513 -1.03703
3448 1 -20.5459 3.11088 12.5149 -1.02367 1.19847 1.84567
3449 1 8.04859 24.5902 -17.4583 -1.92815 -0.125699 -2.85168
3450 1 -3.18185 -13.9679 -14.7141 -2.41833 -8.32469 -1.1438
3451 1 5.94519 -13.3505 -21.3 -2.6645 2.38052 1.9962
3452 1 -9.23543 0.00416314 -10.7285 -3.59583 -5.29333 1.41508
3453 1 13.4022 10.9904 -19.4849 -2.04549 -0.786785 4.43903
3454 1 -21.6394 19.2943 11.1449 1.45943 0.840874 5.76731
3455 1 -20.2085 15.6103 21.206 1.64574 0.601355 3.00241
3456 1 10.6417 23.4362 -17.5866 2.24024 -2.14651 3.14329
3457 1 22.9543 15.0208 21.6775 1.66859 3.69254 -3.76961
3458 1 12.1028 6.45977 -22.3831 8.53008 -4.15581 -1.001
3459 1 -1.15989 18.5566 18.9275 -1.10972 -0.811639 -1.21512
3460 1 -1.91076 21.5848 18.701 1.98768 -3.50726 -4.16609
3461 1 -12.4847 46.1289 20.4081 -1.14196 3.29504 -2.41307
3462 1 -11.6853 21.7283 -7.65637 -3.12908 -0.409835 -0.487554
3463 1 19.2382 8.21957 23.817 0.208375 -0.834812 -1.696
3464 1 -14.521 -21.6926 10.9817 1.79989 3.22396 -4.9279
3465 1 -0.120512 -5.51258 9.42145 -2.15614 -3.36829 -0.136955
3466 1 -6.84978 4.68544 -6.55328 2.45787 -2.39975 -4.11485
3467 1 10.8928 14.3738 14.492 1.83907 0.154192 2.09805
3468 1 -7.27477 -7.97076 21.4239 -4.21615 0.33507 -0.476169
3469 1 0.449126 -8.27012 -1.1158 3.61463 1.53539 -2.84203
3470 1 -14.9179 -21.2112 -9.39432 2.41191 -3.50796 -4.22184
3471 1 -16.8171 -19.2585 -18.357 4.43409 2.56635 0.532181
3472 1 -13.2954 8.60206 -17.0378 2.94799 1.23877 4.71818
3473 1 -24.2567 24.9005 -20.0173 -4.76369 0.658692 -0.970139
3474 1 18.1449 -5.30562 11.8705 -3.44755 -4.81912 -2.48062
3475 1 -23.0332 -13.2502 17.8808 3.14882 0.703078 3.78485
3476 1 3.42844 13.2369 14.061 0.246015 4.35658 -6.46808
3477 1 -18.2353 -3.08565 -13.0199 2.84204 -4.1895 -0.436208
3478 1 11.0075 -12.5107 4.77364 1.81928 -2.59745 2.77217
3479 1 14.6054 -7.17544 9.49956 1.36593 -1.60876 2.49909
3480 1 -23.2199 25.7181 -3.15838 2.90391 0.361209 5.99598
3481 1 2.79773 -23.4206 -23.7036 1.91802 -1.65869 -1.91296
3482 1 17.5042 19.3574 -1.00605 -1.85229 1.16436 -2.28908
3483 1 13.3216 22.2156 1.04891 -4.23057 0.235244 4.05088
3484 1 1.63191 13.1334 9.29647 -3.96732 2.77339 2.48757
3485 1 2.68224 9.64314 -5.97563 -6.00497 -1.6438 -1.34437
3486 1 16.7974 23.457 16.0127 3.19612 -1.54644 1.62269
3487 1 10.403 -11.1372 -10.7957 -3.91306 1.49513 2.87851
3488 1 18.5972 16.3924 -11.0578 2.76997 0.635218 -0.15459
3489 1 18.4054 -0.935949 -7.67786 -2.63217 -0.900777 -2.5547
3490 1 -18.4834 4.3234 5.37736 1.1829 6.13769 -3.28462
3491 1 -10.9258 9.83937 22.8789 2.48736 -0.27771 3.21256
3492 1 19.7836 -2.29961 3.00383 -1.82242 -3.28053 -2.35249
3493 1 3.84294 13.943 16.9381 0.249686 0.523496 -0.903091
3494 1 -13.7305 4.75979 21.2772 -1.7104 0.567881 -5.02258
3495 1 -22.5281 -4.70476 16.9235 -1.6995 -0.789233 0.0918291
3496 1 -10.6859 9.50778 -17.5687 -1.40536 -2.58782 1.47277
3497 1 -18.3099 10.9042 17.7259 2.29958 -0.597099 3.04687
3498 1 -16.0527 12.2176 5.92152 -0.599782 1.83251 -4.89667
3499 1 -21.6973 22.0077 -19.4494 3.52288 1.74827 -1.72138
3500 1 19.798 17.9142 -7.08333 2.1392 1.97468 -0.674016
3501 1 -15.9496 17.7289 -7.42492 1.65572 1.62447 -1.48375
3502 1 -7.79467 23.4102 -3.97206 6.4967 -0.680268 3.85703
3503 1 17.1966 -24.2417 3.00484 -0.232621 5.92996 0.240808
3504 1 15.7522 -0.31249 0.863531 1.90932 -4.86286 -0.865487
3505 1 3.68456 -14.6231 4.18451 -0.242485 -0.170595 6.53772
3506 1 -22.9902 16.0693 -3.73697 0.82946 5.98545 -0.795749
3507 1 8.32579 8.72193 -9.12195 -6.90735 -0.507839 2.91295
3508 1 1.05464 -12.3472 -19.4916 4.92839 -3.56796 -1.18023
3509 1 -21.6836 -21.1344 -23.5603 0.834071 0.199173 -2.13413
3510 1 -11.9022 5.39299 12.2477 -0.668487 8.57638 -0.0811553
3511 1 14.1732 10.6586 -2.57487 -0.156782 2.37661 3.77137
3512 1 -20.8398 3.06512 4.09408 -1.64148 0.546167 1.39326
3513 1 -21.2212 -20.8569 -16.8405 0.202547 -3.25139 -6.60372
3514 1 -4.61786 18.8819 -12.0553 1.70092 -0.289932 -2.77281
3515 1 13.4538 -17.688 10.9963 -0.143363 4.84372 -0.272172
3516 1 -20.5348 4.74947 -19.0678 2.2364 -0.485298 2.67483
3517 1 -6.67705 20.3853 19.3519 -0.788392 -1.4009 -1.64328
3518 1 -1.74539 -1.31784 0.383779 -1.42371 -0.0638538 0.000236851
3519 1 -4.51338 5.22177 17.6706 8.84109 2.05934 -1.48814
3520 1 -6.05989 -14.1495 22.1815 -0.447702 2.34204 2.65611
3521 1 3.02835 14.5458 -13.6087 0.124092 1.63176 -2.20422
3522 1 20.4324 19.6152 -23.2234 -0.940969 -0.328073 -2.71625
3523 1 -11.8459 -19.9048 7.84732 -0.905538 -0.301597 1.71459
3524 1 0.621844 25.0547 -1.00415 0.707293 -2.26283 0.753829
3525 1 -15.4038 15.113 -20.5693 5.37483 -4.23132 3.43658
3526 1 11.3807 18.9883 -6.09805 5.34009 -4.29096 -0.37142
3527 1 -2.19782 12.8699 8.43543 4.18901 4.68499 -0.414433
3528 1 -23.6205 -24.4588 -1.16319 0.491571 0.344666 -1.59398
3529 1 -19.3676 8.18166 17.2926 0.719109 -0.578748 -0.947672
3530 1 -10.3028 11.2816 7.31649 -2.86842 2.39854 -1.50188
3531 1 3.79885 7.71486 23.1322 1.44966 1.44285 -1.75343
3532 1 -9.29708 13.3105 -6.89647 3.09174 -1.76938 4.80815
3533 1 14.4204 9.34645 3.8988 -4.33841 1.00045 -2.22309
3534 1 4.82517 -5.06474 19.1749 1.52373 -1.84233 3.9288
3535 1 10.5379 -23.4366 -16.2677 -0.903569 4.1613 -3.50933
3536 1 22.3937 -16.601 8.57614 3.00462 1.32316 -0.594517
3537 1 20.8637 22.8298 19.2259 4.49616 -1.32273 3.52275
3538 1 5.55751 -5.3661 16.5794 -1.00698 -0.217331 -1.18183
3539 1 14.8722 24.2232 -11.9621 3.47591 -3.2391 -5.67026
3540 1 -0.611843 12.8891 -3.96854 1.15365 -1.0803 -3.40309
3541 1 15.3021 -0.296966 -21.9193 2.92438 -3.7524 0.738227
3542 1 21.7106 -0.488043 4.13659 4.15443 -1.59049 2.76629
3543 1 -17.3445 13.5645 -5.8758 -4.68024 -0.811942 -0.136291
3544 1 -10.53 18.7722 -4.90219 -1.45015 3.25115 4.36565
3545 1 1.50382 20.2707 14.9436 0.85823 2.80465 5.19388
3546 1 19.902 15.2982 -8.62299 0.811392 -1.23636 -2.6539
3547 1 6.26082 -16.9657 -9.1211 -6.31947 -2.12983 -2.97812
3548 1 9.85593 -14.6524 -20.4104 -3.39345 -1.49717 -3.70163
3549 1 -12.6432 8.37568 5.43022 0.0488885 -1.8387 -1.51321
3550 1 -15.2051 15.2275 9.14408 2.52691 1.33178 3.07684
3551 1 12.6927 3.0569 -19.8797 4.41884 2.28965 0.841503
3552 1 14.0446 18.1185 6.74228 -1.70883 1.40849 -2.17249
3553 1 -10.421 16.0581 -3.72347 -4.09875 -1.26166 4.59541
3554 1 13.9721 13.8481 -13.0538 0.724512 1.9434 2.08992
3555 1 -23.8348 -20.4612 2.1426 4.86669 -2.97455 3.98946
3556 1 -8.66774 -15.8448 19.4744 -4.35578 3.41542 -3.98469
3557 1 7.23828 5.11197 -20.3302 -2.86874 1.75262 -0.928292
3558 1 -18.8394 -13.3601 -0.754614 0.900013 -3.41119 -0.752745
3559 1 12.6095 -6.96094 11.6877 4.31502 1.46639 -0.642633
3560 1 -19.6147 18.2471 -16.9646 1.95559 -0.741023 0.684677
3561 1 -19.7174 19.8535 6.75694 2.10689 -0.0626371 -0.156251
3562 1 16.8782 12.1902 1.60995 1.34309 -0.315895 4.30671
3563 1 2.73676 -23.8978 -7.02272 0.578021 1.16114 0.17567
3564 1 19.788 11.9064 -13.6577 -4.23118 -0.205875 0.485286
3565 1 14.717 -20.9173 -7.70011 -0.340125 -4.81886 -0.621252
3566 1 -11.5611 -16.7098 4.88335 -0.295039 2.01154 -2.17487
3567 1 3.00267 -9.96675 8.23093 0.0393417 -1.99641 -1.79881
3568 1 17.0125 1.95484 13.9944 -2.89013 2.73112 -3.29451
3569 1 -4.54507 4.06305 -12.3505 -2.90023 -1.84433 1.36302
3570 1 12.7756 21.358 21.6423 0.187014 -1.27294 0.957977
3571 1 3.04938 25.8249 11.277 -1.81276 0.425229 3.45531
3572 1 -15.2399 -16.8042 -17.9938 -9.22991 -0.48556 -2.76684
3573 1 17.4223 -3.01766 -3.36021 1.83026 -3.1825 1.32152
3574 1 -14.3358 -3.71105 -12.9001 3.08476 -0.702799 0.272978
3575 1 -11.5635 -12.8327 -8.83117 2.61294 -1.93008 2.23815
3576 1 13.1372 3.53184 18.5316 7.03269 1.32201 -1.17231
3577 1 -8.74122 7.43752 -5.47665 -4.67267 -0.275329 0.325396
3578 1 19.5266 5.05153 19.3344 -3.93243 3.13853 -4.06576
3579 1 -18.0179 -12.4478 -7.66424 -2.78856 -2.60735 -1.28118
3580 1 -0.591447 -13.4438 6.15839 1.20317 1.75361 2.71745
3581 1 -14.3833 9.21622 3.49396 4.47928 -1.81295 2.11017
3582 1 -14.5963 46.7375 15.7396 3.03346 2.15438 -2.77353
3583 1 -15.9578 17.3713 7.69835 -1.47823 -0.994559 4.93127
3584 1 10.2319 6.16014 22.7828 -0.163942 1.47769 -2.0224
3585 1 10.2951 -2.42835 10.1249 -2.42267 0.520504 -1.69288
3586 1 15.702 -1.1602 -10.2396 1.41422 -3.12954 -3.34344
3587 1 22.8059 -13.3139 -18.0223 -4.35322 -0.57443 2.80044
3588 1 -21.8039 -7.28257 -9.49598 -2.68413 5.75571 -1.60957
3589 1 -13.5413 3.36426 -9.52979 0.860058 0.646178 0.0894451
3590 1 10.7111 3.68332 -3.43646 -4.90549 3.12278 -1.38289
3591 1 -8.16173 -10.627 23.6957 0.0904892 -0.403454 -0.0187095
3592 1 -7.38666 -14.2316 -5.65247 -4.15089 6.02924 -1.19036
3593 1 13.9574 -6.90208 -13.9666 -2.08037 -2.48124 -3.86372
3594 1 12.1613 0.595811 6.19773 -1.76713 -3.48909 -2.64129
3595 1 -1.41045 -17.5029 9.01156 -2.41317 7.6622 -1.67684
3596 1 -6.93107 -11.8641 -8.92685 2.21996 -1.80435 2.62017
3597 1 -4.22828 14.9373 5.0858 -0.169062 -4.88114 0.0378544
3598 1 -15.4235 -12.033 -5.08596 -0.165267 -2.18985 6.20455
3599 1 16.0476 14.455 -8.8168 -7.21294 -2.20395 0.107298
3600 1 -17.3653 24.7809 -8.77025 -4.50274 3.31784 -0.713933
3601 1 -21.0068 -13.26 -4.64689 -2.68632 -4.90339 3.33225
3602 1 3.18563 24.4729 23.7433 0.870465 1.32942 -0.821843
3603 1 -4.34225 -3.30243 9.43809 -1.90889 -0.80327 1.60298
3604 1 10.6498 13.6024 -22.8891 0.947403 0.268757 -6.21487
3605 1 20.1163 20.7369 12.8244 4.50876 -3.13644 -1.41989
3606 1 4.12684 7.05159 -12.2685 1.36473 -3.14823 -1.09843
3607 1 -21.8907 4.86391 18.8283 1.54342 4.93414 3.29664
3608 1 20.4862 22.8703 -16.3527 -1.40728 3.41756 -0.59638
3609 1 9.39373 -12.8075 8.71924 1.88423 0.962961 0.447584
3610 1 12.9937 11.647 -22.3923 -2.97849 -8.18445 1.72045
3611 1 -16.8106 21.3858 -14.5391 5.59443 -1.35533 0.299721
3612 1 -0.387218 15.8989 -4.18998 4.59633 1.45845 6.46946
3613 1 1.54213 25.3973 13.6261 7.31295 0.497245 -5.36122
3614 1 0.0286712 -5.87959 -5.44837 -2.71187 2.52242 1.51419
3615 1 3.53645 19.6752 0.686727 -0.557158 -0.699944 -5.21855
3616 1 -10.9609 -11.0468 22.5241 0.95485 -2.06496 1.65482
3617 1 13.2196 0.374814 -18.414 0.867536 -0.24855 -0.534292
3618 1 0.00264822 -8.14456 -12.2008 1.53192 0.290448 2.43795
3619 1 -0.366667 18.8258 7.50605 4.41915 2.27733 1.90887
3620 1 -3.34855 15.2588 -9.59766 -3.25237 -4.48516 2.34436
3621 1 -9.79109 12.8714 13.0727 1.8797 4.16275 6.85871
3622 1 6.12638 -11.8997 11.4423 0.383383 -0.522573 -3.85889
3623 1 10.5038 -1.62086 16.9903 -1.48519 -5.06984 0.830917
3624 1 20.882 -8.96308 3.75702 -5.70198 1.5459 -3.80157
3625 1 9.48236 -17.3646 21.4838 -0.61705 6.80395 -2.55274
3626 1 -15.8757 4.00424 -7.66687 -2.00468 -3.98043 2.85944
3627 1 -7.28668 18.9811 10.2678 3.35439 2.41309 0.00946931
3628 1 8.74177 0.0531171 9.83446 -1.35315 1.59064 4.84946
3629 1 -3.62307 -0.932647 2.77491 -2.12182 -1.80235 -0.607745
3630 1 5.19688 -13.325 0.265676 -7.1988 -3.74497 3.72245
3631 1 4.73166 10.7634 18.9448 -1.17046 -1.56757 4.60073
3632 1 -13.3678 -16.5951 12.6151 1.15694 0.0404014 -1.37035
3633 1 9.9681 7.97048 -5.81393 0.151326 6.02211 -0.599659
3634 1 -0.668105 5.25024 8.71501 1.86924 3.66728 -0.148573
3635 1 0.992928 -15.1833 -18.8901 -1.3722 -4.52014 3.38513
3636 1 2.71815 -18.5247 -13.7327 -2.91283 -5.14031 -1.651
3637 1 -4.20472 12.3898 23.03 1.09142 -0.417508 -3.65888
3638 1 21.5446 -8.56012 19.8523 3.93918 0.933353 1.16749
3639 1 8.44522 -16.6431 3.61868 -5.01418 -0.360725 -0.0738433
3640 1 17.1314 -18.8214 -10.9161 5.65715 2.65824 0.0771308
3641 1 4.95956 14.0172 21.9477 2.02755 2.20562 2.11392
3642 1 -2.78193 -15.9518 7.26076 -2.41735 1.50252 2.9821
3643 1 -0.0632424 2.95226 4.54771 -1.64682 3.40233 0.653554
3644 1 19.9559 23.7786 -1.35381 -0.124864 -0.279509 3.17664
3645 1 -16.6079 -15.0906 -7.03122 -0.493359 0.594665 -0.0570789
3646 1 15.9312 1.14889 -18.3373 3.41815 1.96823 -2.75964
3647 1 16.8511 -19.4548 7.46631 -0.505918 -0.13541 -4.10401
3648 1 23.4752 -21.5867 -1.66553 -3.02535 1.68551 -0.770239
3649 1 -17.4279 0.20172 -17.5993 3.32807 -1.76994 4.09395
3650 1 9.16465 -9.34035 -17.1943 -3.45693 -0.0761899 3.41429
3651 1 -9.25845 7.68844 8.83939 3.0588 3.15204 2.17744
3652 1 22.2554 -12.8891 15.6395 -1.21979 -3.24583 -4.95578
3653 1 0.603327 16.1709 0.0921851 0.998951 -2.95085 3.99829
3654 1 -16.7713 20.418 11.8318 -4.35688 -4.83305 1.34195
3655 1 -7.02601 25.0343 -12.1128 3.14249 -3.64459 0.323875
3656 1 -10.465 -21.9347 19.1872 2.33746 -0.116323 1.17146
3657 1 -24.0755 25.4519 -9.67942 3.96625 2.4121 2.41367
3658 1 23.1052 14.9658 14.7264 -1.38675 -4.16504 -2.39254
3659 1 19.5984 6.35901 -21.6928 1.82567 -0.757267 -0.116783
3660 1 16.9288 9.47257 8.45364 3.63725 3.26573 3.68801
3661 1 22.418 9.66785 -19.0537 2.40307 -1.12873 -0.566925
3662 1 -1.11749 -1.94706 -22.6958 -1.1816 -2.11676 4.29102
3663 1 -20.8775 -15.367 -10.6186 0.235 3.96834 0.523207
3664 1 6.67394 15.8839 13.0767 -0.895832 2.30027 4.07105
3665 1 11.55 -10.7938 -16.5619 2.11326 -3.39103 2.51822
3666 1 6.03571 -19.0549 23.053 -1.84491 -0.937593 -0.00424234
3667 1 13.5936 13.6809 -16.0239 1.93361 0.915801 -2.909
3668 1 -14.6786 -2.71004 22.554 -2.56232 -3.16981 -5.57424
3669 1 1.23358 21.6838 1.25222 -0.135752 -2.26458 -0.58755
3670 1 15.5163 8.15028 -5.93759 -0.702643 -3.84762 0.940875
3671 1 -2.41764 8.549 -12.0843 1.34209 -4.79626 4.27326
3672 1 -14.2907 8.20477 13.7065 5.03496 -2.06555 -1.61221
3673 1 -5.90196 -24.1 22.1538 0.302616 4.01699 -3.5029
3674 1 -1.51896 -2.14618 -7.43284 1.23979 3.79155 2.89315
3675 1 -14.693 20.0408 -8.9944 2.9703 -1.39588 0.545519
3676 1 16.2852 13.3095 -11.4771 -1.33197 -3.37811 4.69048
3677 1 -8.68839 15.9023 16.408 1.46959 -2.37469 -1.18015
3678 1 -18.1854 9.06471 12.8795 -0.527186 2.75154 1.18778
3679 1 11.2143 -18.7759 -4.80908 5.29769 7.9252 1.76605
3680 1 12.972 5.24997 22.9514 0.435908 -3.25085 1.47932
3681 1 -6.54215 -0.97435 14.3354 1.67773 0.562501 -8.01143
3682 1 -22.604 -23.8394 16.2644 -0.114368 -0.927226 6.29516
3683 1 2.95864 11.5486 5.9287 -2.99041 2.67083 -6.38772
3684 1 13.3981 15.0675 -23.7873 -2.25923 -1.52183 1.74001
3685 1 8.29394 2.08497 0.0216051 -2.30584 6.3704 2.06982
3686 1 -23.001 11.1058 0.868536 2.58951 -2.80121 -5.10216
3687 1 9.97011 -17.7167 11.7289 0.130187 3.38594 -3.64225
3688 1 -9.89405 -23.2782 -1.29812 3.83873 0.665892 -1.5815
3689 1 19.853 13.8914 -16.9006 3.20755 -0.325612 1.98419
3690 1 -9.35005 5.40548 -7.81098 -3.37387 8.0921 -1.65021
3691 1 21.705 44.2662 -7.68131 -3.57919 -3.19974 2.95879
3692 1 8.04326 2.14885 -19.6 4.20063 2.68231 -4.67539
3693 1 5.74373 24.2745 -0.16627 -3.51867 0.125538 0.578757
3694 1 -20.3629 1.92124 -3.94828 -2.36643 4.87153 2.26723
3695 1 -5.96522 -5.9301 1.36382 2.38876 5.47964 4.75726
3696 1 7.4599 2.21184 -14.1936 0.0776626 1.03669 2.82495
3697 1 7.85684 7.37522 5.41816 -0.912142 2.2376 -4.16273
3698 1 -22.8184 3.23064 14.6679 -0.319074 -1.40615 -0.956323
3699 1 -9.15183 -6.13711 11.5105 -5.22676 -0.227523 -2.48286
3700 1 -4.22678 -19.19 -16.1467 -5.69111 3.87531 -2.93615
3701 1 17.0137 -2.6179 13.0376 -1.64791 -3.54159 0.0117479
3702 1 -8.09656 -2.83109 -13.2379 -1.18322 -1.27574 3.08936
3703 1 20.9648 14.6086 -22.7166 -0.295855 3.63813 -0.0639963
3704 1 17.5279 -0.100772 11.7501 -3.08926 4.63839 -4.33002
3705 1 7.66616 -0.705363 0.903811 2.4987 -4.62267 -2.44426
3706 1 -13.4266 5.68648 -16.2274 2.84227 -0.828406 -6.07705
3707 1 18.6547 8.70569 -15.7529 3.30451 3.81724 5.14706
3708 1 6.04851 1.89222 5.32343 3.01761 -0.349233 -1.12186
3709 1 -20.4334 16.3097 5.2139 3.81209 1.82391 4.45087
3710 1 -6.86237 -10.3104 17.0581 0.34403 -1.15679 -0.501724
3711 1 -13.1702 12.0554 18.0643 5.92112 -1.57069 -2.01576
3712 1 17.4317 24.2289 -5.58659 -1.64825 0.614217 3.32418
3713 1 1.49427 20.9206 6.07818 1.62066 0.186509 -1.36521
3714 1 -13.3465 -0.56979 21.0455 0.386939 -4.30415 -1.11288
3715 1 18.4944 19.2778 17.9988 3.9624 -2.73309 -1.98419
3716 1 6.94128 6.16102 0.392589 -3.16285 2.36091 -2.27822
3717 1 -2.6254 15.4261 -19.2108 4.46694 -4.38449 2.02445
3718 1 -17.5473 5.99692 2.82989 1.95683 1.20643 0.371813
3719 1 -1.06429 16.4019 -6.92969 0.896191 -6.65769 -2.32867
3720 1 16.2031 15.9922 18.1126 0.605511 -4.06869 2.38963
3721 1 0.60809 19.1994 -10.1649 -2.10284 1.00033 1.92955
3722 1 19.3966 -6.37246 5.88081 -2.07483 0.980576 0.348127
3723 1 8.41993 5.2794 -16.2919 -1.59832 -3.96612 6.62849
3724 1 -3.03233 -3.16811 -1.31003 3.55548 5.66416 8.03322
3725 1 -13.0445 21.8902 -3.1617 1.88373 -2.06325 5.16217
3726 1 -7.73812 -14.2935 -15.0537 0.989354 -3.38367 -1.45683
3727 1 6.00694 -10.6139 -22.509 2.51568 -4.07354 -2.51672
3728 1 16.073 -9.09471 -23.385 0.370349 2.58511 -2.07117
3729 1 -23.291 -9.09437 -11.6253 3.01592 0.612074 0.0540073
3730 1 11.6245 -1.55099 12.674 0.420709 3.27397 1.1931
3731 1 4.9925 -20.2691 -21.1773 -3.59399 6.32385 -7.19405
3732 1 16.2688 19.9838 6.19815 3.35078 -0.992211 -4.47344
3733 1 3.77892 -16.041 -2.96607 1.7365 0.695559 3.03158
3734 1 15.1065 17.1504 -8.29564 2.63654 1.01799 -6.16777
3735 1 -4.48147 18.9704 -0.417307 0.588713 -2.20266 2.21298
3736 1 -22.8787 13.6459 -9.15828 -2.82761 -0.868385 3.3332
3737 1 3.95668 5.62784 0.269453 6.6652 -1.01113 -5.29511
3738 1 -7.59998 -8.04222 15.4903 3.51761 4.11788 5.42179
3739 1 -0.319984 -2.11846 5.31133 4.37728 -3.23293 2.23255
3740 1 5.3243 -0.987015 -20.8901 -1.00341 2.32169 2.11482
3741 1 -19.5356 9.76981 -5.12291 -1.98368 -0.609068 0.0186561
3742 1 -1.40528 -18.5111 -15.0211 2.96122 9.71183 0.309803
3743 1 5.46101 -12.8853 15.5969 -1.11064 -3.09503 -3.37923
3744 1 -18.0396 16.6537 -0.0783512 1.36365 1.5688 -0.505767
3745 1 2.02254 -6.75101 10.5937 9.54921 1.8338 1.79735
3746 1 7.36145 -19.3114 -3.40855 -0.645963 -0.148962 1.72289
3747 1 -17.3615 24.3739 -17.3589 1.33192 -1.98553 -0.237235
3748 1 -15.4658 -0.838664 -19.7955 -2.86088 -1.06501 -2.81233
3749 1 -21.2141 -0.206778 13.8307 -4.85404 -3.81505 -3.87379
3750 1 14.0091 25.3741 -14.1904 -3.154 4.60967 2.86429
3751 1 -5.11215 -2.8894 0.961211 0.99469 -2.29869 -0.212449
3752 1 -20.1862 15.7309 -15.5526 1.24992 1.80194 6.41902
3753 1 5.75595 -4.05268 22.9487 -2.22292 -0.408246 -0.293003
3754 1 -9.83657 8.60424 6.11761 1.01882 -5.44066 -0.438764
3755 1 18.0094 4.24301 -9.87783 0.622792 -1.59325 -3.24316
3756 1 -12.2314 -20.6187 -19.7878 -4.36098 0.860293 3.58605
3757 1 -2.04728 22.3125 -1.30501 -1.27116 2.35861 -0.0642974
3758 1 21.4134 -5.48494 -15.0667 1.53548 -1.19536 3.34591
3759 1 -12.0162 10.9346 -22.5691 0.554244 -3.78151 2.33799
3760 1 15.2795 24.0497 2.85014 0.748751 -2.83478 -0.153253
3761 1 18.3357 -11.3597 -16.303 -3.22265 2.6454 4.2961
3762 1 8.89294 -10.0123 9.60621 0.130051 -1.7156 0.792601
3763 1 12.4632 10.1821 7.88222 -2.0437 7.00311 -2.84686
3764 1 16.3205 -12.4786 20.4313 1.87598 3.14073 1.29621
3765 1 22.4618 46.2424 -3.24917 0.214835 2.58893 -3.42878
3766 1 -12.7865 20.45 12.3722 -3.13267 -3.036 1.75404
3767 1 -11.7154 -22.3946 0.930907 -2.85629 -1.10452 -3.14152
3768 1 -0.778274 6.20297 -16.1162 -3.67805 -2.5755 -3.51368
3769 1 -21.91 -19.3297 8.27914 -0.681685 3.84802 0.0287626
3770 1 -9.23167 -5.04944 7.18397 -4.21767 -2.90273 2.45737
3771 1 -17.5124 19.735 21.7402 -2.52953 4.03689 1.87615
3772 1 16.7048 -15.5991 -2.71288 0.693631 -0.457931 2.67916
3773 1 -0.0140373 -4.29568 14.542 0.774029 -0.131139 -1.72981
3774 1 -7.81208 13.563 2.75134 0.577828 -1.46844 -1.97715
3775 1 2.76558 -5.004 -11.5335 0.309684 3.38674 -3.73452
3776 1 11.6813 -5.2625 15.8661 6.18188 6.08518 -2.65565
3777 1 11.5864 -7.39192 -1.03957 0.682663 -1.84644 -1.21635
3778 1 5.74382 11.6211 -11.6705 3.47817 1.83707 1.84638
3779 1 -8.85427 -0.760559 6.36443 3.39835 -4.02679 -0.776604
3780 1 23.5155 21.0203 -19.1164 -0.426602 2.58578 -2.59084
3781 1 -5.46314 -5.41001 7.61704 2.90101 -0.202636 3.44368
3782 1 2.76233 -11.9336 -17.26 0.91825 -0.411792 -2.75038
3783 1 21.2414 19.5677 5.20016 0.0797317 0.639782 1.56158
3784 1 11.9149 1.03575 3.34982 -1.46544 -5.69961 2.55288
3785 1 -3.22904 47.0109 22.2771 0.748274 0.112847 5.95527
3786 1 19.9326 7.81478 16.1063 -3.77785 -1.58574 -3.36861
3787 1 12.9365 20.8235 -14.6041 0.311593 -4.08586 -2.21248
3788 1 3.51089 15.2708 10.0242 3.11363 0.829706 -0.521241
3789 1 19.1385 25.0715 -10.8187 -1.83203 1.08125 -2.47066
3790 1 5.57122 -18.0979 -1.60669 3.03703 -2.74986 5.89353
3791 1 -9.40492 16.8282 -12.6334 2.73122 -0.609678 3.4756
3792 1 -11.1924 -8.06753 11.0099 -3.35296 2.19067 -3.65011
3793 1 -13.4375 20.8689 3.04942 -2.56014 1.28383 2.88631
3794 1 -2.77335 -19.7207 -10.1491 -5.70786 -0.456707 8.0691
3795 1 12.777 23.0813 19.3425 0.682038 3.77187 -0.244484
3796 1 -13.8573 -11.0108 -9.35496 1.28848 -0.908314 -4.34242
3797 1 -15.2612 -17.8428 8.06147 2.01658 -3.02637 1.8727
3798 1 3.4701 6.78086 -5.09825 7.40091 1.0467 -0.399013
3799 1 22.6115 24.2933 -7.51596 -3.68496 0.0187951 1.25291
3800 1 12.5135 1.83382 -1.90094 -1.15692 2.65262 0.321846
3801 1 5.25658 15.929 -8.96895 4.73792 -0.692385 -1.55567
3802 1 5.72871 1.78466 -21.5701 -0.270513 -2.01992 0.937654
3803 1 -19.2018 -5.07816 22.8406 -7.0827 1.69209 -0.00949193
3804 1 13.5854 17.0245 11.2229 2.39908 0.865054 -0.248554
3805 1 -4.95526 16.331 -17.3771 0.643998 -6.24022 -3.3665
3806 1 3.01912 2.83491 -2.43142 -3.51293 3.42623 -0.564242
3807 1 -8.52011 22.402 -18.2417 -0.733795 4.23533 -0.320106
3808 1 8.67785 -12.3908 -21.7717 -2.82456 -1.28204 -2.20096
3809 1 4.42414 -23.1058 -20.2207 0.681268 -1.00773 -0.356048
3810 1 -19.0467 -4.59454 14.8204 3.33066 3.04977 0.47572
3811 1 14.1497 -14.5727 -23.7292 -2.04539 0.597348 -3.23591
3812 1 -4.96996 -12.509 0.277392 1.29697 0.514266 -2.39496
3813 1 15.1304 2.522 -2.71975 -2.38649 2.74242 -1.57224
3814 1 1.85963 9.91945 11.6322 0.484818 -5.44357 1.02824
3815 1 0.266439 21.4718 22.3526 -2.46539 1.46927 -4.81507
3816 1 -15.3931 -9.40506 3.08449 -1.94606 1.83124 -2.84535
3817 1 8.68166 10.1817 -3.0859 -0.586394 -2.32718 -2.79264
3818 1 11.4415 16.7228 23.0508 -0.819091 4.30789 0.306806
3819 1 0.820223 21.8179 17.3075 2.54331 -3.58032 -6.25252
3820 1 22.4751 12.4329 -7.06295 1.18919 -1.35616 -0.462726
3821 1 9.62901 -11.9056 14.1107 -2.0796 -3.2371 0.602098
3822 1 10.0702 6.90309 9.13872 3.282 2.5085 0.264037
3823 1 -3.56375 -17.7639 -7.97754 0.60903 0.423632 4.02798
3824 1 -8.35994 -21.4247 -7.50127 0.951478 -7.63663 3.70401
3825 1 21.7787 -12.5823 10.0554 0.259653 5.13871 2.3524
3826 1 -1.04625 15.3733 -12.5575 0.82628 1.10574 1.12097
3827 1 -1.03127 6.56498 19.9348 -7.15376 -0.229568 -3.9908
3828 1 -18.1228 21.5725 -16.9976 -3.39536 -1.68873 -1.60159
3829 1 -13.1918 -15.4607 -4.52259 1.50942 1.35204 -4.062
3830 1 15.7357 -13.2582 -14.439 -3.76167 -1.88029 1.48641
3831 1 -4.70415 21.4632 -1.85248 1.57158 -1.709 -4.45089
3832 1 -24.181 -0.552411 2.13997 -5.9153 2.31655 3.31305
3833 1 19.7511 -2.78531 -9.67936 2.54244 -2.71326 -2.86788
3834 1 5.17374 8.05374 4.18273 0.501638 7.00044 -1.04264
3835 1 20.1441 46.903 -1.4861 -0.85666 -0.943199 -0.35254
3836 1 19.6388 12.399 2.5633 -0.847435 -5.84231 -0.424196
3837 1 10.3087 11.9771 3.81469 4.21659 -2.4145 1.5183
3838 1 -4.51807 3.8196 -1.12211 -0.0746681 1.53092 0.0977737
3839 1 19.7245 4.95317 1.8348 2.94239 -3.72175 7.89431
3840 1 -10.0723 46.6853 13.3352 4.36875 0.724293 3.3654
3841 1 22.9898 2.86633 10.354 0.101568 4.15924 0.463633
3842 1 -21.0946 0.17923 23.4738 -1.06681 1.72433 -2.60465
3843 1 -1.574 -17.807 15.7438 -0.464244 -2.5376 -1.56513
3844 1 -21.697 -14.3755 6.81606 -2.25081 1.22563 3.09371
3845 1 -2.94797 6.21327 -22.4345 1.47573 3.28776 -0.730172
3846 1 23.5455 19.5085 19.7717 1.2401 -1.81678 -0.18247
3847 1 -19.3268 -18.3482 -13.0005 0.0999435 4.19797 1.7002
3848 1 7.24547 -15.0625 5.69666 0.542806 -4.19427 -0.288326
3849 1 15.5536 12.3293 -23.3617 2.21386 2.37644 -0.873426
3850 1 18.5232 -21.6841 -22.6335 2.84276 3.22847 3.14123
3851 1 -3.81002 6.1746 -4.31904 -0.715611 -0.318449 4.74168
3852 1 -5.77737 21.2046 16.6128 -0.733214 3.57997 -2.15832
3853 1 18.708 -12.8558 2.49024 -1.34541 2.44674 4.10738
3854 1 18.0253 11.9961 -1.31417 0.982748 3.42687 -4.4327
3855 1 -5.57165 -6.60982 19.6395 -2.52517 0.504844 2.52276
3856 1 13.903 -15.4408 -2.79493 -5.41648 -2.03416 3.08857
3857 1 -13.2 46.2377 -12.0001 -3.47326 -0.986718 -0.799263
3858 1 17.1805 4.59212 7.2724 -2.67781 -4.05576 -2.36605
3859 1 21.841 18.2745 8.94119 1.3116 0.927389 1.29966
3860 1 12.1041 -13.2147 -14.6672 -4.44215 1.16395 2.45293
3861 1 -17.0608 -13.9744 22.7208 4.94276 0.874523 4.37612
3862 1 -4.62908 4.0444 -18.3439 1.70612 5.30233 0.161357
3863 1 -13.4751 -5.19473 11.9455 -3.38197 7.65319 -1.32279
3864 1 -3.31155 -2.36874 -15.362 0.406708 2.86108 -1.32287
3865 1 1.6872 -23.9597 15.2083 2.8136 -5.99127 0.769804
3866 1 10.726 -15.3855 7.92017 0.0277887 2.31404 -0.109988
3867 1 -24.4899 2.54931 2.02991 0.102246 -1.50522 -0.663726
3868 1 5.15996 7.82722 -2.86302 1.05591 -6.48098 -2.06486
3869 1 -7.10219 5.78215 8.03971 -0.58737 3.3 -2.12739
3870 1 14.3155 -18.6623 -9.98365 -3.24532 -1.51447 3.09623
3871 1 19.2681 -1.25645 21.8471 0.527092 -1.85133 -3.01036
3872 1 23.7365 -20.8302 -8.07749 0.871445 -1.80536 -2.35194
3873 1 -6.87445 5.70493 13.4063 1.03119 2.45403 3.88487
3874 1 -18.401 -22.4689 -14.642 -3.54093 -0.939273 0.660378
3875 1 22.4794 0.202557 6.92164 -1.32571 0.481089 -3.48285
3876 1 -22.4531 -10.9593 19.6402 1.45395 -1.9317 1.43954
3877 1 -22.4957 -0.0575558 -3.36855 2.27257 2.33518 4.68229
3878 1 9.22945 -18.011 8.90357 3.35473 1.77662 1.74862
3879 1 17.4796 -11.9597 22.9065 -0.40533 2.75849 -3.18722
3880 1 -8.84191 20.1491 -22.2345 -7.33994 7.40366 0.550977
3881 1 -14.7898 2.17393 -14.7705 -3.5381 -0.589171 -0.647174
3882 1 22.8203 20.2363 -1.5979 -0.0836052 -3.60452 4.64754
3883 1 22.0542 16.7052 -9.64964 -5.52971 -6.84096 0.250729
3884 1 13.8431 -18.3483 -3.71119 -5.47718 -3.50129 -2.60952
3885 1 12.1716 26.1595 14.0886 -0.936557 -2.08425 2.57904
3886 1 -11.4813 -14.684 -6.69648 -2.24817 5.56387 -5.06526
3887 1 2.87696 -13.5505 -21.5273 -1.80326 -0.672029 -0.638967
3888 1 -5.99863 8.25468 -19.8538 -1.02111 0.86515 1.20908
3889 1 -17.4717 15.7334 22.5032 0.552596 -0.781004 1.20745
3890 1 3.09026 18.0488 15.7147 -1.83116 -4.53581 2.81727
3891 1 4.11018 -11.9216 18.1615 -0.445081 -4.28782 0.35952
3892 1 -11.5407 21.6096 6.00956 3.96681 0.696319 4.44286
3893 1 -6.61637 12.0877 11.6413 -1.55868 0.997686 2.82047
3894 1 12.3129 11.651 -12.6975 -3.38941 2.98563 2.83999
3895 1 15.6703 -6.10297 -2.40778 -0.176075 -0.672146 1.05562
3896 1 -5.27038 -9.9662 -5.2359 0.176194 -4.47217 2.15242
3897 1 5.95488 16.6446 23.0627 3.35313 5.63242 2.31442
3898 1 18.4996 -3.61967 16.1705 1.46353 -1.34575 -3.40599
3899 1 4.20539 10.3653 15.8485 -2.07214 3.18831 -2.05474
3900 1 11.2695 -18.4449 -13.8551 3.12892 4.67224 4.61565
3901 1 -14.278 12.9815 -11.5362 -1.3444 5.98139 -3.5416
3902 1 13.4722 13.3333 -7.97377 2.47229 2.84651 3.27182
3903 1 -17.8438 -14.3847 3.76079 0.610026 -2.13333 0.810569
3904 1 10.1047 -4.61178 -7.7155 3.788 2.84285 2.66103
3905 1 1.11783 -13.0964 3.77866 0.638985 -0.826655 -3.41332
3906 1 -16.0134 8.7509 -5.92278 0.198052 0.261404 5.55325
3907 1 -18.3722 0.0637004 10.3253 3.81874 1.21442 2.25835
3908 1 21.5534 -14.9185 13.7354 -4.33583 -0.860792 -0.338545
3909 1 2.38064 -7.73375 22.0034 -2.6521 -0.406003 1.52077
3910 1 -6.59393 16.8102 -5.54711 -1.10716 -1.55112 -3.04129
3911 1 20.3907 19.8676 2.47118 0.170807 3.33757 -1.6947
3912 1 -9.63984 -8.84633 2.28396 1.85341 -1.26015 -0.708841
3913 1 -10.0828 4.54711 0.637157 6.16629 -0.410802 2.04005
3914 1 10.4057 -12.1726 -7.35778 -0.852896 5.48509 -0.75076
3915 1 5.1598 -0.800957 6.13656 2.44671 1.08274 -2.3683
3916 1 23.6941 -11.6453 21.7698 5.85699 -1.28892 -3.22534
3917 1 -0.974092 -6.10082 -8.06605 1.86654 -3.04275 -0.618392
3918 1 10.9615 12.5587 -16.4151 -0.436846 -1.57562 2.34321
3919 1 6.42363 -13.3574 19.1146 0.329879 5.11036 10.2357
3920 1 -11.4577 7.93523 13.5993 -3.93461 -1.31278 1.58921
3921 1 19.1173 6.94246 -19.0478 3.46276 -0.208861 2.2873
3922 1 -13.2871 -14.4831 -16.2875 -2.53257 0.168343 -0.0291112
3923 1 -19.5112 2.25038 -6.75616 2.39122 -0.0437458 -0.624761
3924 1 -11.2308 -9.48005 6.61117 2.21865 -1.4216 -2.40458
3925 1 -19.3182 3.87666 1.76466 -0.435262 0.336176 0.880571
3926 1 6.68723 -2.02688 -23.2122 0.54691 -2.75682 0.32365
3927 1 11.6185 16.5141 -1.89195 -3.48335 -7.75053 -1.16039
3928 1 -18.8672 16.7432 -22.7799 3.47662 0.647777 -2.64692
3929 1 -0.984883 11.7365 -8.03825 -1.92452 -0.200677 2.6187
3930 1 12.6256 19.5016 0.0623971 3.83916 1.62918 3.33398
3931 1 -1.55952 7.49655 1.42632 -0.598099 -4.48034 1.51453
3932 1 21.8799 4.89876 12.2001 -3.84211 -2.68718 2.45501
3933 1 -3.67234 -10.4234 20.3248 -1.20985 -2.25819 0.123221
3934 1 19.3018 3.00241 -17.4823 4.06823 2.32342 -0.625582
3935 1 14.9062 -18.6267 -19.6027 1.34377 0.975789 -8.47824
3936 1 -1.25349 -21.1394 22.6141 2.20691 -1.65744 1.41479
3937 1 16.3184 -14.9023 -18.6833 -0.152131 -1.35821 -1.95697
3938 1 18.9166 12.5383 18.7322 -0.33145 -3.40168 -3.54261
3939 1 23.6068 -3.08217 15.5761 -0.478473 -3.45023 1.78936
3940 1 -3.35781 20.553 -6.74676 4.41643 4.76134 1.32342
3941 1 -17.5955 3.63141 23.6255 -3.28919 1.09858 -2.34037
3942 1 10.4898 -22.519 16.0053 -1.22949 0.848222 3.26269
3943 1 -21.1992 -21.2766 1.47838 -3.80538 3.18068 -4.56652
3944 1 -13.7043 -7.75221 -14.809 2.3223 3.09945 0.614099
3945 1 -21.7388 -12.4984 -14.8186 -0.835246 1.84536 -0.312904
3946 1 -7.81508 17.7323 12.8526 -4.05738 2.38496 -1.23619
3947 1 -20.9911 9.14052 22.8167 -1.89447 0.382072 1.74991
3948 1 12.1769 16.1947 -16.5683 -0.223691 0.682911 -0.594722
3949 1 5.44252 -14.8834 -13.8264 3.24214 -3.46142 2.04095
3950 1 -5.46031 2.08893 -19.8984 0.707924 4.02961 2.98278
3951 1 5.9084 0.0583149 -12.4423 4.58721 1.91854 1.93121
3952 1 -5.49631 -2.85714 -20.0256 -1.68377 -4.24499 2.43288
3953 1 19.4668 -16.2792 15.2218 -3.17054 2.31899 -1.2507
3954 1 4.8574 0.301353 -16.3832 4.83792 -5.36449 3.30292
3955 1 -7.13621 21.1349 13.9243 -0.527628 -0.502238 2.77346
3956 1 -13.8597 11.4527 -3.85578 -1.22534 -1.87289 -0.540219
3957 1 20.6257 -23.8612 -18.0521 1.36271 2.59428 2.68105
3958 1 -0.816604 7.8473 -6.6153 -8.35449 3.9122 -3.05308
3959 1 -20.8456 -6.19965 -19.2984 0.127618 -0.975217 0.579509
3960 1 19.7572 -14.0728 -12.7982 0.880091 -3.17366 1.47949
3961 1 -3.29501 -19.1653 -2.08209 -1.55639 -2.25866 1.92726
3962 1 4.30118 -15.0405 6.9751 9.26468 0.175859 -2.81737
3963 1 -14.9423 -17.3485 -3.42357 -3.6454 1.22237 -4.40401
3964 1 7.27662 9.92278 17.6979 1.73073 -3.89515 5.54267
3965 1 -5.21541 1.28328 2.19531 -3.43863 -0.996797 -0.917921
3966 1 -18.944 18.9606 11.1282 -1.51303 -2.23397 0.468948
3967 1 4.70485 -6.99936 -6.04745 0.176991 -0.0890357 -2.90556
3968 1 -2.07075 4.8968 -2.27269 -0.936143 0.852508 4.64948
3969 1 16.2622 -23.0033 19.8705 1.67075 -0.488652 2.56619
3970 1 -6.16609 20.3752 -21.9474 0.979793 -6.22143 -3.47599
3971 1 -4.34146 -0.684736 19.3287 3.98198 -1.63812 -1.29582
3972 1 -6.32248 -9.05675 -9.53831 2.83846 2.96128 -1.91477
3973 1 -12.9774 -20.2719 -7.28711 2.12446 -2.20428 10.8028
3974 1 5.78925 23.1174 16.0674 -3.41103 3.30274 -2.15591
3975 1 3.55422 0.0138398 -18.8687 -6.52666 1.62991 0.82471
3976 1 -3.90919 16.7946 3.13377 -3.88632 -0.721605 -0.684166
3977 1 -11.4112 -12.0932 -18.4714 -2.10052 1.18324 -0.170463
3978 1 -2.66963 17.7183 -13.5329 7.07824 -6.82084 -2.57056
3979 1 -9.65144 -23.2883 2.72309 -5.34486 1.69723 -2.09488
3980 1 -21.1159 -15.5054 -14.9657 2.56705 5.07991 -4.80271
3981 1 11.0613 -8.14689 5.07858 3.14963 -9.0677 0.194987
3982 1 10.4167 -3.71811 -4.97515 2.28403 5.33767 -2.38542
3983 1 -23.9295 8.64913 8.22252 1.53622 3.58495 4.22751
3984 1 -4.43858 13.107 -19.0547 0.789639 -4.84404 -0.918324
3985 1 -14.1283 19.4928 8.26081 -2.61542 3.13035 6.74189
3986 1 17.2987 16.7141 -14.7962 3.26199 -0.296791 -0.931074
3987 1 13.3302 16.115 17.4658 3.18193 -1.21297 -1.61603
3988 1 -21.8349 18.8604 19.9681 -1.35069 0.203425 -0.666495
3989 1 -15.8889 -8.29888 -12.7252 4.2385 -1.04011 -2.2926
3990 1 9.93694 4.70409 -22.6759 0.858738 -3.26591 0.82307
3991 1 -17.1095 6.47985 23.1963 0.957319 2.00099 -0.818137
3992 1 21.9096 9.1765 -2.52249 -2.36678 2.73574 6.37245
3993 1 -7.40328 -7.22997 -7.40045 -0.190598 0.0709702 0.422153
3994 1 -15.9203 -22.1438 -20.4559 -0.568084 -7.13798 0.697935
3995 1 5.69206 -21.3493 1.52032 -5.04828 -2.01043 -1.14743
3996 1 7.51641 -13.0074 3.22725 -1.21937 2.49027 -1.07737
3997 1 21.2209 -24.3114 -10.3581 -0.576204 0.470121 -2.46699
3998 1 -11.4577 -3.73109 -0.41909 0.443183 0.432782 1.79954
3999 1 -7.52579 18.8073 15.4952 -0.751416 -0.2333 -0.552132
4000 1 -16.7468 9.40023 22.9837 -0.906587 -2.33209 -2.83497
4001 1 -10.4827 25.0532 -3.53453 2.42922 1.63608 4.47949
4002 1 -9.65274 27.499 -4.49165 -1.83413 -0.588356 0.992387
4003 1 -6.80809 27.6273 -3.99997 0.401584 2.93878 1.74635
4004 1 -5.3967 25.3044 -4.39575 5.0381 -3.02048 -3.36785
4005 1 -10.384 25.349 -8.76422 0.74131 -2.43178 3.10711
4006 1 -9.73628 27.5918 -7.30432 1.56482 0.185793 3.03567
4007 1 -7.26958 27.2666 -8.24377 3.84005 -2.12729 -0.183691
4008 1 -5.84471 25.1821 -7.12147 3.94466 -4.22631 4.63591
4009 1 -10.12 25.2873 4.3094 -2.64184 -0.801224 -2.68486
4010 1 -8.81222 27.3284 2.91373 0.86171 0.551371 1.77825
4011 1 -6.07668 27.6924 3.49845 0.338861 2.62808 0.584156
4012 1 -4.31482 25.8553 2.6822 -3.44523 1.07215 -0.0327217
4013 1 -10.0657 25.0659 -0.786662 1.4572 -0.172262 -2.47784
4014 1 -9.12942 27.5815 0.103671 -0.6903 0.46785 -2.15004
4015 1 -6.49147 27.6329 -1.02094 0.784785 4.1738 0.393864
4016 1 -4.56203 25.6425 -0.109361 -0.551347 4.69521 3.27311
4017 1 -9.75939 25.6911 11.0324 -1.08175 7.0679 -0.355604
4018 1 -8.11193 28.0531 10.4052 0.864803 0.693252 5.55254
4019 1 -5.51672 28.3133 10.3958 4.08739 1.59594 1.08642
4020 1 -4.2913 26.0184 9.86922 -0.912641 0.0411162 -3.94237
4021 1 -9.2156 25.8794 6.92493 0.982265 0.87075 -1.25207
4022 1 -8.43732 28.3731 7.61285 3.32077 -0.0528617 -2.24125
4023 1 -5.83507 28.0518 6.21689 -2.86767 0.0657761 -1.07505
4024 1 -4.80101 25.6383 7.2753 3.57335 -1.40221 -2.50241
4025 1 -10.9441 29.9259 -3.87788 0.108821 -2.13119 -2.8894
4026 1 -9.84112 32.5937 -4.47691 0.373848 0.728556 0.795874
4027 1 -7.04475 32.4723 -4.11474 -3.8026 -0.299127 -2.34438
4028 1 -5.93479 30.016 -5.49842 -0.0660865 -0.304505 1.6563
4029 1 -11.1203 30.0347 -7.02012 -1.48693 -2.01238 9.76656
4030 1 -10.142 32.4811 -7.55435 -1.18188 -3.27127 -3.83606
4031 1 -7.48142 32.1283 -8.59575 -0.943904 1.55771 5.12985
4032 1 -6.16201 29.6543 -8.39081 -1.45645 0.615091 -0.640172
4033 1 -9.89259 30.0362 3.45191 2.05723 -3.10573 -1.5463
4034 1 -8.79782 32.3729 2.63621 4.74046 2.05402 0.552599
4035 1 -6.03434 32.5675 3.53339 -0.218325 0.696145 2.51824
4036 1 -5.08279 30.1217 2.24102 -3.76134 4.52807 -4.80411
4037 1 -9.92406 30.0203 -1.11031 1.66104 -3.02858 -1.26091
4038 1 -8.93015 32.5617 -0.374014 -0.388258 -0.549224 -3.16072
4039 1 -6.34865 32.5282 -1.46517 -2.49871 5.60569 2.06946
4040 1 -5.32122 30.1414 -0.695569 -0.0625429 -2.25135 -1.32784
4041 1 -8.95683 30.4578 11.9193 1.69147 2.36724 2.37177
4042 1 -7.9621 32.6853 10.3787 -1.97991 0.675492 4.38136
4043 1 -5.36458 32.9942 10.5522 -5.09445 3.49907 -1.55033
4044 1 -3.9685 30.6279 9.71381 -2.3401 0.247559 -0.954676
4045 1 -9.63564 30.4627 6.25424 6.39133 2.70622 -3.15402
4046 1 -8.41979 32.5846 7.4838 1.48485 0.176184 -1.95062
4047 1 -5.92264 32.708 6.2987 1.32659 2.96979 0.749763
4048 1 -4.73777 30.4891 7.05837 2.84254 0.375488 6.3752
4049 1 -10.6634 34.9087 -3.08113 0.98511 3.68549 0.346289
4050 1 -9.60654 36.7751 -4.84119 -1.05732 0.245414 -0.00756074
4051 1 -6.7724 37.0004 -4.0494 -1.55001 0.671723 -1.09085
4052 1 -5.60304 34.4715 -5.06497 -0.415208 0.328709 3.61409
4053 1 -11.233 35.2192 -7.76036 0.603102 1.48016 -1.02598
4054 1 -9.34072 37.2214 -7.6568 1.01071 -2.85756 -2.53453
4055 1 -6.82033 36.713 -8.63069 1.59462 9.64693 2.81449
4056 1 -5.99309 34.2541 -7.95221 -7.35502 -0.622617 -5.46299
4057 1 -9.34683 34.8448 4.11608 -0.550322 -2.26994 -1.03942
4058 1 -8.38155 37.1321 2.80809 -1.17307 -1.31327 3.85469
4059 1 -5.64784 37.1403 3.03514 -3.50578 -4.57079 0.247561
4060 1 -4.69356 34.663 2.04702 -0.77055 2.62668 0.554289
4061 1 -10.6191 34.8324 -0.392912 3.69173 -0.212312 1.60952
4062 1 -9.37695 37.2199 0.0632871 0.165176 -2.38973 3.56441
4063 1 -6.77564 37.3223 -1.39062 0.721394 -2.81195 -5.455
4064 1 -5.26364 35.0346 -0.654108 0.534316 -1.00814 0.758481
4065 1 -9.41818 35.1132 9.773 0.837239 -2.29399 1.82112
4066 1 -8.31459 37.6582 10.0831 1.12438 2.57453 -2.17514
4067 1 -5.49743 37.2884 9.9309 -0.358969 -6.28308 0.485695
4068 1 -4.11876 35.0539 9.40508 -0.0369784 -3.27835 3.17096
4069 1 -9.61484 35.0031 6.9252 0.676112 -1.44205 -4.26501
4070 1 -7.92877 37.1779 7.16043 1.60057 2.12496 -2.93556
4071 1 -5.32415 37.3573 5.88885 -0.636783 0.831546 1.46263
4072 1 -3.97895 34.8658 6.71422 -0.822871 -3.88494 -2.24174
4073 1 -11.0512 39.0497 -4.3209 2.57533 -2.81302 -0.0763841
4074 1 -10.6836 41.2973 -6.05649 3.51048 2.3693 -0.704041
4075 1 -6.66706 41.5998 -4.41795 -1.20674 -0.317825 2.38506
4076 1 -5.50779 39.1525 -5.30905 2.25766 -2.67854 3.02947
4077 1 -10.6402 39.6216 -8.39205 -2.22262 0.28008 0.828418
4078 1 -9.49684 41.3185 -10.4062 1.57969 2.61152 -2.94396
4079 1 -7.00712 41.191 -9.2907 1.98419 3.11986 4.79642
4080 1 -5.60759 39.2122 -8.00459 -4.53293 0.451171 2.90806
4081 1 -9.5451 39.6306 3.55897 0.0572273 -2.25134 -3.72298
4082 1 -8.57977 41.7136 2.10048 -0.896198 -3.96242 2.28999
4083 1 -6.03324 41.6231 2.69172 0.817287 -3.75733 0.931378
4084 1 -4.71729 39.3737 1.77268 -1.51179 -2.67937 -0.256
4085 1 -10.0427 39.3346 -1.58706 0.751806 0.0849329 0.325129
4086 1 -8.8592 41.7145 -0.688914 -1.55911 9.97404 0.72575
4087 1 -6.14008 41.8818 -1.61886 -0.284672 5.30796 -0.434133
4088 1 -4.93429 39.4955 -1.09728 1.75554 -0.625869 -2.23486
4089 1 -9.20164 40.2424 10.696 -0.409459 -2.79302 1.46877
4090 1 -7.85201 42.6372 9.58565 -0.0576915 -1.33275 -0.473521
4091 1 -5.0082 42.1109 10.1672 4.96769 3.12221 0.461301
4092 1 -4.17274 39.6463 9.10908 -3.26629 2.94712 -0.586986
4093 1 -9.27479 39.314 6.43661 -1.931 -2.4697 3.27629
4094 1 -8.03331 41.8005 7.07827 -0.123741 -3.86743 -0.0570567
4095 1 -5.79135 41.8945 5.49766 2.04629 1.40722 3.45405
4096 1 -4.07587 39.7449 6.55443 0.570747 3.36466 -2.44018
4097 1 -8.90444 43.3648 -4.96739 2.59086 -1.3117 1.31525
4098 1 -8.43227 45.7627 -6.0227 -1.40832 -1.65441 -0.29333
4099 1 -5.68513 45.8916 -5.04749 -3.73608 -0.819367 1.62477
4100 1 -4.76722 43.1361 -5.71556 -5.52104 -4.44033 1.09492
4101 1 -9.29557 43.908 -11.0159 3.85227 2.06786 3.4508
4102 1 -7.83522 45.4754 -8.79973 -2.04173 0.959085 -1.25047
4103 1 -7.8752 -23.5832 -9.63835 -2.21083 3.96838 -3.51227
4104 1 -5.87242 43.4406 -8.2811 -3.49102 -3.39595 -1.48905
4105 1 -10.0199 43.8098 2.95615 5.77208 -1.03769 2.36051
4106 1 -8.72051 45.8227 1.85142 7.32334 2.21889 0.930201
4107 1 -6.04981 45.8948 2.65371 -2.23024 5.44859 0.502283
4108 1 -4.63028 43.7986 1.67963 2.75925 2.81819 2.92981
4109 1 -9.27784 43.8971 -2.36478 3.79465 -1.81057 0.133381
4110 1 -8.26052 45.9741 -1.13974 0.227068 0.688169 1.29912
4111 1 -5.88589 46.4375 -2.40378 1.66705 4.6132 -1.88188
4112 1 -4.46511 44.1516 -1.19371 1.27966 -0.780879 -2.37183
4113 1 -7.77406 45.4829 9.33948 -0.517958 1.58378 4.49868
4114 1 -6.05539 -23.5016 9.05037 -3.86964 3.38024 -0.588664
4115 1 -3.3801 46.9288 10.0004 1.67751 5.83924 0.723998
4116 1 -3.42843 44.165 9.12005 -0.383241 -1.70941 2.16905
4117 1 -9.70717 43.6495 5.75506 1.83778 -2.57752 -2.92657
4118 1 -8.38081 45.8093 6.69569 3.35445 -0.29675 -0.183159
4119 1 -5.96773 46.1395 5.60567 -3.33994 1.9933 -0.750133
4120 1 -4.25844 44.1467 6.31211 -0.36949 1.14897 5.15277
4121 1 -2.59316 25.1889 -4.3243 2.71461 -4.24643 0.687164
4122 1 -1.75447 27.5727 -5.50172 0.0191063 -3.04547 -0.721446
4123 1 1.04255 27.4075 -4.93569 4.11602 -4.1073 3.92796
4124 1 2.0606 25.0786 -6.38493 -1.80159 0.543428 2.23337
4125 1 -3.30668 24.6355 -8.39108 -2.09297 -1.78352 2.47343
4126 1 -2.15576 27.1185 -8.32376 -2.62402 0.5424 -4.14119
4127 1 0.179168 27.3874 -9.66225 -1.31521 3.84969 -3.25865
4128 1 1.91205 25.4676 -9.20048 5.00203 0.0990787 -1.02665
4129 1 -1.54756 25.1537 3.29314 -1.89599 -2.09009 3.55102
4130 1 -1.1558 27.7262 1.89973 -4.30544 -0.551808 -3.42843
4131 1 1.7762 27.4536 2.41725 -3.24406 -3.67252 0.70042
4132 1 0.851729 24.8152 1.73181 0.646186 0.505159 -2.6415
4133 1 -2.22337 25.2319 -1.65848 -1.20836 0.293335 -3.72781
4134 1 -1.50606 27.8757 -0.838979 -0.65699 0.597414 -2.57751
4135 1 0.897022 27.7532 -2.26221 -3.79584 -4.71028 -7.5636
4136 1 2.45161 23.9644 -2.76362 1.33622 6.64588 3.77897
4137 1 -1.19132 23.6629 8.32872 -2.82861 3.62817 -1.04747
4138 1 -1.40073 26.0898 9.97862 -0.0739889 0.895995 0.11641
4139 1 -0.379465 28.3309 8.9969 0.634537 5.60689 2.39272
4140 1 2.28851 27.6329 9.50445 6.34758 -3.32045 1.58549
4141 1 -2.26005 25.5986 6.01676 2.23124 -0.745397 -5.17941
4142 1 -0.853423 28.0005 6.18474 4.53128 3.6596 -4.42066
4143 1 1.84114 27.654 5.15505 -4.48536 2.94803 1.05749
4144 1 3.2199 25.7463 7.26668 2.70608 0.878034 1.45048
4145 1 -3.07352 29.743 -4.52581 -0.158017 2.27535 0.777461
4146 1 -1.5801 32.1065 -5.58721 -0.302171 1.08187 -0.571611
4147 1 1.16298 31.8006 -5.2693 0.0390923 6.82769 -2.4361
4148 1 2.18128 29.4742 -6.34613 0.584534 -4.42053 2.23573
4149 1 -3.44112 29.4869 -8.55574 -0.404787 1.96157 -1.62864
4150 1 -1.99267 31.6208 -8.39893 -4.97677 1.10094 0.153681
4151 1 0.586317 31.6184 -9.81027 -2.55108 -5.1691 -4.43587
4152 1 1.81203 29.431 -9.07938 2.15599 3.00056 -3.41541
4153 1 -2.47576 29.9748 3.28209 3.49852 2.33719 2.96745
4154 1 -0.970085 32.1053 1.58509 1.66905 -0.571905 4.25181
4155 1 1.74589 32.2529 2.40105 -0.739581 -3.9373 -1.52166
4156 1 2.8291 29.8383 1.43118 0.530233 -3.95706 -1.98291
4157 1 -2.70467 30.2124 -1.84731 -0.94156 1.39429 -1.58213
4158 1 -1.35258 32.4767 -1.18894 -0.282977 0.0868205 -0.004583
4159 1 1.072 32.2444 -2.53557 -3.00301 -5.08714 4.23006
4160 1 2.45621 29.8792 -1.35418 -0.28536 -2.49686 -1.8866
4161 1 -1.1793 30.7632 10.0588 7.67192 -0.453403 1.45162
4162 1 0.245513 32.7746 9.00758 -3.75236 2.47844 2.80514
4163 1 2.92784 32.5802 9.38312 1.31138 -3.29182 -3.40915
4164 1 4.06759 30.0903 8.76596 4.77122 0.0418008 1.17002
4165 1 -2.22676 30.5134 6.04946 -3.27466 0.420593 2.70449
4166 1 -0.522507 32.7705 6.27606 -1.99819 0.131349 2.88581
4167 1 1.88488 32.3924 5.18594 -0.293194 -1.93946 -1.23937
4168 1 3.13994 30.1443 6.06408 -2.78763 -5.7892 0.933127
4169 1 -2.77553 34.4604 -4.66772 2.54081 4.21981 -0.919215
4170 1 -1.6825 37.0463 -5.65149 4.51393 -0.195882 -1.91723
4171 1 0.976479 36.2755 -5.0968 -2.58137 -1.80816 -6.19114
4172 1 2.36827 34.0544 -6.28877 1.74669 5.28644 -1.53267
4173 1 -3.11739 34.0558 -8.58921 -7.05625 2.96941 1.37498
4174 1 -1.89564 36.5298 -8.47835 -3.93734 0.801228 -0.613614
4175 1 0.76602 36.3185 -9.16947 1.99711 2.25524 -0.62211
4176 1 2.04808 33.923 -9.08629 -3.5227 0.329483 -2.73564
4177 1 -1.99791 34.6436 2.49583 -3.96624 -0.832069 -7.70534
4178 1 -0.742813 36.97 1.74819 0.120714 0.573672 1.03053
4179 1 2.02799 36.8304 2.28069 -3.49133 -1.17852 -1.77667
4180 1 3.07264 34.4272 1.32326 3.90513 -1.01218 2.25242
4181 1 -2.81787 34.86 -1.80017 0.856709 -1.84913 -0.754285
4182 1 -1.23577 36.9281 -0.930988 4.20961 -4.15379 0.695505
4183 1 1.35248 36.6064 -2.30888 1.04034 -3.48574 4.21246
4184 1 2.74436 34.1655 -1.35384 0.886935 0.565074 -0.716075
4185 1 -1.57063 34.9286 10.2179 -0.77491 -4.55174 1.44703
4186 1 -0.116532 37.2603 9.02989 -1.98336 0.139852 1.50108
4187 1 2.81248 37.0294 9.41714 6.08818 -2.06262 -2.82024
4188 1 4.28787 34.7913 8.44944 -0.394349 5.7262 0.164545
4189 1 -1.5709 35.1036 5.37306 -2.14378 3.64838 -1.7615
4190 1 -0.161428 37.4122 6.18559 1.25172 1.88782 -1.63905
4191 1 2.35282 37.2923 5.05259 2.72603 -0.967537 -1.53811
4192 1 3.60866 34.8707 5.79521 3.6406 0.182354 -2.01398
4193 1 -2.77947 39.3298 -4.45506 -1.16647 -0.608808 3.51392
4194 1 -1.40526 41.261 -5.96195 1.58022 -2.39026 -0.941847
4195 1 1.25835 40.9473 -5.30563 -1.0495 -0.957767 6.32228
4196 1 2.33399 38.3848 -6.05205 0.773656 -4.99581 2.51306
4197 1 -3.13587 38.878 -9.39481 0.639065 -2.78222 1.6759
4198 1 -1.76235 41.3956 -8.65025 6.34594 -0.932457 -1.04437
4199 1 0.871294 41.1335 -9.73818 -0.0684588 2.82506 2.12554
4200 1 2.15637 38.754 -8.92695 -1.98132 3.77748 -0.432858
4201 1 -2.07798 39.5216 2.4676 -1.72542 -0.43989 2.46093
4202 1 -0.798454 41.8179 1.50939 -3.20101 1.57537 -3.26417
4203 1 1.82644 41.0871 2.27938 -0.295242 1.59118 3.66299
4204 1 3.4448 38.9697 1.16505 -0.78455 3.5617 0.233286
4205 1 -2.17689 39.2957 -1.82594 3.52131 -1.04768 5.91937
4206 1 -0.54601 41.6211 -1.21971 -2.31189 -1.83736 3.44566
4207 1 1.79135 41.0621 -2.36689 -4.57222 2.10714 2.13627
4208 1 2.93674 38.6453 -1.43194 4.10971 1.08633 -3.69692
4209 1 -1.58862 39.3675 10.1002 -0.0559717 0.188107 -0.171996
4210 1 0.317291 41.4672 9.10534 2.45733 -0.317894 4.19396
4211 1 3.11333 41.4546 9.64117 -5.71977 1.46523 6.68044
4212 1 4.20665 39.1239 8.65363 -2.15671 0.600777 1.01419
4213 1 -1.60178 39.5746 5.41293 -2.58642 -0.0262808 -0.709334
4214 1 -0.0342765 41.8554 6.43019 0.810885 2.02719 3.6066
4215 1 2.27429 41.566 4.91706 2.47506 -3.43139 -2.17863
4216 1 3.84531 39.3195 5.79361 -0.0816649 3.26275 4.01297
4217 1 -2.06553 43.6009 -4.82991 -3.11464 2.07437 -0.557052
4218 1 -1.08262 45.7752 -6.06948 -0.0182563 -3.13485 -3.96147
4219 1 1.83811 45.8618 -5.21213 -2.65271 -1.4434 1.69344
4220 1 2.44104 43.2708 -6.31256 -2.20703 0.818018 -8.35591
4221 1 -3.37436 43.7595 -9.41565 6.35231 2.78818 4.41676
4222 1 -1.77841 45.9439 -8.66405 -0.444062 0.596676 -0.379082
4223 1 1.12912 45.9308 -8.92259 0.910605 -6.42943 -0.532305
4224 1 2.17661 43.443 -9.0959 -0.767345 -0.296157 -0.309159
4225 1 -1.89257 44.1865 2.7981 -0.413209 -5.21728 -3.42047
4226 1 -0.297139 45.8979 1.38286 1.93151 3.94218 3.82781
4227 1 2.54393 45.3069 2.22462 1.72885 4.80378 -0.264046
4228 1 3.54031 43.17 1.0704 0.846389 -2.2812 -0.915983
4229 1 -1.87133 43.8952 -2.08491 1.60311 2.59655 1.76318
4230 1 -0.443855 46.0046 -1.32701 -1.97342 0.730581 -4.06633
4231 1 2.16845 45.9699 -2.54141 2.32382 -5.7059 1.13391
4232 1 3.26263 43.5022 -1.63955 0.164935 2.62266 0.105334
4233 1 -0.789449 43.835 9.83126 2.25955 3.29116 1.43956
4234 1 0.859185 46.1654 9.35905 -4.16455 0.538014 3.68129
4235 1 3.76286 46.0666 9.41182 -2.43829 -3.87308 -5.67345
4236 1 4.58597 43.6566 8.58616 3.63591 -0.170672 2.33878
4237 1 -1.3781 44.2386 5.65471 1.33809 -1.5842 -2.05641
4238 1 0.354778 46.275 6.44355 -0.0999387 2.94601 0.135848
4239 1 2.65456 45.4205 4.94954 -4.84853 -0.433142 -3.23784
4240 1 4.07603 43.3103 6.02173 -5.36395 1.19538 -2.77943
4241 1 4.66999 25.162 -5.75524 -2.43066 1.22377 5.50829
4242 1 6.54411 27.3496 -6.33764 3.74519 -6.78439 6.01133
4243 1 9.54486 27.4554 -5.6906 3.62588 0.867334 1.15074
4244 1 10.8455 25.298 -6.57976 -1.90435 1.66084 3.19318
4245 1 4.71519 25.1994 -9.90428 3.32653 -0.0112225 -2.34081
4246 1 6.20946 27.4171 -9.29878 -0.43521 -1.16561 0.328205
4247 1 9.18949 27.5356 -10.4753 -0.504202 6.66826 -2.14069
4248 1 10.94 25.5976 -9.47504 -0.680186 -0.0447332 1.76049
4249 1 4.20951 26.0326 2.71606 -1.91035 6.52706 1.14928
4250 1 6.17926 26.9277 0.82183 1.18545 3.07203 2.88405
4251 1 8.67779 26.5351 1.94629 3.32459 0.0682846 1.5469
4252 1 11.4639 26.3981 0.72775 -0.308373 3.94441 3.81024
4253 1 5.1507 24.697 -2.96528 -0.0439654 2.74349 0.803871
4254 1 6.53535 27.2785 -2.22436 1.37447 1.21708 1.93109
4255 1 9.18635 27.439 -2.8327 1.0606 -3.2717 -2.35674
4256 1 10.2109 25.1534 -1.73524 -1.03 5.30611 -1.26187
4257 1 5.54714 25.4105 9.50595 -0.164998 3.16203 -1.25383
4258 1 7.32972 27.4402 8.62862 1.4408 3.91732 0.517173
4259 1 10.1735 27.0985 8.98083 5.81322 -2.02994 2.72468
4260 1 10.7188 24.3558 8.79278 -2.54256 3.28634 -2.14929
4261 1 5.14308 25.3976 5.28284 0.363266 -1.37655 2.69624
4262 1 6.94331 27.2613 5.91072 0.0981821 -0.188415 -1.92314
4263 1 9.38346 26.9008 4.6111 2.61644 -1.39341 -5.59527
4264 1 10.3431 24.7586 5.99409 -0.413304 5.86237 2.32894
4265 1 4.8918 29.5561 -5.45781 -1.10863 5.65117 0.747493
4266 1 6.06346 31.905 -6.4613 -1.94568 3.58506 -0.514513
4267 1 8.67961 31.9074 -5.79752 -0.932339 1.13776 -3.05734
4268 1 10.2221 29.9532 -6.72223 2.68991 5.39484 -1.08468
4269 1 4.5426 29.5428 -9.86799 4.94976 -4.05001 1.58519
4270 1 5.74002 31.9801 -9.35107 -0.334119 0.687435 3.22457
4271 1 8.26891 31.8821 -10.6803 -7.25334 -2.35316 -0.0154733
4272 1 10.0576 30.0534 -9.67335 0.0988879 6.7658 -3.98055
4273 1 5.82496 29.5793 2.13683 -5.08942 -3.04057 -0.178294
4274 1 6.67607 31.8933 1.12141 -0.279082 -4.85376 -3.74868
4275 1 9.58723 31.3848 1.39682 -0.994517 5.01294 4.21566
4276 1 11.161 29.1331 1.32425 2.6075 2.20121 2.70348
4277 1 5.0323 29.5375 -2.5161 4.11009 3.63785 1.25753
4278 1 6.34387 31.8556 -1.71709 -1.94711 -0.938823 0.815636
4279 1 8.79324 31.6698 -2.79159 -3.7717 1.05896 -0.322103
4280 1 9.97714 29.5745 -1.36351 2.67862 2.52295 0.153396
4281 1 6.66787 29.8704 9.44566 0.444713 8.72708 -1.19895
4282 1 7.73615 32.122 8.15642 3.66518 0.496492 -1.91139
4283 1 10.5644 31.9282 8.8256 -2.14224 -3.74779 -0.770974
4284 1 10.5344 29.3036 7.21798 0.371105 -3.50771 0.259055
4285 1 6.02889 29.8092 4.94519 4.3417 -3.01841 0.640583
4286 1 7.33349 32.2593 5.5359 6.32255 -0.38259 -0.35531
4287 1 10.0134 32.0332 4.16113 -5.69364 -1.62081 -1.47163
4288 1 11.0382 29.4402 4.35663 -2.50704 1.225 4.22335
4289 1 4.84298 34.37 -5.44351 -2.47038 -3.90704 -0.421782
4290 1 6.39366 36.4107 -6.61703 4.58942 1.7809 -2.69035
4291 1 9.06494 36.3258 -5.9019 -1.98618 -2.79908 2.14057
4292 1 10.2043 33.9995 -7.34772 3.74192 -4.87141 -0.635421
4293 1 4.54598 34.4376 -10.3902 -6.31401 2.12903 1.41116
4294 1 6.2373 36.6358 -9.43279 2.17845 -1.24328 5.04556
4295 1 8.70369 36.5708 -10.6911 -1.55947 0.316974 4.95694
4296 1 9.82272 34.1498 -9.99653 0.127204 2.09336 -2.22107
4297 1 5.82151 34.5733 1.65489 4.7252 5.84509 -1.21017
4298 1 7.38227 36.8031 0.806367 -5.38464 -0.111516 1.23989
4299 1 10.2196 36.3529 1.56288 1.78776 3.45369 -1.13417
4300 1 10.5587 33.7682 0.266015 2.81555 2.45172 -3.76269
4301 1 5.02724 34.2428 -2.76264 -0.365842 -0.906145 1.15002
4302 1 6.84215 35.9753 -1.89774 0.552573 2.10768 -1.56171
4303 1 9.49873 36.2055 -3.10338 0.777334 2.45185 -2.66841
4304 1 10.6961 33.7508 -2.49948 -1.28868 3.27742 -2.77365
4305 1 6.81191 34.5471 9.27444 -4.82906 1.24965 0.50463
4306 1 8.43119 36.5969 8.09924 0.143336 6.10717 -1.79519
4307 1 11.109 36.6794 9.18843 0.990114 -0.898101 -0.739068
4308 1 11.8226 34.1525 7.88482 2.55385 2.74183 -5.32006
4309 1 6.2459 34.8022 4.5017 -1.2662 -6.14863 -0.272628
4310 1 8.00188 36.7622 5.46783 -1.73532 2.17414 -2.1576
4311 1 10.4091 36.4839 4.28051 3.84079 -0.444054 -1.75355
4312 1 11.7358 34.0481 5.05301 1.37334 6.56331 -7.16924
4313 1 5.062 38.5223 -5.30272 -1.62533 0.276453 -5.19438
4314 1 6.34031 40.5953 -6.19904 1.93193 2.14591 -1.68155
4315 1 8.9592 41.4247 -5.78603 7.35713 0.971727 -2.046
4316 1 9.84155 38.905 -6.85587 -1.00395 -5.2212 -3.53661
4317 1 4.75976 38.8173 -9.64736 0.675476 5.24935 4.2773
4318 1 6.08788 41.182 -9.13971 0.835449 -2.91147 -3.22984
4319 1 8.31807 41.1322 -10.5407 -4.33915 -4.89826 0.989822
4320 1 9.59759 38.9964 -9.68551 1.06733 3.90748 -2.18673
4321 1 6.07111 38.8555 2.21665 -0.74423 0.753658 0.0328385
4322 1 7.15245 40.936 0.87629 1.49029 -3.11164 0.0297374
4323 1 9.88921 41.2759 1.18242 0.353305 2.21628 1.51929
4324 1 10.8453 38.6968 0.556691 8.18215 1.85214 -3.53743
4325 1 5.51196 38.4476 -2.49498 -1.87763 -2.47336 -1.39205
4326 1 6.93818 40.7055 -1.82288 3.78637 -6.0486 0.759641
4327 1 9.67631 41.1726 -3.06962 -0.0859997 -2.16106 0.238561
4328 1 10.6869 38.5476 -2.21781 -0.869479 -2.28208 -2.07607
4329 1 6.8746 38.9262 8.8009 3.83247 0.984191 4.41714
4330 1 8.20611 41.1475 8.05041 -2.63049 -7.52683 -0.345952
4331 1 10.9178 41.534 8.58464 1.61871 -6.28829 -0.361182
4332 1 12.0698 39.1149 7.84884 -0.179976 2.07635 0.491319
4333 1 6.41712 38.822 4.87414 -1.99095 -4.94845 -0.30744
4334 1 8.03862 41.1937 5.30268 1.01233 -2.52389 0.591906
4335 1 10.5484 41.1917 4.21327 0.836908 -0.86175 1.3631
4336 1 11.5496 38.8697 5.07674 1.66235 3.42475 -4.97574
4337 1 5.17444 43.0363 -5.48654 0.654715 -3.8295 1.71197
4338 1 6.17809 44.9957 -7.18038 -3.25514 1.97866 -0.0231944
4339 1 10.0983 46.1262 -6.24145 -7.47489 -0.422346 -2.75493
4340 1 8.64427 43.8292 -7.24011 1.31209 1.46602 -0.572772
4341 1 5.19905 43.6354 -9.30256 2.85278 -3.03222 -2.29785
4342 1 5.59659 45.6934 -11.3758 1.73479 -0.275616 -4.75947
4343 1 8.37283 45.6324 -11.3717 2.90087 0.437169 -1.07989
4344 1 9.1772 43.6019 -9.93165 -1.41741 -1.48544 1.67075
4345 1 5.9899 43.15 2.11081 3.30799 1.6765 2.1123
4346 1 6.7005 45.997 1.63726 2.30283 -1.52312 -3.99695
4347 1 9.48315 46.0467 1.95233 2.75546 0.670228 2.57543
4348 1 10.3058 43.8838 0.479002 4.87255 -3.63801 2.12947
4349 1 5.84495 43.5095 -2.68182 -1.00756 -0.652937 -4.22606
4350 1 7.49086 46.1803 -2.65115 -1.31074 -4.00602 4.89718
4351 1 10.3239 45.9067 -3.43966 -2.90449 -4.06543 -7.42116
4352 1 11.0042 43.5465 -2.13739 0.814234 -1.25071 -2.6105
4353 1 7.33465 43.6 9.30221 6.2888 -1.59529 -0.417656
4354 1 8.67735 46.05 9.46279 0.0991759 -3.90863 -2.55739
4355 1 11.3709 46.0034 9.069 0.932175 5.39636 -4.10631
4356 1 12.3587 43.6982 8.01226 0.794121 -1.08616 2.64126
4357 1 6.65202 43.7345 4.8189 -4.12204 4.48907 -0.909683
4358 1 7.60098 46.3519 5.39294 -4.37973 1.19222 -3.44425
4359 1 10.2393 45.8297 4.58932 -3.81734 2.21074 -4.52561
4360 1 11.9373 43.6206 5.34296 1.24304 -1.06189 -2.04818
