ITEM: TIMESTEP
4500
ITEM: NUMBER OF ATOMS
4360
ITEM: BOX BOUNDS pp pp pp
-2.4475800856141745e+01 2.3666636756172998e+01
-2.4602985585309668e+01 4.7119421185309662e+01
-2.4075318667015253e+01 2.4067117067047306e+01
ITEM: ATOMS id type x y z vx vy vz
1 1 22.8418 -21.552 12.7032 -0.211373 1.69954 -0.118617
2 1 -6.20726 15.0418 1.57498 0.020403 2.89589 3.69592
3 1 6.63676 -5.7329 -22.6634 -6.89505 1.76818 -2.29763
4 1 1.98626 -1.03261 -5.63569 -2.90804 -3.58831 4.68445
5 1 -18.4345 -22.4836 21.4257 -2.53196 2.12003 -0.681133
6 1 1.40031 17.8318 19.7066 -0.538555 -3.9848 -0.554619
7 1 5.1087 22.6977 9.17157 -1.92652 -0.459582 -2.0661
8 1 23.0449 -12.2202 -14.2294 -3.28458 1.10091 4.21509
9 1 -14.5101 5.24926 4.24329 -2.25769 -0.383452 1.91941
10 1 -1.01497 -7.55742 14.0777 -0.422243 1.29205 -0.849757
11 1 4.83637 -8.64394 18.8273 -3.37744 2.23135 -2.51796
12 1 21.7668 -5.20996 -21.9299 -4.04338 0.157135 -2.89766
13 1 -20.2787 -14.514 12.7303 -4.10608 0.91184 -2.11883
14 1 11.494 1.30784 -9.04382 2.41206 -0.476598 -3.31251
15 1 -3.71765 -0.909105 -14.4204 -0.281723 -0.2316 1.14229
16 1 -18.7957 0.0113429 6.16217 -2.53213 3.09955 -5.17741
17 1 17.457 -5.15031 17.4908 -1.80469 -0.346149 -5.55588
18 1 21.8653 24.4652 3.40052 1.22573 4.08646 -2.36358
19 1 -16.28 23.9867 19.9732 0.112029 -0.980222 0.279241
20 1 21.3497 2.76628 23.0521 1.74532 2.31697 1.202
21 1 -22.6098 0.307206 12.4231 1.86568 0.670309 0.143004
22 1 -11.5652 0.0595414 -18.6863 4.48705 0.182727 1.29444
23 1 -11.4909 -21.2824 20.6542 2.99132 1.71685 -0.573252
24 1 8.60209 19.0724 -4.94687 -0.295256 -0.352727 1.99155
25 1 6.32601 25.4634 16.1266 -3.0899 7.07389 -0.519861
26 1 -2.36406 17.0926 10.8792 0.0931204 0.0720383 0.389446
27 1 -19.5509 6.66778 -2.26684 2.48485 -2.09428 -4.17478
28 1 -21.0185 4.16273 0.135346 -1.5355 5.27887 -4.03988
29 1 -8.93484 -11.7565 -10.1276 -2.80947 -0.555446 -1.71787
30 1 21.6114 -0.634256 -22.3403 -0.599397 -0.817365 -0.695238
31 1 3.90278 -17.5123 -19.5198 1.36164 -3.85187 -0.115874
32 1 -10.3884 13.7893 -21.3568 0.277697 0.52355 -0.205947
33 1 2.65205 0.107346 -11.2067 2.94208 4.24421 -1.5676
34 1 -18.8854 -22.2978 16.3221 -0.720584 0.320075 4.63863
35 1 18.1216 5.12318 15.1144 4.09235 -1.94668 -0.123861
36 1 -13.3504 21.6481 -17.4263 -3.35823 -2.21349 -1.17359
37 1 -10.8967 -7.14693 -1.83898 -0.536853 2.99252 3.69304
38 1 19.3907 11.1387 7.68441 -0.848769 -1.13632 -2.17449
39 1 1.78517 8.91379 -22.9117 0.319262 -2.16675 -4.13065
40 1 -0.521614 -0.171097 -18.0679 2.63094 -1.63021 4.42322
41 1 7.88022 -7.2307 -10.1924 -0.388166 -0.00841959 4.38544
42 1 -18.1005 -17.6024 1.71614 -2.79307 -1.96291 0.908568
43 1 -13.1432 -3.92088 1.09776 -3.74255 -0.464177 2.70286
44 1 -1.82782 -16.5472 -8.24817 -2.05766 -2.20583 -3.72466
45 1 -10.7639 13.3181 -3.48623 0.741737 -1.21113 -6.65659
46 1 23.4016 -21.9009 18.7628 -0.736178 1.17514 0.13538
47 1 -5.5857 3.92678 19.3543 0.415497 -1.23438 -1.46624
48 1 12.2817 5.71844 -8.62303 1.59693 3.23389 3.09795
49 1 21.0431 11.8708 3.84661 -3.25293 -1.39743 3.45985
50 1 14.4114 -21.5312 14.6209 -3.80666 2.58379 -2.76504
51 1 -10.9673 -1.98783 17.0814 -2.05667 3.0078 -1.08701
52 1 16.5186 4.56942 -15.599 5.62514 0.588519 -0.923149
53 1 -4.83885 22.3342 8.32716 2.14677 2.41473 6.6863
54 1 -18.4494 -10.9188 -9.99953 0.0315761 -0.907033 7.622
55 1 -6.25489 -0.740566 -16.3916 2.05039 -3.41327 -0.400988
56 1 -15.2301 5.90791 1.43827 4.00004 -1.70908 3.60399
57 1 -15.4342 -9.05598 -4.21863 -1.12293 -4.18284 -2.99759
58 1 4.4179 -20.6059 -3.78797 3.51735 0.173696 -3.42174
59 1 -19.5209 12.7093 20.3257 -3.79215 7.16663 -3.86119
60 1 1.04054 16.276 -23.2831 3.38108 -4.18059 0.635151
61 1 -10.136 0.730415 0.123305 2.11081 -0.409184 5.62908
62 1 -0.469968 -10.2456 17.4514 3.13806 -0.668075 -1.69587
63 1 0.0839838 11.3627 -15.8262 2.34775 -3.33487 0.299738
64 1 -8.25067 -1.24555 4.0454 -1.15678 -2.14482 2.06847
65 1 17.7758 -2.54608 9.65197 -0.167993 1.31025 -1.64891
66 1 -10.9979 -17.9156 -13.6832 3.2003 -0.32902 -2.21474
67 1 -13.7926 22.9559 -11.0452 -1.47973 0.517183 -1.65723
68 1 -1.12208 16.6042 -19.0592 2.38427 2.39849 -7.04362
69 1 -9.8509 15.4898 11.8879 0.995123 -0.660505 -5.88961
70 1 -16.9377 15.921 -14.2229 -3.99991 -7.32386 1.05993
71 1 -12.4908 6.9722 1.73466 1.37331 2.93368 7.22693
72 1 20.3396 14.3158 18.9337 0.92031 -2.49519 -0.976719
73 1 -12.4476 -17.2189 13.7699 4.55949 4.52066 -5.37864
74 1 1.16213 12.1501 -13.1835 5.25019 2.72054 1.59227
75 1 -19.8577 -0.395146 -12.9056 -0.188873 2.79628 1.4602
76 1 23.5073 -6.04762 2.87576 -2.23736 0.130209 -1.78882
77 1 16.2145 -23.0243 0.0127178 -3.1752 -2.24438 1.62553
78 1 -18.8102 10.9346 -9.72117 3.0367 1.55763 -2.2672
79 1 -20.4083 0.108772 -15.8401 -0.810762 0.619102 2.78014
80 1 -12.8665 14.0887 -14.8452 0.465804 -4.55024 -1.78414
81 1 0.211466 -11.0125 -17.2045 1.66598 -1.94478 0.650502
82 1 6.55727 -23.9822 4.20254 -0.3858 -0.64508 2.12997
83 1 -20.7959 11.3772 -1.26602 -3.80716 0.243727 2.99766
84 1 19.0195 22.1106 20.4822 -2.00057 -4.89095 4.29844
85 1 3.14179 14.8773 -0.921958 -4.36109 -0.366049 1.42148
86 1 13.3013 6.40859 14.0082 3.01626 4.54605 -1.21856
87 1 1.48537 16.4588 -6.06852 0.299836 0.7147 2.29546
88 1 -9.61632 23.5522 -20.1508 -5.76382 1.36264 4.45677
89 1 -9.31572 -3.7755 20.5371 0.830666 0.604836 0.180432
90 1 7.59455 -4.83269 5.6765 0.33488 -1.07685 3.03104
91 1 16.4937 20.1381 -22.8526 5.07813 1.81978 -3.18577
92 1 14.8717 -24.3138 2.08622 -1.26432 -2.75849 -2.13846
93 1 -20.9424 -23.5603 17.7595 0.80656 0.2497 0.772643
94 1 22.0815 0.696235 -11.3657 0.470669 -0.327615 0.747741
95 1 0.729746 -3.99394 -9.95856 -6.21252 -4.85177 0.0328313
96 1 -23.8625 -18.6283 21.8989 4.9485 -4.11769 3.81964
97 1 -6.69645 -13.6631 -21.8218 -1.834 -1.57321 -1.71331
98 1 -4.72965 18.0938 12.4056 -1.93934 0.974061 -4.9832
99 1 18.4259 -21.6786 -5.16702 -2.08888 -3.32874 3.48362
100 1 23.1701 -13.2512 -24.1268 0.957152 -3.22968 -0.0705869
101 1 2.03892 -20.2007 -9.53182 4.63201 0.275832 -6.18462
102 1 3.82403 2.77484 5.95354 -6.26781 -5.61046 -1.15026
103 1 16.3668 22.9395 21.367 -0.73891 5.47693 8.10795
104 1 -16.4212 45.7704 -11.0025 -4.54357 -1.39993 -5.54893
105 1 5.98483 17.5374 -17.5039 4.08805 -0.422344 -0.536815
106 1 15.1492 2.00519 8.85625 -2.59937 -0.0119877 -0.160712
107 1 21.2777 -3.5213 19.6684 0.568686 -4.3878 1.76308
108 1 -11.1772 5.68091 21.5279 2.20742 -1.74574 -5.70847
109 1 -12.9306 15.8017 -17.0041 -1.57344 -4.50075 -3.64656
110 1 7.0096 -15.4634 -8.05492 5.26169 -1.61766 0.89755
111 1 21.309 -6.56281 -11.0325 -2.25931 0.86655 2.74418
112 1 -16.7544 2.42642 -22.14 -3.34746 2.88632 -0.106883
113 1 -4.38736 -7.10929 18.0749 0.858589 -1.67524 3.06688
114 1 -21.896 -21.0142 18.4998 -5.65109 5.27031 -0.869185
115 1 8.00186 10.8886 5.98903 6.95434 0.29948 1.56242
116 1 2.07058 -16.0551 -17.8163 -0.640495 2.64416 -0.188642
117 1 18.8086 19.8404 -19.7274 4.63508 2.56267 5.53907
118 1 1.94277 -17.3485 -10.0213 2.02883 1.5412 3.44506
119 1 16.6115 11.7492 -8.97938 -0.427376 2.11057 0.531835
120 1 3.1381 -2.32085 16.2158 2.56219 0.671977 0.730387
121 1 -5.2551 -18.2747 23.0788 0.0436351 -3.9441 0.472497
122 1 -7.24122 5.75457 20.9203 -0.244151 2.04827 -3.80226
123 1 11.0323 17.4373 9.18868 -0.804091 2.01174 -1.31279
124 1 22.8952 -20.7874 -15.2708 -1.26085 0.549614 -3.29946
125 1 13.482 9.16381 0.0320243 -5.18426 3.225 1.89182
126 1 -9.86648 1.06371 -6.93067 -1.55899 -5.62693 1.54389
127 1 10.2982 -0.93932 14.8786 0.466837 1.9684 -1.99362
128 1 -17.7067 -1.0424 -7.57547 -5.18195 -4.51827 0.889783
129 1 17.8263 -11.2401 7.42229 5.39735 0.282367 -2.50876
130 1 -8.32209 18.6001 -20.5988 -2.38862 0.964474 1.78204
131 1 1.98782 -8.26792 -17.1268 1.33932 -0.632784 -2.95845
132 1 -5.31134 -1.5181 -22.7546 0.149248 -0.41209 -1.43698
133 1 -17.1585 6.58538 15.7849 2.76533 0.66044 -0.792383
134 1 21.5989 -8.12888 -22.6059 4.89377 -1.5045 -2.31352
135 1 -13.7982 -5.54691 -21.6124 0.996741 5.39962 -1.90043
136 1 -1.13022 5.7445 -5.74858 2.29024 1.25716 -0.937154
137 1 -10.1893 4.4219 -16.1975 1.33595 -0.287866 -0.331495
138 1 12.5129 17.1815 6.4445 -2.82015 4.57535 0.447005
139 1 -20.2757 -20.1772 -14.777 -0.902694 -1.60922 4.20618
140 1 3.81598 -7.05748 20.9906 -1.91123 -3.44335 3.15902
141 1 9.77593 -15.8249 3.85571 0.496141 0.26743 -2.09368
142 1 14.0136 2.9655 22.5159 0.368899 1.88377 0.109454
143 1 -1.59542 -1.45964 -3.75642 -3.99841 3.14278 2.06798
144 1 -23.7403 -9.44725 -13.897 2.50155 2.03125 -3.04945
145 1 16.6689 8.67497 19.5038 -2.49537 -3.1629 0.467295
146 1 -11.3612 -11.2323 14.4459 -4.12868 3.10111 -0.278706
147 1 9.70874 17.771 5.69067 0.508984 1.93931 -4.11231
148 1 -19.298 12.4887 13.4972 -3.30646 1.18019 -0.291982
149 1 -18.6924 46.7749 -18.5094 0.556605 2.24322 -3.51143
150 1 21.4351 10.7922 20.7581 -3.51991 1.50512 -0.35666
151 1 21.8676 -0.285912 22.9756 3.44918 -4.07053 -5.64384
152 1 -7.52816 -5.57108 16.6182 0.866268 -7.59328 2.11783
153 1 9.60115 -16.9298 -2.43666 5.52194 -1.68869 2.99863
154 1 -8.81684 22.3452 -6.04448 -0.74047 -0.939321 0.549247
155 1 -23.558 -20.8344 -19.1576 1.12922 -0.143361 0.361464
156 1 13.9996 10.7996 17.8814 -1.79444 -0.892176 -5.17914
157 1 10.4988 -13.1403 -17.0249 -3.40951 1.04171 0.563236
158 1 10.2887 7.6661 3.80495 -2.88093 1.60067 0.857269
159 1 -19.1821 -17.3452 10.7801 -3.43696 3.32939 -0.650209
160 1 -4.66987 -14.5768 -3.16513 -0.620096 3.3083 3.34791
161 1 17.8463 -0.109646 -12.721 -1.2914 -5.8895 0.168507
162 1 -13.059 -13.1689 20.3946 -1.42472 4.46333 1.30437
163 1 3.79166 0.373419 16.6819 0.0640391 9.34553 2.59149
164 1 18.004 7.77202 13.4385 -1.92045 0.287011 0.669027
165 1 -19.3631 11.3532 16.4552 0.0706401 5.85867 -7.16638
166 1 8.8913 20.4102 -21.7495 0.163005 -0.807263 0.580258
167 1 -13.0533 2.17335 -3.71437 0.855722 -4.79316 1.67792
168 1 23.007 24.518 -2.16574 -3.67436 -2.42829 7.28975
169 1 4.381 24.0625 -12.6079 -1.96316 7.60748 2.87267
170 1 -6.05334 -19.1898 -13.1921 -4.74654 -5.25273 -1.43398
171 1 -14.2831 0.465074 13.4551 3.58697 4.69478 3.78679
172 1 -21.2766 22.0461 -17.3463 -2.47038 3.61356 0.469374
173 1 -21.2775 -2.60771 23.2435 -0.136476 -4.43016 0.549902
174 1 -18.6484 6.98625 -22.7543 -2.71837 2.51535 2.11619
175 1 7.10063 18.4399 7.35143 2.06265 -1.61687 -3.71591
176 1 -5.02812 21.3222 -3.70775 6.18925 -0.496644 -4.83465
177 1 -5.73916 -17.0855 11.802 -0.711992 1.77968 -0.852226
178 1 -18.3322 9.39715 4.87005 -0.473301 0.799703 1.06253
179 1 -6.34493 -6.46455 -13.7796 2.02986 3.06105 3.88563
180 1 -23.912 19.034 8.34289 -2.95151 -0.59982 1.91134
181 1 -2.69395 -4.52291 -20.4661 -0.781984 1.88812 2.74922
182 1 -22.5064 -1.87646 17.4135 -2.3267 -2.70563 -0.810373
183 1 21.2748 16.8556 -1.98619 -6.32159 -3.53047 -3.91239
184 1 4.41132 -23.2045 -22.0019 2.57695 -3.04233 2.99595
185 1 20.4118 22.2584 13.8831 -1.72682 1.80732 -7.18648
186 1 13.0356 25.1185 -9.85084 -0.784698 1.67516 -1.55527
187 1 -9.04331 9.05707 -7.46495 -3.96133 1.99013 1.80852
188 1 9.0061 -22.1152 -2.54066 0.630741 -1.14288 -3.36223
189 1 -4.40357 -4.99538 3.43943 1.97847 1.55825 2.26718
190 1 -14.2266 8.73669 -11.5932 2.73796 2.57998 1.17748
191 1 0.167876 -6.3864 23.0038 -2.50199 0.975466 2.59916
192 1 6.52561 6.05429 -3.25601 -0.563513 -3.69383 -2.39888
193 1 9.26241 0.622214 5.8756 5.65788 3.41674 2.94527
194 1 3.11035 24.6491 -20.0488 -0.156126 -3.05411 3.10168
195 1 7.05547 -1.65631 -9.20449 -2.07469 -0.676705 -3.8746
196 1 -15.5349 21.6381 8.16834 3.58954 1.50183 -2.78308
197 1 -23.6255 -3.63786 22.5286 0.140526 -2.7684 -2.71319
198 1 -11.794 -19.7417 -17.1871 -1.50875 0.985955 0.818641
199 1 -24.3751 -4.87206 -10.9966 -4.19725 -2.73394 -0.871795
200 1 15.6319 8.87606 -17.4858 -1.1948 -3.26612 -4.25271
201 1 7.27901 4.68051 -22.7508 -2.78846 5.91171 1.09685
202 1 10.3391 14.8404 13.69 0.300179 2.8337 5.64104
203 1 -22.5121 17.2947 6.04046 -1.85249 0.0134024 6.42309
204 1 -7.47626 -13.9884 -9.1334 -3.10964 1.76361 -3.14587
205 1 18.3864 -6.99447 10.6831 -4.21535 2.56632 0.00423427
206 1 -2.22833 -14.0281 -19.2846 -0.167292 0.0564285 -2.76948
207 1 -6.86599 8.89413 22.6096 5.53576 -0.981682 2.60105
208 1 2.03741 -6.16298 17.2493 -4.19616 -2.53661 -2.11875
209 1 -4.63174 15.6973 -14.7648 0.850516 -1.24239 0.555277
210 1 -18.5717 12.9941 -2.49585 -2.08273 -1.81884 1.41966
211 1 16.1098 -2.06083 5.64914 -0.427113 -3.23965 -1.77803
212 1 -16.1295 24.5869 -2.43438 2.05791 0.422921 -4.05103
213 1 -19.8486 -21.6585 -3.49379 -1.1128 -3.02497 -1.53671
214 1 17.4655 -4.72548 -19.7546 -0.6628 2.16565 3.90744
215 1 9.1582 24.8095 16.0366 2.25876 -1.29774 -0.310839
216 1 -18.4986 46.4693 7.76361 -1.14867 1.90091 2.51345
217 1 2.72146 23.6543 10.0825 -0.85927 -3.23978 3.62872
218 1 12.554 7.02743 -1.82523 -4.18825 -0.979649 -9.55428
219 1 -4.35282 25.6026 20.369 -10.7818 -0.18513 1.23579
220 1 4.92094 20.0862 17.0099 -2.34004 0.657392 -4.94421
221 1 -17.1012 1.83688 -2.0804 0.0747123 -2.61523 -6.85724
222 1 -12.712 -9.01999 -0.928239 -0.426067 0.139197 2.47218
223 1 22.1249 -6.59804 0.394711 -0.332166 1.44195 -1.97953
224 1 -10.9541 -3.744 22.7987 -0.834273 4.3388 -8.27467
225 1 4.76102 -11.8479 -7.17849 -3.24899 0.959265 3.15511
226 1 22.486 14.2584 -12.6087 -0.719463 0.522524 -1.38913
227 1 14.7127 16.8313 2.06171 2.32185 0.459578 -1.78978
228 1 -10.4336 17.7623 1.85568 4.01998 1.82793 -0.503063
229 1 10.1857 10.361 -7.10793 -5.63326 6.34405 -4.13956
230 1 -9.86572 15.9053 21.8469 -0.515026 -1.96973 -1.62102
231 1 -23.7884 -1.69445 -21.4086 2.70687 4.38355 -2.58835
232 1 -1.73773 -13.9416 10.5264 -3.29064 -8.95546 -0.410195
233 1 -13.1449 15.0149 13.5679 0.458913 -6.60437 1.32962
234 1 -6.43859 18.3143 7.46187 2.30827 0.625633 -1.40816
235 1 -22.0757 -0.918196 -8.84507 1.58119 4.64651 2.00285
236 1 16.839 -8.56885 6.79201 -0.445161 0.0760746 -1.75969
237 1 -16.2633 20.2571 3.43562 -4.66965 -0.631441 1.81103
238 1 17.3949 -0.3303 23.1481 2.94918 -3.20612 -0.746754
239 1 -18.548 20.982 15.1155 -3.11421 3.70865 -6.99867
240 1 11.5571 1.66449 17.8144 -0.735046 2.00316 -2.57055
241 1 -21.7004 -16.1131 11.0158 2.30417 -0.121324 -2.34452
242 1 -5.28478 -5.10833 -11.4313 1.60706 -0.830233 -9.83184
243 1 -5.30298 -9.10505 13.4474 -0.707909 3.77544 0.535251
244 1 -18.2461 11.5046 -23.3318 1.98194 4.28163 0.186505
245 1 -9.80502 24.7543 -11.557 -1.0874 1.72125 -4.68562
246 1 11.6702 1.06576 22.7553 -3.89057 -2.06511 1.632
247 1 -23.1326 -5.98209 11.5554 0.140701 0.216346 -2.28662
248 1 -19.2483 9.51496 -12.1906 2.82614 6.09071 3.79748
249 1 -3.01876 -20.3109 11.119 6.64821 3.7634 -0.919635
250 1 -0.716364 -1.43091 4.7229 -5.89144 2.79019 0.264671
251 1 -20.9966 -1.64359 -20.7975 0.0621886 -2.37298 -0.673063
252 1 20.2509 17.1371 -11.9102 1.17209 4.26769 -4.20266
253 1 0.25628 -1.30893 23.0215 5.05975 4.17746 0.242456
254 1 2.4026 -13.6513 -11.5315 -0.0903391 -0.958578 0.0178321
255 1 23.0309 -22.6956 10.1604 2.01333 3.60522 3.5246
256 1 -11.3609 -4.51764 -9.95757 3.45946 -0.92255 -3.67966
257 1 -0.952817 5.8965 -20.7956 -5.91098 1.15663 -6.52773
258 1 -5.71248 -1.32589 -5.5692 0.605069 -0.661248 2.60657
259 1 18.9308 -17.0867 -18.3437 -0.705226 0.534168 0.853868
260 1 14.6192 9.10514 -4.14967 -1.70311 -1.68162 -1.53917
261 1 -0.721965 -22.7734 9.93378 -1.65327 -0.0078168 3.81713
262 1 17.1192 16.7711 11.3892 0.867043 -4.85819 1.99051
263 1 -22.7874 7.12252 -10.2221 2.48429 3.54259 2.38392
264 1 -24.2782 4.27183 17.0155 0.0851268 0.335137 1.49911
265 1 14.5115 -16.8396 -6.70778 -0.485354 -0.525713 -2.77475
266 1 23.0018 4.56234 -15.2041 1.92957 -4.25165 -0.269143
267 1 -11.896 19.6207 -10.2404 0.399999 -2.58313 0.870161
268 1 -20.2047 18.6943 -12.0815 -3.02488 2.83554 2.61498
269 1 -20.9208 -8.77525 -13.1118 -0.614082 0.38346 1.42595
270 1 23.2607 -17.0234 17.8053 -0.179114 -0.660176 0.925694
271 1 2.28112 22.2843 -12.1441 -1.04758 -3.37477 -0.829187
272 1 10.1861 -16.9834 11.8481 -0.0287649 -6.94778 -2.31745
273 1 -18.0804 -10.8958 12.6295 -0.925534 -6.16706 1.33262
274 1 12.9706 -12.5507 8.81059 1.00831 -2.76829 -2.44676
275 1 13.4079 25.3487 -20.5106 4.11924 2.05231 3.00261
276 1 23.113 4.7987 -12.2009 1.20461 -0.391973 -2.45563
277 1 13.0355 -15.2335 -19.259 -0.427664 -3.31017 -1.78094
278 1 19.7259 10.068 17.6236 1.3827 3.49479 -0.893793
279 1 22.9084 -2.62181 -2.42718 1.01243 3.05031 2.08527
280 1 -3.34441 -20.4907 -12.9008 -3.03982 -5.49924 2.72297
281 1 12.4952 20.0673 12.4325 2.64836 -6.51839 -1.50922
282 1 11.4758 11.0757 12.7829 2.2063 0.511271 -3.30357
283 1 -4.43867 -23.67 -20.7988 0.156927 -3.29093 -0.0633835
284 1 -2.3905 14.1517 2.51348 -1.72943 -5.69043 3.51237
285 1 -16.6834 18.8929 16.2387 -2.69309 2.50443 4.36937
286 1 -2.44189 18.8351 -2.79358 -2.81136 0.908011 -0.320949
287 1 5.05617 -9.25863 -6.16136 2.28081 -3.66377 2.68984
288 1 17.5598 24.8345 3.8391 1.84725 2.06159 -3.39385
289 1 -7.01208 -20.8484 8.69693 -0.937928 1.06533 0.21494
290 1 -5.67667 -8.90313 -15.165 -2.78924 1.70579 2.68887
291 1 -11.2301 -18.4784 11.6222 2.73087 6.71182 4.77215
292 1 14.4354 7.7019 2.33847 -4.10437 1.86662 -0.469631
293 1 13.5873 2.83261 13.4847 -3.35127 4.44798 2.57172
294 1 -7.72178 2.57172 -2.94311 -0.0641075 3.90059 -1.82107
295 1 1.90311 5.5282 9.29765 2.27414 0.737319 -0.0733562
296 1 1.67278 12.7834 0.275695 -3.63222 -1.41681 0.921229
297 1 20.4837 -9.0254 -8.26856 -1.7819 3.4819 -1.14174
298 1 14.0838 -23.0408 -19.8278 1.2484 6.03861 -0.399516
299 1 3.31607 -22.1176 -12.5663 0.755854 1.96937 -4.73133
300 1 15.3163 -3.63642 18.7383 -0.832921 2.07879 3.64319
301 1 -4.69675 22.6496 -21.2064 2.50838 -1.12825 -5.27538
302 1 0.889095 10.2192 1.38236 -1.9829 4.22949 -0.0632516
303 1 -22.6361 -18.8749 -7.88405 4.43001 -2.63441 -0.372626
304 1 -18.5729 -17.4251 15.4174 -2.89967 -2.93633 5.50403
305 1 3.08419 -20.6659 21.8689 -1.95112 -1.13414 -3.11634
306 1 13.5111 20.723 -11.7851 -5.0615 -0.653494 0.601644
307 1 12.596 13.0158 23.9395 1.87589 -1.54133 1.37218
308 1 -18.1742 -22.536 2.98727 4.63422 -0.237906 3.67827
309 1 7.19905 -16.2978 20.4061 1.43839 -1.03701 -0.750185
310 1 2.03063 16.0264 14.0279 0.490522 2.91913 0.844559
311 1 13.5614 -11.0058 2.24242 0.328407 2.89684 -0.0322295
312 1 -7.15782 1.51556 -8.07649 0.67035 1.12533 -2.37914
313 1 -17.825 -18.343 -9.12452 2.37165 -3.75586 -1.01785
314 1 -13.2536 7.07559 -7.91423 0.709826 0.0605754 1.31751
315 1 -15.4627 -22.4023 2.69508 -2.96046 2.02006 -0.329482
316 1 20.8717 -5.73841 4.33668 -1.07915 1.20816 -1.23527
317 1 -10.2468 -8.83609 22.9847 5.72874 -5.56231 0.780333
318 1 20.3426 -18.627 21.9849 -4.26379 0.0694433 -1.18254
319 1 -9.75625 0.905401 12.5979 2.17577 -0.828821 -1.24693
320 1 -1.13954 1.43463 8.87006 -5.78875 7.51828 1.33463
321 1 -20.0099 -11.4224 -12.698 0.648523 2.78305 -0.422067
322 1 -12.2313 14.454 -1.12643 -5.99726 3.22221 -2.58903
323 1 -14.1535 1.84202 1.8744 1.44543 1.25353 2.25423
324 1 -23.697 4.09458 6.89007 -1.62668 -0.27788 3.86323
325 1 -1.99327 -18.1544 18.7356 0.862474 -1.87268 -2.83244
326 1 -17.9355 2.39114 1.76623 -1.67673 -3.6834 -0.438285
327 1 -6.31025 -10.9512 20.3853 -5.75034 -0.536552 -1.88364
328 1 12.1382 21.2633 15.1099 -2.31305 -1.59666 -0.929041
329 1 -0.209791 -0.530248 -11.0687 0.623002 -1.00341 1.92294
330 1 -15.0511 -24.0997 23.7532 2.72954 -1.02883 -1.14995
331 1 12.6244 5.41412 6.49647 -2.50739 -0.427983 -2.7095
332 1 9.26925 -1.92735 -11.2345 2.55445 -5.02595 0.889859
333 1 8.26205 -11.5073 -13.3882 -3.28943 -1.1173 -0.371791
334 1 6.37106 -23.0899 -3.3433 -2.01932 -4.9094 1.24783
335 1 21.0365 -22.5188 5.24644 0.47659 -2.78701 -2.05468
336 1 18.5358 15.9395 -22.2652 -2.4521 -0.484544 -1.39619
337 1 -19.2242 19.5823 -0.952541 -0.492314 3.28862 0.157481
338 1 8.16055 -8.36041 20.3408 -2.92054 0.716796 8.29882
339 1 -7.02281 -16.3645 -23.3586 0.277255 3.66646 1.93798
340 1 -14.2274 3.73517 -18.3418 4.43669 2.87342 -5.32844
341 1 -9.62827 1.70622 -15.5116 -1.17429 2.63257 -2.27945
342 1 -2.73632 -15.3884 -13.0588 -0.884831 -1.96862 -2.77578
343 1 -3.67357 -11.9561 -6.86502 -2.52181 0.419093 -2.71381
344 1 7.06325 -18.3043 -11.7322 0.779793 4.47144 -2.26464
345 1 -11.8917 -5.67028 13.672 2.55587 -7.59409 1.23299
346 1 16.4612 0.491217 6.62205 2.90764 2.12134 -1.04426
347 1 20.4275 -6.3332 8.96937 -2.64166 1.41637 0.197065
348 1 -13.0592 -4.02129 7.86428 0.63656 -3.35108 1.46486
349 1 -8.08932 12.27 21.3826 -2.57722 1.55339 -3.28007
350 1 23.3005 19.2984 22.282 0.366361 -5.28749 -1.61706
351 1 -18.7237 4.97623 10.5202 0.538785 -2.12947 1.2733
352 1 14.4708 1.48826 1.75099 -5.84976 -0.228041 -0.602692
353 1 17.6613 -23.1892 -16.3831 4.88285 2.97032 -0.563357
354 1 9.7174 22.7009 -6.48866 6.14435 0.556158 3.03028
355 1 -1.10067 -1.73515 8.22285 2.75128 2.90129 -2.48753
356 1 -2.7524 -18.8892 -21.4245 -0.871398 3.92759 -0.907521
357 1 -7.0688 -14.2242 1.93941 -6.11597 2.09121 -0.850706
358 1 19.6999 -14.2858 12.0161 1.11968 -1.84869 -1.84588
359 1 -14.3409 -22.9617 -10.6864 -2.57884 4.1195 -1.2883
360 1 5.48211 16.0752 2.37192 3.05573 2.00193 -2.71599
361 1 -22.7206 -21.2936 -3.40022 2.62682 -2.40561 1.33686
362 1 -19.1294 11.2092 2.54407 1.81264 3.94902 1.41564
363 1 -18.9008 -21.6194 9.68332 -0.385062 -0.512467 2.26137
364 1 -10.1647 3.13376 -8.92116 -0.10253 3.03918 3.02764
365 1 -1.36467 -15.8448 20.702 4.28938 3.39893 -1.40984
366 1 -19.4241 -0.250351 -9.79929 -3.65372 1.93532 0.991933
367 1 8.06435 19.2779 -16.2643 -4.79899 3.26324 0.195345
368 1 3.69136 -5.29611 12.8307 -2.19384 2.07283 0.915673
369 1 14.2705 6.5584 -12.7925 2.18165 3.49704 -0.302345
370 1 6.19025 -15.5035 -22.687 -1.74073 -3.73281 -1.09085
371 1 -10.1426 46.0279 20.4897 -0.810673 -1.25536 0.737403
372 1 -7.78711 24.4079 9.40187 2.86937 -0.863551 -0.841509
373 1 -16.3761 4.43722 21.827 -2.61558 -2.95612 -0.869136
374 1 -7.87093 19.7154 -11.7876 -2.56863 -2.02435 3.44963
375 1 -20.6706 -7.3021 23.6109 2.56407 6.51177 -0.701477
376 1 -6.35607 -12.8278 -16.3434 -0.207956 0.591013 3.81195
377 1 15.4768 -0.385889 15.5836 -3.57932 -2.05091 -3.66735
378 1 18.5835 -14.8866 -4.8993 0.0272296 -1.86472 9.91884
379 1 -23.6911 25.2449 2.54704 1.30615 -1.5524 1.08816
380 1 14.2876 17.3714 -21.2283 -2.43314 -0.920321 0.674037
381 1 -21.0106 -16.1237 15.7155 3.93392 3.02469 -1.262
382 1 17.3964 17.496 -4.86388 1.91384 1.89258 1.25142
383 1 11.637 -24.2034 9.54785 -2.11664 0.89053 -1.75283
384 1 -10.6744 11.4834 -7.78576 -3.96887 5.37196 1.45789
385 1 -8.09565 2.4734 19.5853 0.964479 0.615049 -1.3339
386 1 18.8355 -2.07738 -20.3676 0.475766 -0.132981 -2.46127
387 1 6.92152 -19.7392 3.7835 1.05725 -2.29127 -3.57135
388 1 -18.2555 45.5362 24.036 -1.91574 -0.839707 1.62403
389 1 -13.5562 7.45497 7.96177 2.00375 0.044919 0.928153
390 1 12.7538 7.33093 8.30929 5.36012 -1.42734 -0.399845
391 1 20.177 1.92391 20.2664 0.013414 -2.72765 -4.58363
392 1 18.2172 -9.83814 19.7337 0.915732 3.12268 -1.5952
393 1 -12.4877 -20.5895 -13.7309 -0.640693 1.64999 -3.54396
394 1 -8.63823 11.8114 -4.9032 -5.33908 -2.13528 -3.88512
395 1 -8.70649 46.4161 18.3427 -1.63425 -5.25549 -5.90172
396 1 8.55354 -19.621 1.24372 -4.05644 -3.4156 0.68108
397 1 4.08613 -20.6059 19.4115 3.33696 0.0661242 -0.46661
398 1 -23.1654 -22.1733 -6.16898 -1.85808 1.89659 -2.68632
399 1 10.6954 15.5728 0.200884 0.588248 -1.12068 1.95522
400 1 -22.5972 -17.2002 -1.13752 5.02 4.01499 1.04857
401 1 20.2284 -18.1427 -4.14749 -3.11793 6.34724 0.17279
402 1 -2.15243 10.8063 18.4132 -1.16828 2.19055 -3.68872
403 1 16.6046 2.03047 22.0791 -1.00686 4.51726 -0.157753
404 1 -15.4391 -0.52426 1.45275 -3.65321 -3.14873 -3.32273
405 1 6.02744 -23.7312 -6.23607 1.13021 0.406746 -2.49908
406 1 -5.2856 -22.4672 -23.2508 -3.57395 0.464073 -1.01387
407 1 2.10871 -9.34909 17.4613 -1.43138 -4.36599 1.31107
408 1 -2.45565 -2.15089 -18.6582 -1.27542 1.68008 -1.59026
409 1 0.29219 1.40968 -5.9645 4.91766 -0.271049 2.44002
410 1 -15.8109 12.3894 1.01223 4.45892 5.15052 -0.484758
411 1 -2.83348 -3.9134 -7.86967 -3.65624 -1.18423 -1.63489
412 1 -16.9124 -6.40588 6.08113 -0.280825 -3.18824 1.26801
413 1 -23.97 23.6532 0.285128 -0.606099 -0.0703826 -2.39906
414 1 3.94858 18.5475 -14.1376 -0.503418 -3.27913 5.51888
415 1 -17.6029 6.78844 -8.75466 -1.23712 3.64432 -3.81815
416 1 22.8802 1.00476 12.6953 -3.54675 -0.331507 3.03645
417 1 -13.6851 -0.437569 9.47246 -1.75065 -4.83439 4.72938
418 1 22.8944 17.0674 4.60964 2.4855 -2.69629 -3.48823
419 1 -23.0361 4.15126 21.8425 0.0622486 0.647758 -0.580761
420 1 -0.68709 -0.487494 11.8544 1.87389 2.55989 1.93603
421 1 -15.0676 -24.1992 -14.7664 -0.463298 -4.56376 3.08363
422 1 -4.7025 16.3961 -23.1696 -1.69112 -3.48963 -2.56917
423 1 -9.46527 3.57857 2.7955 0.515723 -1.20128 2.36101
424 1 5.70412 -5.60339 -1.71326 0.106523 -0.337094 1.43462
425 1 -21.5947 16.0472 18.9233 -1.51843 -0.940996 -4.7134
426 1 -15.7903 -2.88026 -8.7792 1.47713 -0.589079 4.78143
427 1 -15.2268 -24.5462 20.9864 5.8938 -0.44443 4.23881
428 1 8.74208 12.876 -8.05097 -1.50345 2.9878 1.44714
429 1 -6.26858 10.1625 -15.9318 -4.70262 -5.42454 -1.2212
430 1 -19.8662 -3.54612 -22.6352 1.56768 -0.324766 -0.317197
431 1 10.2381 -4.7087 -17.2982 2.72382 -0.661082 -0.991433
432 1 6.86257 -3.74201 12.6069 -2.4645 -4.55155 -3.08732
433 1 -18.7467 2.78136 -17.4634 -5.24769 0.152077 -0.459669
434 1 -11.6074 -1.60522 -12.5598 1.70712 2.59514 0.285921
435 1 1.05237 23.3849 7.58602 1.87856 2.17879 2.04477
436 1 -13.9401 -10.1029 -11.6334 -0.324531 0.745533 2.89281
437 1 20.3432 20.0008 -12.2567 -1.93957 3.83095 -2.6403
438 1 -17.1234 3.70838 -4.3903 -0.167477 6.27236 -2.16146
439 1 -2.40778 23.88 -6.28928 1.62989 -1.04988 1.94083
440 1 -9.07299 13.9612 -15.2297 -3.57012 -1.95916 3.03322
441 1 18.2063 1.47874 -5.53737 1.36137 6.14802 3.38032
442 1 4.7166 3.5133 15.2947 0.754384 0.971865 -0.061352
443 1 18.2846 23.3785 12.6628 -0.942177 1.73491 4.94292
444 1 -24.1846 9.02633 -18.7091 -2.55842 0.60119 -0.654997
445 1 17.9041 -11.0087 -12.3291 -2.88123 2.26118 3.36579
446 1 21.5462 -14.6269 -7.40101 -2.61479 2.31349 0.0418657
447 1 7.45563 19.2568 15.7536 -0.384259 1.46603 -0.683556
448 1 -15.8379 -1.72141 14.6401 3.19071 -1.60781 1.25851
449 1 13.6929 -3.885 -2.80659 1.45507 2.46979 0.397027
450 1 13.9006 -19.6453 8.15522 -1.00276 -5.6576 4.16364
451 1 -23.9806 -10.9732 -19.5962 -2.15532 0.765928 1.16561
452 1 -23.8865 17.0849 -0.75953 -3.61491 -1.76892 2.16409
453 1 -17.8737 13.311 7.87804 -1.47833 -0.000959321 2.0555
454 1 -2.58869 1.44806 -14.981 -1.33701 2.76146 0.458269
455 1 15.0889 -12.0013 15.013 2.64498 -3.62851 4.24548
456 1 -4.4099 15.5328 22.202 -4.1357 2.81151 3.04106
457 1 6.02723 22.2573 19.0266 -1.39785 -0.260086 0.838636
458 1 21.4597 20.4337 17.5629 1.57741 -1.05138 0.205846
459 1 1.97126 6.75154 -12.3962 2.40688 1.95548 -5.45113
460 1 4.44097 8.52997 -21.5725 3.29278 7.42758 -0.419114
461 1 2.49749 0.079658 -20.0816 4.81218 0.0738831 0.652354
462 1 -7.14834 -19.1933 21.2155 -0.204652 -1.07677 2.00145
463 1 6.21872 13.3787 8.91663 0.737682 3.82205 2.25363
464 1 -14.2897 -24.1376 4.55014 1.9821 -2.31995 -2.23889
465 1 -3.75963 -12.8757 5.42493 3.97104 0.331357 0.811855
466 1 16.6026 13.9445 -21.7315 2.19611 2.32691 5.51674
467 1 -6.54317 -11.6338 12.2285 -1.81571 -1.31054 -2.25831
468 1 -24.1209 17.815 -9.22038 -0.971435 -2.24605 2.14498
469 1 -23.8423 -14.6971 12.6267 0.754378 -4.09409 0.245809
470 1 -18.7983 6.99149 -13.2946 0.806445 1.05351 -0.609334
471 1 23.1522 -8.15103 -9.27255 -1.98889 -1.18371 -3.14671
472 1 -16.313 -6.98527 16.3653 -0.229286 -1.72414 -2.28889
473 1 5.02829 13.6657 12.4743 3.97988 -0.312205 -0.114523
474 1 5.2687 -8.33091 -11.0901 6.109 -3.07336 -0.919028
475 1 19.8678 14.4107 -20.0447 -1.29593 1.12198 -3.41666
476 1 -12.898 -5.65063 -2.79721 0.695702 3.70857 0.250132
477 1 -12.3785 -9.81573 -15.2977 0.614305 -2.99538 0.267556
478 1 3.14429 1.55903 -23.3264 0.40737 -1.58065 -0.156716
479 1 13.2548 -18.6815 15.321 -2.42953 0.283387 0.583755
480 1 0.842921 -11.638 8.60665 -1.81888 -3.67044 0.667417
481 1 -1.12214 8.72851 -19.8002 -0.359551 2.39244 -3.37872
482 1 -24.0622 -2.4104 19.8004 2.60701 1.28378 -3.52531
483 1 6.57323 -15.9934 0.889551 2.86784 3.21179 -0.93682
484 1 21.6154 -17.0489 -11.8683 -1.87866 3.34803 2.12897
485 1 21.3123 -21.2278 -17.7847 -0.133256 2.51863 -1.86228
486 1 16.021 3.09707 -4.68054 -3.00965 4.41791 -1.65976
487 1 2.51408 25.6032 18.9275 -1.98964 -2.48654 -1.84136
488 1 1.59762 -14.4723 22.1449 -0.0350248 -0.720783 1.22128
489 1 -11.9612 22.4169 -13.1911 5.72199 2.11986 -2.87047
490 1 13.8386 -16.0046 -11.392 -3.15495 1.30497 2.22333
491 1 -18.3113 -13.6508 9.08258 1.73582 -1.9236 3.0117
492 1 -14.822 -16.5514 -11.1451 5.90379 0.696256 -0.179586
493 1 14.2157 0.348514 -15.7554 -1.42078 1.64179 2.81241
494 1 7.31375 4.75253 2.70199 0.799863 -2.31241 -1.70848
495 1 -2.44791 -9.25875 -2.85301 -0.535754 0.478751 0.944807
496 1 5.01175 7.37447 -14.7988 1.73327 -7.50355 1.40646
497 1 9.55918 16.2356 23.6607 -1.49354 0.486484 -5.85936
498 1 -23.9956 1.38684 -21.7915 -3.15506 -2.31128 1.11266
499 1 -21.4909 1.84601 -8.60199 2.94684 3.27011 3.53193
500 1 -5.71276 -15.9385 8.90783 -5.59599 0.269153 -1.32338
501 1 -16.3949 -12.8893 -10.0494 -0.122322 -0.838465 4.90104
502 1 12.7111 -13.0902 18.7242 -4.88475 4.86285 2.75616
503 1 8.89977 -0.870187 -15.1892 2.47037 -3.46004 -3.26288
504 1 -0.819644 6.44414 5.75467 2.84393 -2.0254 -5.01006
505 1 -1.39329 8.40836 22.1672 0.777523 1.95561 -3.24326
506 1 -1.58531 -20.2975 -15.6937 1.7716 -0.141167 -2.43632
507 1 13.197 20.8998 -14.6458 -4.09127 -3.22892 -0.689627
508 1 -1.09529 20.8933 -8.36271 0.51285 -0.14859 1.2421
509 1 21.9787 15.9347 -18.8397 -0.257377 -5.25634 -2.54733
510 1 7.79731 -19.3918 17.6093 -6.10309 -5.53754 -1.53175
511 1 8.11563 -12.9084 5.34783 3.03395 -0.80654 -5.22844
512 1 0.757634 -3.49898 17.2791 -0.324293 -4.02867 0.341242
513 1 -19.3592 -12.4293 19.8973 0.850594 1.99581 3.65482
514 1 -15.4191 21.2024 19.6925 4.39342 3.30641 -5.20054
515 1 -2.21959 5.67851 17.0316 -5.37549 1.41127 1.38276
516 1 11.0764 -24.1261 -1.59528 -0.185794 1.42607 -5.86972
517 1 -14.1183 -2.86308 -20.6582 0.702053 4.86356 -2.39414
518 1 23.5105 -23.0823 2.03564 2.24322 -6.77306 -1.9968
519 1 -22.2229 -15.2159 -6.33831 3.14021 2.06951 -4.72357
520 1 -4.94988 -24.1784 -12.8113 3.80453 -0.19782 -1.69537
521 1 -8.34403 24.1477 -8.17072 -0.209756 -4.29851 -3.45441
522 1 2.96364 -17.1173 6.56627 -1.0109 -1.22601 -1.39365
523 1 -9.40676 -16.0895 -8.43534 0.848784 -0.435367 4.44308
524 1 -3.07407 -2.51748 15.6294 4.82915 -3.35691 2.22174
525 1 -7.74194 -0.227064 -1.85814 -5.19099 -0.688466 2.04227
526 1 -19.2535 15.6586 -5.86974 1.54172 -7.38973 1.69371
527 1 -3.0628 13.4135 -7.49147 7.32798 2.01616 3.58447
528 1 -12.498 16.022 -12.5184 3.61857 -1.01848 -0.24941
529 1 -8.91658 -11.406 8.11744 -2.50804 -1.95728 -1.45062
530 1 -8.43611 0.345388 9.55967 6.0638 -6.54069 -1.59098
531 1 21.6289 -7.8818 13.45 3.80661 1.38127 2.09837
532 1 -10.8032 -2.79114 -3.41977 0.0907784 -1.47821 0.308184
533 1 -9.62525 -20.4501 13.1836 0.651799 -1.90234 -1.81623
534 1 18.5966 8.75704 -11.4787 -1.05186 -1.87347 1.44783
535 1 4.49879 11.4504 10.6044 3.57453 -0.950999 -4.32646
536 1 3.35995 -7.26982 3.70881 3.27679 3.5352 -5.36819
537 1 9.09009 -5.39504 3.40863 3.53538 5.51432 1.93078
538 1 -22.6712 -8.9129 10.9118 -2.41046 -0.415236 -0.72725
539 1 18.8293 10.9679 -5.88048 -4.40747 3.17912 -2.327
540 1 -13.0511 -11.5005 3.06907 2.02705 1.72845 -4.92595
541 1 -10.7596 -1.78038 12.5256 0.321655 -0.853583 -2.34584
542 1 -24.047 4.90179 -7.19223 -3.9694 1.94962 3.39165
543 1 20.8649 -17.7604 -16.52 -2.20052 2.32135 -1.1614
544 1 -5.4167 -16.0929 -19.1621 -1.75987 -5.12245 5.56909
545 1 23.0168 -17.027 13.9488 -2.51341 -0.953326 -1.74371
546 1 -6.07401 -15.6259 -14.7863 3.30195 -2.33223 -5.03049
547 1 16.0031 -14.7862 -19.2403 0.116087 2.36514 2.00241
548 1 9.39443 0.719196 19.3952 -3.75282 2.35141 1.96239
549 1 -20.9033 -4.69328 7.14545 -0.75237 -0.937771 0.802811
550 1 -0.364267 -22.5484 -14.4444 -4.53018 -2.89016 3.5486
551 1 12.3282 6.75322 -17.4297 -0.906538 1.28167 -2.58798
552 1 2.78927 -16.3725 -0.223871 -3.54722 -3.31128 -0.13677
553 1 -12.0933 6.56937 -1.39178 3.60903 -0.654489 -1.80947
554 1 2.90131 17.8087 -16.9444 -2.67783 3.89526 2.51328
555 1 -15.7602 -15.595 -2.09693 0.0567798 -0.0226504 1.66713
556 1 -12.3707 17.3433 -1.31415 -4.27461 4.11009 -6.28821
557 1 11.6748 -21.7075 -10.845 -1.47254 -0.0661343 -6.87561
558 1 -4.1267 -13.4339 15.1784 1.76865 -4.45607 0.146522
559 1 -8.47562 -19.2073 5.0239 -0.832276 0.331089 -1.57179
560 1 23.4127 46.0985 -5.73293 -1.31048 -8.8269 1.45449
561 1 6.50301 47.1964 19.2202 0.440578 5.65651 -2.853
562 1 7.73887 8.52739 -21.7611 1.27853 2.11521 4.89571
563 1 4.7566 -18.9641 8.34395 2.16089 1.46483 -2.18232
564 1 -11.0387 -20.0104 9.25105 -0.265362 1.14957 1.84076
565 1 14.631 -24.125 21.1339 -3.12683 1.02848 0.479553
566 1 19.2005 15.0017 13.9154 1.24502 2.73195 -5.7778
567 1 -21.1385 23.4178 -2.53825 2.80928 -1.76103 -2.8223
568 1 5.50219 -7.1267 5.61039 -3.34826 -7.11814 3.51086
569 1 -8.64556 22.7745 -16.0017 0.913052 -0.457016 -2.45614
570 1 -22.9175 11.6191 18.1249 -1.50859 1.35297 -3.66653
571 1 0.038572 -12.1065 21.3171 0.954023 -0.250779 -0.420309
572 1 11.8052 -24.2381 5.9386 -3.64796 -0.513118 -0.737831
573 1 16.9205 -5.67339 5.93741 1.60012 -1.72944 -2.42319
574 1 14.2349 -21.9905 -4.29415 1.08118 3.3756 1.3587
575 1 -14.5244 4.70943 -4.53306 -3.18137 1.17157 0.277132
576 1 -23.9729 1.7021 18.6873 -2.86455 -0.251514 -0.266743
577 1 -9.4697 20.9811 -0.14325 0.380445 0.678763 -0.828735
578 1 -24.0478 21.4626 -22.5633 -0.692121 2.34291 2.37259
579 1 0.498628 -21.2435 -12.0556 -0.882487 -1.9044 -0.0499883
580 1 -5.96653 4.83724 -22.436 -4.40169 2.76619 -3.09521
581 1 -13.8616 -11.1555 11.7155 0.904513 5.89529 -1.64445
582 1 -4.27409 -10.9005 -16.8891 1.30715 -0.78576 1.35443
583 1 -21.986 23.2007 13.17 -1.60334 1.65637 -0.962673
584 1 17.8302 2.49967 -8.30314 -2.59981 -5.72334 -2.87926
585 1 -6.85558 11.8853 14.7957 -0.512582 7.19918 -2.42132
586 1 17.5611 23.0762 -20.4323 -1.39552 2.1303 -0.611959
587 1 -21.6212 46.0524 -11.2574 5.16342 -0.198468 -1.54668
588 1 -16.8551 21.7685 5.6078 1.00219 4.77963 3.3502
589 1 -0.728552 1.51181 -0.474855 -0.942883 7.0862 -1.15079
590 1 -6.6244 19.3281 22.0281 -4.93527 -1.49129 -0.930904
591 1 19.152 -18.8628 14.1986 1.14073 -5.56199 2.53785
592 1 -15.3381 -13.7939 8.86332 -4.48407 -7.70669 1.28934
593 1 -13.2832 -20.5578 16.977 -1.47568 -0.687849 0.231671
594 1 -20.458 -0.81918 4.02185 -0.640224 -0.31736 -0.100505
595 1 10.1233 -17.7527 23.7354 -2.03138 1.31121 3.94377
596 1 -12.5033 -20.3701 4.73887 1.1192 -3.72157 -1.46517
597 1 22.255 44.4358 -9.30225 7.15597 -8.58275 3.00771
598 1 14.5713 -18.0837 3.8888 2.22383 -5.05721 4.30045
599 1 11.7178 -14.0388 15.0793 -0.41121 1.76814 0.21552
600 1 -22.0829 22.8623 17.9194 4.57732 -2.09872 -2.86332
601 1 1.24352 -3.31905 20.1138 2.99499 2.6164 -0.0520387
602 1 -10.9721 2.47223 18.6216 -1.80418 -4.00791 -1.90056
603 1 -5.81019 6.34413 -5.03767 -0.487591 -1.93147 -1.66175
604 1 1.56963 25.9925 -21.7888 1.5687 -1.78234 -1.16634
605 1 -20.2451 -0.234641 18.1513 -0.760874 4.5921 1.23463
606 1 3.93455 -1.01981 -22.4754 -0.918922 1.17279 -2.72392
607 1 -2.67218 -4.23726 13.2395 4.11304 0.237688 -0.0881146
608 1 5.66332 4.34498 -10.9896 -1.42508 0.740578 -3.38046
609 1 9.4784 -22.1036 20.8092 -2.98976 -4.04408 3.50209
610 1 14.5264 -3.18481 15.9061 2.11413 -1.94662 1.21209
611 1 -1.42918 -9.90614 -7.22156 4.82222 1.38229 2.63099
612 1 -3.29547 11.2251 -12.4216 -1.90752 0.604866 0.99551
613 1 12.097 8.66829 -21.1909 -0.963939 -1.93819 1.45825
614 1 -17.7579 -9.85353 -5.8228 -5.9066 2.62423 1.79115
615 1 12.4399 -3.12325 19.1893 1.6548 -3.52168 -1.17907
616 1 17.207 -1.34107 19.377 -1.28869 -3.1478 -0.904735
617 1 -12.0173 24.1625 -18.5851 1.52989 3.22756 3.47066
618 1 15.0113 7.47258 9.63053 -0.256561 1.14045 2.59501
619 1 15.446 -1.15213 12.7938 -0.122396 -2.12864 2.52543
620 1 19.7863 -13.6105 -9.51481 -0.0381231 -2.31727 -5.21602
621 1 -7.38749 12.8986 -13.2342 1.61051 -7.09076 2.07598
622 1 -23.3866 -8.05777 1.17911 -3.31444 -2.43407 5.17084
623 1 19.6506 -13.4152 5.09173 3.70166 1.24696 -2.44657
624 1 -8.03862 3.22887 -21.1577 4.17017 -4.0795 1.52027
625 1 1.585 -7.87089 -5.59283 -0.0904 -3.91972 2.77753
626 1 -3.94421 6.04502 -20.694 0.264249 1.96767 -1.112
627 1 19.5994 15.0983 11.1892 2.1194e-05 0.0741156 2.68062
628 1 -23.8843 -15.1808 0.0510786 -3.20131 2.35142 0.347112
629 1 -6.21241 9.15391 -8.01681 -2.97203 -1.65041 4.54382
630 1 -22.1246 22.5399 10.1674 1.97161 -0.737761 0.125653
631 1 -5.70856 -18.2033 15.9537 3.44222 4.30758 -1.82724
632 1 -15.2092 -20.0437 3.89323 0.459739 -2.26205 -0.584365
633 1 5.06906 10.2669 -23.6897 -3.20695 1.09245 -0.905763
634 1 -9.98179 -3.88853 14.8408 1.81754 -0.78194 -2.02028
635 1 8.1253 12.1844 -4.07074 -1.427 -2.37825 -0.479179
636 1 -23.5761 2.4162 -16.0009 2.47198 -4.93395 -0.720812
637 1 -9.89592 -22.6133 -23.3787 -2.85888 4.1946 -3.16822
638 1 13.0342 17.8603 -4.38941 2.95422 -3.7422 4.02149
639 1 -12.1248 -16.801 -22.1866 -1.56128 3.06269 3.6565
640 1 0.865148 -0.0294144 2.49212 -0.845898 -4.28484 -0.980132
641 1 -14.7317 17.3574 4.74597 -2.95023 4.58893 -3.15853
642 1 -5.40824 -2.10686 4.08405 -2.45907 2.99076 1.66807
643 1 9.42384 -20.3715 8.99848 -3.76337 -4.37957 2.07593
644 1 -6.14806 10.7384 -5.66211 -0.65793 -2.41193 -2.99997
645 1 -8.21194 -4.26854 -19.9687 -0.205943 -0.909362 2.6347
646 1 13.5899 23.7255 15.5939 2.36832 -4.32143 0.971008
647 1 3.72159 3.95593 -4.35867 -0.49706 3.26882 2.6355
648 1 18.2437 -14.2303 -22.7097 -4.52195 -0.145017 2.12374
649 1 8.23978 -15.2365 18.0605 5.6716 0.527552 -2.704
650 1 -9.17645 0.132147 17.8383 1.86067 -2.38965 -0.0676645
651 1 -21.2094 5.99373 -14.9064 -0.0186467 -1.7593 1.98668
652 1 -8.21398 -1.3456 -19.9162 -2.79652 0.884206 -2.32405
653 1 -23.3587 -22.6811 -14.9422 0.17192 -5.13127 -3.00816
654 1 -11.19 -1.91144 -20.6602 -2.0863 1.88356 2.68295
655 1 -6.73538 -10.7935 -13.4705 -3.72581 5.57456 3.48341
656 1 0.51975 22.5059 -10.0083 -2.65644 0.192237 -0.488549
657 1 -0.643957 -4.53794 -12.5382 -0.321739 1.61496 0.304562
658 1 21.1897 13.1581 12.5808 0.769798 -3.15837 -0.458901
659 1 7.71934 -4.02624 22.0112 3.25368 -5.14624 1.3351
660 1 9.16637 5.08127 7.68279 -1.90221 -1.08186 -0.840039
661 1 -18.4597 -6.72975 -18.0344 3.14453 -1.70883 3.60236
662 1 1.13648 -6.25659 7.2633 2.34145 -1.09704 1.99411
663 1 -14.6146 -18.9159 -9.42466 -2.14401 -0.85328 -1.68604
664 1 -14.7897 -22.605 11.2037 1.17257 1.91546 1.27709
665 1 -1.74192 -4.61102 17.4548 -3.89455 -0.830557 -1.16585
666 1 -9.53616 -5.17977 -12.0885 -5.16693 2.79214 -1.44048
667 1 -19.9877 -20.2214 22.3578 -1.63876 2.10479 -5.88062
668 1 -9.36664 14.5852 17.8648 -5.88815 -2.68366 -2.68138
669 1 7.15498 -14.4502 15.3578 -3.72843 -5.03326 3.32296
670 1 1.53968 -13.2864 -1.07018 2.73299 -1.35462 0.0596768
671 1 18.8668 14.7323 2.23364 -2.46977 3.09834 -2.76165
672 1 -22.0886 4.85305 -12.1496 3.35014 -2.00799 4.83392
673 1 -1.6163 17.7227 -23.3894 1.52788 1.14473 2.45562
674 1 -10.2724 0.0872403 -22.3564 -2.47952 -0.671632 3.57715
675 1 -21.7317 -11.3656 -7.29208 -1.58245 -2.96043 -1.42597
676 1 7.30622 3.153 16.5394 -0.41576 1.55262 -0.844622
677 1 -22.4032 -12.1852 -10.812 -3.18244 -6.91503 0.418755
678 1 -22.0162 -4.8189 -0.428028 4.85534 3.18584 -2.64587
679 1 -17.8341 3.26481 -11.3114 -0.2873 -0.143967 -1.20562
680 1 7.80655 22.1243 -8.39757 -3.52242 0.233207 3.20272
681 1 -2.33733 0.759378 -6.90315 3.25356 -0.185518 0.32013
682 1 -3.33862 17.0608 -8.35007 2.79573 1.7076 3.37803
683 1 2.34431 10.496 -19.0014 0.800844 0.350018 4.54665
684 1 10.5956 -19.6332 -12.2891 -2.31469 -0.951684 -5.79359
685 1 21.7391 -2.24951 7.29997 0.866744 -2.26656 -1.7197
686 1 -14.1086 -2.27419 16.6512 0.319028 4.52598 -0.646531
687 1 -11.9144 5.64888 9.52223 -1.83402 1.8894 2.11265
688 1 -10.9851 -12.9675 -15.1466 -0.216736 -1.35428 2.75029
689 1 -1.45515 1.37719 -3.44452 0.0357944 0.744077 2.14004
690 1 0.214176 23.3557 -7.13582 -0.875156 -1.2116 0.29444
691 1 -0.105171 6.38831 15.3902 3.76853 0.558574 0.298733
692 1 -9.37898 -3.63824 2.47301 -1.34854 1.1297 -3.25972
693 1 -9.6044 22.9779 4.46145 -2.30402 2.31845 -1.2964
694 1 10.8326 -17.5879 1.90163 -3.87011 -2.53852 0.494133
695 1 5.53613 -12.8841 -10.4892 -2.96899 -3.09728 2.48156
696 1 -7.50468 -21.9629 6.13091 -0.0934629 -1.20644 -6.02114
697 1 -19.9837 16.7502 -19.9859 -1.50694 -4.26475 6.69429
698 1 21.8058 -12.4691 -5.48437 0.915931 4.34534 1.57898
699 1 -13.2838 -14.2508 16.6732 3.04867 -0.403179 1.44225
700 1 1.23499 7.52693 22.9271 -0.214303 -1.73154 1.75293
701 1 17.4189 0.233554 9.45625 -0.782906 1.65467 0.436398
702 1 -17.1759 -4.32135 10.573 -0.144607 1.83287 -0.815193
703 1 7.2763 23.9078 -22.5379 -0.592218 -2.90303 -3.11422
704 1 -10.9038 -12.6102 9.84771 3.0139 1.86932 5.60429
705 1 5.9107 20.4751 -14.8193 0.42828 4.97433 0.93672
706 1 6.73409 1.92057 18.9364 -0.437001 -0.444489 -1.76886
707 1 -17.6407 0.343312 21.9332 -2.84814 4.66854 4.43636
708 1 8.83638 -6.87467 -18.8556 1.20285 0.370191 0.413787
709 1 -8.45084 -3.85645 -5.07631 -2.57659 4.23724 -1.89766
710 1 -3.27976 -10.5156 14.9908 -4.33866 -0.489421 2.88784
711 1 -12.8142 -6.07953 -15.5376 -2.98709 -2.01905 -3.86386
712 1 6.53378 -9.65484 16.2814 -2.5379 -12.3301 4.8951
713 1 3.18572 4.95993 1.98384 3.04159 -0.0446924 5.46366
714 1 16.93 -7.62042 -12.5427 -4.3595 2.81028 -0.693348
715 1 0.0672672 18.5452 10.8842 -1.87246 0.824348 -2.47467
716 1 0.558508 -21.1846 7.80516 1.47402 0.13588 1.99205
717 1 -11.7021 -4.00681 -14.1037 -1.22034 -1.59616 -2.4302
718 1 -12.2697 -6.53764 1.71001 -0.394022 -1.62763 0.599164
719 1 15.478 -9.41891 13.5496 -2.00174 2.22922 2.4773
720 1 4.00778 -6.43833 -21.734 2.66417 0.634978 -2.37126
721 1 -10.3414 -6.83806 -16.8398 6.40337 1.6282 2.2972
722 1 6.59186 -20.9167 -14.851 -4.25905 -3.88727 -1.30701
723 1 -21.3003 13.2143 -5.77726 -0.810045 -2.80629 1.67292
724 1 -10.1795 21.8617 -11.1659 -2.93154 -0.0427087 -2.4859
725 1 2.10491 19.8525 -23.389 -2.06291 0.869249 -0.886136
726 1 -4.69039 -9.55384 22.1579 1.68343 -2.55019 -7.31696
727 1 6.55628 -4.92773 -14.944 -0.130037 0.697088 6.85472
728 1 -10.8519 17.1957 -9.27353 2.9289 -0.985067 -2.29026
729 1 -13.6302 14.1889 16.5967 0.171923 -1.21728 -0.1139
730 1 14.6373 -20.3723 -16.0946 -3.49442 0.48852 -4.33902
731 1 -13.0593 12.9141 23.766 0.674317 -1.94522 -2.39215
732 1 13.4832 -22.0408 -8.41861 -0.656515 -1.39819 -0.565054
733 1 -15.8339 -17.4513 5.17659 5.27706 1.60928 1.61723
734 1 -20.591 21.311 20.1913 1.70039 -1.98552 -0.358926
735 1 16.5013 9.36172 6.33047 5.1217 -2.46944 0.772738
736 1 6.65442 19.8024 -7.26266 2.10701 -0.914308 -1.44313
737 1 20.8223 -15.8931 5.87066 2.40601 -3.63441 6.11551
738 1 -8.66373 7.47352 12.4182 1.06311 -4.78799 -7.94856
739 1 -19.2661 -20.0679 3.05822 1.53884 4.60526 0.960365
740 1 16.1958 11.5083 19.7439 1.81816 2.65013 -2.43357
741 1 -16.2141 -22.0487 -12.8807 1.32597 1.1757 -4.27677
742 1 -9.00025 -24.1694 22.6718 -1.46253 6.02578 -2.12193
743 1 -23.8724 20.6733 2.59188 -5.53382 -1.44426 1.02418
744 1 8.23767 -15.5644 -10.933 0.0145529 1.71614 -0.557398
745 1 -21.1315 2.67974 18.7691 -2.79321 0.519229 -2.7528
746 1 -16.3645 -7.01153 23.2463 -3.69559 1.12105 5.32855
747 1 11.086 -10.0363 3.04186 -8.81941 -2.38335 -2.16874
748 1 -12.8861 -20.5641 23.2853 1.95549 2.98044 -2.59843
749 1 -1.07914 14.9798 9.4426 -3.9311 2.43058 3.92126
750 1 17.1024 -4.57369 -12.7653 5.19443 0.92024 -3.51843
751 1 -17.5972 11.1785 -14.2661 -0.0951488 -1.693 1.95623
752 1 20.9587 -20.4067 6.91424 -1.62091 1.7924 2.98863
753 1 -15.3339 -17.272 23.0616 1.73064 -6.76229 -1.12057
754 1 -15.3385 25.6724 15.6923 3.00613 -0.570747 -1.38589
755 1 11.0405 10.036 -23.3832 -1.13045 0.647877 -4.61165
756 1 -4.68722 -4.47282 -2.48805 -4.75701 -0.412769 -3.21428
757 1 -18.7481 12.1582 -5.03424 -1.24648 3.59134 -2.68177
758 1 -15.9367 -17.3056 19.19 1.61194 -0.100344 1.04148
759 1 -0.13439 12.2442 -9.46521 -1.05493 5.13193 1.21346
760 1 1.45034 5.16484 13.3456 -1.57737 -6.1808 -1.09844
761 1 -9.30419 -12.1991 -7.27838 -3.01884 -0.790341 1.18551
762 1 4.98782 18.9737 22.483 1.15336 -1.75544 2.46041
763 1 16.1763 4.62761 9.45 -0.403713 -1.7922 -0.0599132
764 1 20.2872 2.53305 7.42104 -5.45009 1.89884 0.786165
765 1 21.9952 12.5611 8.22477 -10.2276 0.657189 -3.75133
766 1 -11.2974 18.1536 -16.5524 3.57626 -6.96203 2.43309
767 1 0.670117 -9.65605 1.77571 1.43064 0.708558 0.597669
768 1 -6.56851 11.8785 8.85729 2.19411 2.01586 -0.587508
769 1 12.9571 25.0865 18.0352 0.3819 5.72201 -3.49111
770 1 -2.1017 22.4493 -21.7959 -2.1211 5.64629 4.15213
771 1 9.68026 -15.4999 14.1897 -0.648361 -1.13761 0.783701
772 1 4.30607 9.2411 6.47519 1.8464 -1.63043 3.75614
773 1 11.5851 -22.0275 14.8276 3.52426 -0.990849 -0.436602
774 1 16.4373 15.6345 14.0422 -1.90072 -5.73357 0.121166
775 1 21.2095 -21.124 -11.861 -1.669 -2.89873 7.64938
776 1 6.89042 0.91971 23.6293 2.94388 6.44145 -0.785877
777 1 22.9154 -10.9473 -10.127 2.06314 6.33743 -0.616058
778 1 1.0905 -16.8201 -15.3889 -3.84631 -3.05024 -3.06802
779 1 7.30842 1.99173 -7.73392 -2.25445 1.63002 -0.198665
780 1 -6.03259 -8.26746 -19.8334 2.44311 -0.238746 -4.22858
781 1 -19.6986 2.30977 7.66801 -1.06936 -2.36168 -5.09096
782 1 19.2919 -7.22669 -14.0992 -3.59308 -3.93255 -2.79371
783 1 6.34027 -13.7494 21.558 -1.56042 1.85163 -2.5736
784 1 9.90067 14.615 -4.52782 -2.51356 -0.974399 1.267
785 1 -4.47768 21.821 22.9016 -0.934624 -1.92086 0.411127
786 1 -22.2212 20.7745 22.4683 5.91028 0.252816 -3.00897
787 1 9.06794 14.0517 -12.9908 0.808364 3.11469 -2.29686
788 1 -21.3171 6.50082 4.12139 1.32894 -7.43743 -0.0217233
789 1 -13.1257 18.4279 1.48263 -0.355389 -4.86012 -0.59687
790 1 5.99409 -0.224085 14.8774 -2.90993 1.21447 -4.93804
791 1 -3.16238 23.7277 15.1868 -1.46467 -1.69066 -3.07788
792 1 -23.6325 14.3158 -6.99803 -2.37517 3.60539 0.826967
793 1 -24.6508 -10.8722 0.776811 -5.98871 -3.20573 3.32475
794 1 4.11769 15.9914 -23.851 -1.161 -1.7593 2.03461
795 1 20.306 -7.86716 22.1358 0.751035 -2.70533 3.42797
796 1 -10.5854 -15.7874 -15.8189 -2.55713 4.43925 3.9544
797 1 -18.0326 -13.3127 14.27 0.407949 0.517004 3.76108
798 1 -14.5312 1.90121 -7.81728 -3.67058 2.45989 -0.139898
799 1 -10.886 19.6252 -2.0251 1.8624 -5.44123 5.36513
800 1 -18.3506 -12.8625 17.0191 2.64081 0.462887 -0.960271
801 1 16.7234 14.8899 -1.58386 7.3594 3.1701 -0.00282599
802 1 -19.7762 -19.9987 14.7946 -0.33685 -1.23787 -3.26942
803 1 18.8195 -11.154 -8.44238 -0.536693 2.96487 -1.20892
804 1 8.45178 -20.401 -7.46753 -0.829267 -5.85698 1.14663
805 1 8.98457 22.0935 22.9435 -2.18865 -3.48719 5.37366
806 1 -0.459223 -13.3795 13.3822 5.69893 -5.3219 0.119241
807 1 14.093 24.9192 -23.2322 1.59833 3.22999 1.98247
808 1 -1.42333 -19.2301 -11.0673 1.47013 4.92768 1.92107
809 1 -5.54017 24.5303 -17.7399 1.12584 -1.37567 1.53965
810 1 -24.3618 -14.4647 -4.35756 0.314877 -1.63112 -3.64596
811 1 -14.2048 -7.64781 -6.29399 1.91748 0.0819921 1.68322
812 1 3.03498 -11.5749 -9.40416 -1.41899 -5.25413 1.62798
813 1 -15.6957 22.8772 -16.5989 0.829172 -3.098 2.45893
814 1 -22.5582 -1.9759 -1.0109 1.2957 1.53042 -2.16025
815 1 -19.535 11.3362 -16.4147 -2.46588 4.3873 2.08722
816 1 18.108 -18.8855 17.8438 4.0937 0.250341 1.63933
817 1 7.99609 -12.0287 16.2921 3.36491 1.4468 0.0771222
818 1 -9.51146 6.56479 19.1958 0.645993 -0.89994 -3.66659
819 1 7.76013 11.8272 21.8145 2.66778 2.76631 -4.7828
820 1 1.18692 13.3374 6.5935 -1.68564 0.196137 0.119545
821 1 23.6248 -24.1542 -22.1016 2.81444 -2.17176 -2.53976
822 1 22.4624 -14.4316 17.8918 0.221772 5.70132 1.04224
823 1 6.94416 -9.76249 2.92189 -1.86793 -1.72895 -2.01661
824 1 4.97805 -19.2804 -6.39404 0.69266 -3.67823 2.57585
825 1 -21.5362 6.16762 6.99678 -6.37295 -0.38365 -2.00656
826 1 -12.1296 8.20311 -4.00096 2.42465 -3.04999 1.12623
827 1 -1.94742 0.879345 6.09874 0.280021 1.1238 0.672007
828 1 -7.50125 -19.5476 11.0155 -2.75085 2.34679 -4.86705
829 1 19.7815 14.7418 21.7699 3.42367 -1.11187 -0.927986
830 1 -10.4666 -8.843 19.2686 0.483218 5.32889 0.0778653
831 1 2.69345 -16.2351 -22.0429 -2.79093 -4.3795 1.07261
832 1 -2.54739 -2.60969 10.6654 -3.66466 1.1441 -0.262793
833 1 -10.6049 -4.60864 -7.1576 3.69101 -3.18432 -3.137
834 1 -2.58217 11.2209 -0.0289965 -3.06929 -0.946892 3.57777
835 1 1.84582 6.85065 -20.6916 -2.49863 -3.93435 -3.92227
836 1 3.99143 -12.379 21.7072 1.79896 2.95547 3.10166
837 1 -20.4191 -17.4364 -7.51172 -4.68439 -1.47232 -2.65737
838 1 20.9845 -21.2873 2.56708 0.240099 -2.15687 -1.4478
839 1 -22.3083 19.5512 -10.4459 -0.627123 2.28876 -6.57341
840 1 2.54757 -18.0699 13.6759 3.93467 -1.37128 -0.258266
841 1 19.9039 1.8355 10.2964 -0.200706 1.48596 -0.604616
842 1 -5.47208 -23.3942 -2.47253 0.33838 -1.14045 1.64109
843 1 21.1751 -6.18 17.0162 5.13353 0.513392 -2.21086
844 1 16.6563 -18.6921 -17.2275 -1.18351 -2.05851 -4.26911
845 1 17.1017 8.04974 -1.08993 3.65037 -0.023506 0.277371
846 1 10.2176 7.36373 -13.1479 0.835801 -3.07026 0.00844378
847 1 -12.9774 -22.5909 -15.9046 -3.07883 -6.17686 2.48708
848 1 -7.13712 15.5894 -11.6387 1.51917 -3.0652 3.27877
849 1 -24.875 -13.8895 -10.4494 -5.62693 -0.220379 0.686933
850 1 16.2933 -21.9469 -23.2757 7.09971 -2.59567 0.730361
851 1 -22.5931 15.5976 -14.0583 0.994085 -0.0601731 -0.39074
852 1 11.4234 -2.47886 -1.32704 -0.653543 -0.614726 4.61978
853 1 13.0209 10.6842 -14.3334 -2.98897 -6.07264 -0.00277758
854 1 -23.7536 -14.054 4.25242 6.18568 2.40217 0.24671
855 1 -16.293 24.131 -20.5813 0.326967 -0.506654 -3.88015
856 1 -20.2136 -1.93749 -6.66785 3.10012 1.71177 -0.384919
857 1 23.4022 -5.78733 9.26541 0.00639685 2.20794 6.70098
858 1 18.0813 -11.9673 15.3109 2.77166 -4.19835 -1.89239
859 1 -14.6997 -7.63682 0.884699 -2.51786 0.406084 2.99422
860 1 10.2582 -7.60272 -16.461 -4.97621 -0.154864 -1.86748
861 1 -22.1046 22.4329 -11.0723 -0.249107 1.37575 -4.63949
862 1 1.05821 14.4908 -8.17836 -6.77139 2.01496 -1.98603
863 1 18.1367 -16.0642 7.05387 0.923691 -4.00117 -1.52904
864 1 -15.1218 1.7783 17.4744 -0.48586 -2.47386 -3.60722
865 1 -4.21496 -21.5885 13.7498 0.248316 0.94841 2.03673
866 1 15.7449 -2.53516 21.5867 -0.539783 1.92716 0.628803
867 1 -3.1338 12.3249 20.4796 0.824623 -0.301175 1.49076
868 1 3.79752 16.8926 -4.04268 1.65103 -0.0926833 -1.33213
869 1 -2.2469 20.351 2.50762 -0.604664 0.94892 1.64362
870 1 13.4701 19.3582 16.8011 0.645519 3.22797 3.44718
871 1 5.43427 9.01224 -17.258 -1.63509 -0.701863 2.8677
872 1 -2.29229 -6.32986 -18.3339 2.19868 2.23525 -4.55958
873 1 -7.0936 0.15045 21.0682 -3.16081 -2.62482 -1.98613
874 1 8.83662 2.20472 0.207081 -1.58631 7.55312 -0.0219151
875 1 19.5448 14.0691 8.43314 5.4361 -1.63105 5.89177
876 1 12.5613 -16.3763 -8.80616 -1.39884 -1.58144 0.933785
877 1 2.19236 -19.1627 18.1915 -7.46751 1.43878 -1.40487
878 1 8.27193 13.5466 -23.8661 2.15959 1.73714 -0.118229
879 1 16.7791 5.28983 -18.5688 1.55239 -0.185861 7.60996
880 1 2.20722 17.7087 22.5365 -1.80095 -2.08143 0.783378
881 1 -3.0312 -2.53895 19.3019 -2.44774 -1.90966 2.1637
882 1 -13.1099 -3.19707 -1.62561 0.193286 5.22266 -1.72303
883 1 18.7712 19.8624 -8.25363 2.77902 -6.25775 -0.485375
884 1 17.0488 -16.5899 -13.7327 3.81201 -3.66244 1.19422
885 1 -4.7793 -18.1407 -1.26944 0.556189 3.87161 1.12089
886 1 -5.22526 23.2455 2.48605 1.89479 0.386951 2.66061
887 1 9.1215 -23.6088 18.508 -3.23018 2.92684 1.27171
888 1 -7.52304 11.9636 -17.7376 -4.85853 0.963021 -3.94513
889 1 -16.0441 -4.29288 13.3328 -0.802538 -0.914963 1.37619
890 1 10.9636 -19.2296 13.585 1.42244 -1.94327 -0.0111819
891 1 -22.9345 -2.32547 4.08607 2.97027 1.04613 1.70949
892 1 3.04009 -10.1256 -4.27001 1.42465 1.69169 1.09755
893 1 19.7513 -4.76187 1.60721 -2.61247 0.919623 0.0146798
894 1 -0.446535 13.1826 20.7238 -2.5639 4.03968 -2.77298
895 1 1.97666 -22.5841 5.6956 -6.57124 1.96554 0.813016
896 1 10.7529 -4.21647 21.3369 0.796856 3.95537 1.47917
897 1 -11.2575 -22.6586 8.78567 -2.72348 0.50932 5.1575
898 1 19.533 1.04335 -23.6697 -1.35194 0.0477329 -0.414778
899 1 12.6645 -20.3873 18.6169 -5.27137 4.3641 3.402
900 1 -13.3901 -14.1369 -14.1239 -1.68442 -3.04729 -0.0212314
901 1 2.88905 -21.209 9.20977 -1.27509 -5.52834 -0.446638
902 1 -7.052 17.0296 -0.291331 -0.28862 -0.617014 1.06269
903 1 -6.88977 24.4786 -20.4155 3.02484 -0.411423 -2.86278
904 1 -10.2521 -7.59958 -7.4844 2.10584 2.31896 -4.64053
905 1 23.3246 -8.47557 23.087 1.03724 -3.7362 -2.2755
906 1 -7.12726 -22.8852 19.257 2.22367 -1.5212 -0.371172
907 1 -13.9674 0.188582 -10.1619 4.39823 -2.05819 -0.233665
908 1 -8.78581 -16.924 11.3555 -4.6137 2.42185 -5.36299
909 1 15.4858 -22.2051 12.1224 1.29953 -0.235607 -5.10777
910 1 -9.77091 4.59376 -4.03824 2.92743 0.910439 2.13351
911 1 0.142131 13.489 -23.4588 0.80874 -3.73522 -0.471167
912 1 -15.5942 22.0545 -7.08943 1.15462 -1.97259 0.745608
913 1 -6.0338 23.6439 16.0561 0.0924859 2.79607 0.801121
914 1 -23.1378 16.1028 8.8691 0.894006 0.759678 0.932091
915 1 13.9071 -4.36814 -15.5417 0.879552 -2.03427 2.50815
916 1 -18.4308 -18.1717 19.8409 2.01714 4.50811 0.611634
917 1 -22.5374 5.19602 -21.5286 -3.30243 -4.66015 1.82997
918 1 -6.26646 5.97489 2.56472 8.45512 3.36703 -0.593515
919 1 -10.2401 19.4305 12.5364 -4.48417 4.14927 -1.02165
920 1 1.03664 12.8948 -20.6275 -3.49527 0.80666 -7.52158
921 1 10.0298 -10.0069 -20.2678 3.15911 -1.17814 -5.73991
922 1 -11.627 2.42963 -22.4333 3.3071 -1.24104 -2.05741
923 1 3.60752 -9.43964 1.38213 -2.16385 -3.55607 0.994529
924 1 -7.74829 14.2228 7.02156 1.73812 -1.77813 0.948845
925 1 2.10139 11.495 -2.2841 2.39705 0.350981 1.23169
926 1 2.70748 -14.9345 8.71049 -6.75484 2.16842 -3.02175
927 1 4.40642 13.3907 19.154 -0.476901 -0.481689 -0.84825
928 1 5.38962 -19.3002 11.4033 -0.667183 0.851427 -0.58282
929 1 -7.11161 -13.6988 -2.03736 -3.8648 -0.687091 -0.388512
930 1 -21.9434 -18.95 -12.8099 0.557996 0.590024 -3.48213
931 1 17.9106 -3.16448 -6.62151 9.26431 4.22278 -3.45679
932 1 -19.0605 14.8264 15.617 4.66334 0.844929 -0.658606
933 1 -19.2247 -24.1185 -22.7931 3.58872 1.01317 3.34771
934 1 -2.86384 18.7836 -20.2274 0.403838 3.78057 6.45337
935 1 19.5782 -11.1767 -0.171624 -5.25627 2.65357 -3.49299
936 1 8.1576 13.1852 12.7576 0.344346 0.706533 -0.361043
937 1 1.25808 14.9316 22.2107 0.435903 -1.27327 -2.58388
938 1 18.4606 7.25891 6.44768 2.99671 -1.16321 -4.87272
939 1 -8.73919 -11.3104 -18.6519 -2.10687 -0.672655 -1.95527
940 1 23.1812 2.27112 -6.75525 4.91498 -1.42397 -1.49265
941 1 -19.124 23.0121 6.63912 3.45166 0.083867 -4.33758
942 1 -4.33398 -11.8399 -19.5964 -0.823387 -1.69555 1.11341
943 1 16.7227 -4.82587 1.33123 4.04951 -1.26625 0.183346
944 1 -16.571 -2.17473 23.4877 1.34196 2.8326 2.69945
945 1 4.69307 -22.8487 17.8048 3.47883 -2.44097 5.45177
946 1 -14.8169 -8.42496 5.28212 3.34704 -3.44233 -2.40132
947 1 -11.7988 16.0854 17.7737 4.01166 -6.6632 -0.705329
948 1 -21.5778 4.83062 -8.61993 -4.30084 -1.59095 -2.95273
949 1 -5.02725 13.2895 18.0207 0.746744 1.68953 0.399191
950 1 -21.1022 7.68282 10.8361 0.820031 2.48062 0.266127
951 1 -8.79911 -24.79 -14.1509 -2.16426 -2.66824 -4.27706
952 1 9.91817 -13.6235 -9.33464 -0.738202 1.43455 0.195218
953 1 16.2812 -2.19943 2.65053 2.49891 -2.5575 2.86639
954 1 17.4166 6.50373 -10.0924 -3.30932 -5.40928 -1.47725
955 1 -10.7507 19.5221 -18.9488 -2.1803 -0.885871 1.59322
956 1 -12.0426 -7.3253 -9.70521 2.65345 2.89177 -1.32491
957 1 -6.18869 -2.6822 16.2641 -1.43293 -1.10187 2.24189
958 1 0.513886 12.1468 18.0891 -2.87651 -0.753605 0.515813
959 1 -14.2873 -18.5386 -22.8267 3.27421 0.548614 2.63474
960 1 -1.65153 -20.9204 4.51656 5.67375 1.06715 -1.92932
961 1 -6.01973 12.5433 0.276672 9.36334 4.17259 4.97217
962 1 -4.32273 6.99034 -7.49936 -2.51053 -0.0127275 -1.42557
963 1 -16.0023 24.4649 -12.2385 -4.95411 2.83569 -0.151322
964 1 17.626 -19.4997 -19.8178 -4.0922 1.60478 2.85147
965 1 -12.2795 12.2874 7.86993 -1.49561 0.837817 0.755102
966 1 -18.8384 -7.07852 13.9223 -0.845912 -1.16544 -4.30122
967 1 20.0571 -4.47254 -12.8039 1.12369 -0.444927 -0.343995
968 1 -1.74575 22.7373 -15.1363 6.08083 -1.39527 1.11415
969 1 14.2148 -23.3639 4.73033 -5.35602 2.14524 3.75983
970 1 -3.15628 -24.0729 -8.86864 -1.27136 -1.27655 4.60937
971 1 15.3516 -4.99607 23.2216 -0.0763721 -0.930969 -2.21379
972 1 -10.2946 -18.0616 -2.97374 1.38886 -0.901226 -2.23904
973 1 -14.165 -5.29781 15.4578 1.06671 -0.603708 -4.21475
974 1 -1.25699 21.853 -12.3172 -8.15152 -3.50151 5.106
975 1 -11.986 -11.5811 5.57994 1.02981 3.25366 -3.96991
976 1 -20.5576 -7.13975 10.0062 0.10888 6.47844 -4.66553
977 1 3.18275 -22.8481 13.6124 4.70198 1.82414 0.762807
978 1 3.33493 14.1116 -21.8959 -3.58685 3.44811 2.18167
979 1 5.91615 20.0703 -19.0221 2.01928 -1.57719 2.98873
980 1 3.5102 22.5203 13.5246 -4.75442 -3.28721 -2.14624
981 1 5.54588 -1.5994 -5.11741 4.21405 1.67033 -3.76045
982 1 -3.64044 -7.68766 3.68119 -0.329806 -2.55452 -3.24261
983 1 -21.6038 6.6459 14.7931 4.99853 2.31823 -0.17014
984 1 -13.2011 16.6232 -4.14317 -3.62725 2.93644 2.61867
985 1 -16.4663 16.3192 12.8406 4.21897 0.667481 -3.08612
986 1 -0.511278 5.30361 11.0373 0.599516 4.95966 2.67727
987 1 -22.5719 -19.1457 10.4928 -1.10959 1.73922 -1.10221
988 1 -9.74921 -23.5333 6.64313 0.988994 5.86101 4.21765
989 1 7.70616 -0.604756 -6.32337 -4.83801 -3.00914 5.88748
990 1 14.3067 -6.78643 13.9237 4.91342 2.05007 -2.90887
991 1 -5.41066 -7.96955 7.84996 -6.39599 -0.825066 4.51587
992 1 -22.3835 9.84948 3.16808 -2.4105 -3.26629 0.105727
993 1 -24.0505 1.83701 23.4371 3.60821 -2.49502 4.65884
994 1 21.4198 -18.3981 16.2335 0.212264 -5.35808 -4.47644
995 1 11.2115 4.2687 -1.70952 1.99504 0.208859 -1.55865
996 1 21.4169 11.1117 -15.8305 5.52099 -2.38233 0.944458
997 1 -22.0025 23.1109 -23.9505 -1.39071 -3.64688 -1.65824
998 1 -4.09497 13.301 8.82251 -1.65532 0.642706 -2.73788
999 1 23.4824 10.5482 6.80925 -4.11026 3.06523 -0.573391
1000 1 18.1494 17.4772 -9.48041 -2.96325 0.770334 2.29413
1001 1 -20.163 -4.88176 -6.67144 -3.54577 -4.49449 -0.731308
1002 1 -14.2157 -16.3179 3.13756 0.108483 0.0923367 -0.439987
1003 1 11.3295 -12.2446 11.4841 4.45635 1.73524 -2.67492
1004 1 -23.4519 22.0951 7.28064 0.214433 -0.467672 -0.849359
1005 1 -14.7644 16.1522 2.0394 -3.85186 -1.50202 -1.31741
1006 1 -23.0789 8.81315 17.6118 1.76996 -5.47534 1.77524
1007 1 13.2848 1.52528 20.1703 -0.1572 -1.53268 -1.02777
1008 1 8.50106 -3.15026 17.5669 0.0809975 4.12846 2.0518
1009 1 10.5227 -17.8445 6.09503 -6.26658 0.5889 1.08473
1010 1 -14.8317 4.0594 -11.4753 -1.61974 3.06918 -2.35186
1011 1 -20.1266 1.43137 0.237458 0.951935 -1.6499 -3.54611
1012 1 0.972836 -1.25013 -2.20029 -1.25635 -1.03445 -5.51769
1013 1 5.3174 -17.264 3.01011 -5.20415 -1.20358 -4.64812
1014 1 -20.0785 46.9291 2.89893 1.96083 -0.194154 -0.76842
1015 1 0.449613 5.17458 -23.3593 4.02153 -1.90331 0.0368843
1016 1 -21.3246 5.179 9.57844 0.62477 -0.215295 4.7333
1017 1 -8.52872 3.02535 13.844 -3.67162 1.95951 1.82351
1018 1 -22.241 -21.9489 5.57201 -1.50004 2.06705 2.88615
1019 1 6.49122 18.0574 4.58673 -0.191506 1.60891 3.10493
1020 1 -20.1359 45.7357 9.92693 0.692306 -0.442353 -3.5112
1021 1 21.1455 -20.9734 -4.22722 0.169322 0.641019 -1.5152
1022 1 -9.88088 -23.1494 -11.6644 -1.12685 2.02071 2.57598
1023 1 8.99634 -2.30859 5.37565 -3.0369 -5.47203 -2.40993
1024 1 -3.68495 7.9065 23.848 1.7026 -1.46409 4.26995
1025 1 5.2012 5.67981 -20.8483 0.934278 2.8922 -0.74308
1026 1 3.38523 12.6775 -8.59518 -2.46135 4.45032 -2.24535
1027 1 -21.8953 -4.02795 14.3176 2.13705 3.28671 0.628251
1028 1 -9.13958 -9.49023 -12.1481 3.08819 -2.58266 -1.47997
1029 1 8.37616 13.8455 0.879662 1.59993 1.05895 -2.96503
1030 1 -18.1162 -17.9017 23.0071 -2.98837 -2.98404 0.70649
1031 1 -5.73376 -11.3304 -4.41655 -3.61715 -1.00488 0.571989
1032 1 11.1724 8.35549 17.195 -0.816002 -3.52138 -0.346697
1033 1 -3.81534 -17.2927 1.40519 -0.238428 3.79055 3.18659
1034 1 -13.6494 11.0866 -10.2191 0.733476 3.15957 -1.40071
1035 1 11.6228 19.9412 -2.52081 2.45301 1.93962 0.266677
1036 1 2.26758 -11.5282 19.4363 0.239415 5.31225 -3.17542
1037 1 -9.44467 -15.2183 16.5622 -3.29497 3.27001 -2.02506
1038 1 -1.59573 7.9015 11.2694 -4.65178 -2.04744 -0.828838
1039 1 23.087 21.1998 -8.16407 6.0708 -2.84845 8.45698
1040 1 10.6956 -0.558378 -22.899 2.09581 -0.122944 -1.13735
1041 1 -2.28646 7.35504 -13.3101 1.94719 6.5251 5.0205
1042 1 13.4691 -7.88903 -23.5151 2.5993 0.840608 -0.299612
1043 1 16.2208 10.0232 -6.49867 5.31502 5.09881 2.9745
1044 1 -3.93075 21.5036 -11.7767 -0.0445474 -0.0445149 1.02947
1045 1 -5.5565 -2.04974 22.4668 1.46146 1.67678 -1.85911
1046 1 17.526 15.6659 -14.9048 -0.362486 -2.85061 2.73752
1047 1 -16.6984 0.142681 19.2794 2.18515 1.18515 5.92521
1048 1 -0.984633 -1.17677 17.2538 1.53878 3.35199 0.84511
1049 1 -23.6774 2.58241 -10.9196 -0.245488 -0.161005 6.33154
1050 1 16.1701 19.8951 16.1377 1.65613 -1.4292 2.90199
1051 1 2.87989 -2.20571 9.41401 -2.12296 0.0387259 4.52332
1052 1 -20.28 -2.27649 -17.9813 0.703445 -5.92143 -1.36534
1053 1 4.39276 6.63518 -18.2466 -0.105291 -1.71768 3.88656
1054 1 -15.9818 21.0862 0.583783 -3.32408 5.01166 -0.138915
1055 1 -10.4069 18.5099 18.4318 -4.08951 2.74231 -2.92251
1056 1 -9.06752 19.6856 7.18036 2.38863 -2.19753 -2.71691
1057 1 -8.34207 -17.2167 -14.2097 2.63653 4.79588 -2.02232
1058 1 1.15172 -1.46284 -8.84243 -1.94969 -1.59294 -2.78409
1059 1 3.71319 -22.9774 -15.45 -4.95568 -1.35654 3.44449
1060 1 -20.106 -10.0706 6.17181 -0.142203 -1.56124 -3.88704
1061 1 8.20474 9.17125 -13.9067 0.699162 0.151827 3.65333
1062 1 -7.68487 -2.36019 8.70007 5.31483 1.92646 -2.49318
1063 1 1.66359 21.0936 10.7925 1.17459 -3.14733 -4.35285
1064 1 13.5544 -17.2533 6.42043 -1.19788 -7.4052 -0.265885
1065 1 15.1341 21.341 -17.0645 -4.69348 1.25272 4.11737
1066 1 13.5968 -2.56853 23.5732 2.14692 -1.92352 2.33925
1067 1 -21.6872 8.51524 8.11376 6.79387 -2.92541 -0.924785
1068 1 -5.13249 20.2291 1.41017 -4.06033 -2.21824 -0.105497
1069 1 23.5437 18.1198 -21.3006 0.555767 0.687857 -1.38575
1070 1 -6.62043 8.76337 9.48886 1.64749 -2.22598 -2.63556
1071 1 -20.5231 23.8697 -9.1147 1.61069 -0.192873 2.77641
1072 1 12.7756 9.20134 -18.3799 6.24024 -0.580593 -0.0950877
1073 1 -0.655872 -20.8378 -8.41983 6.72335 2.95021 1.03579
1074 1 -10.3763 12.3574 -17.0811 0.465956 -1.79654 0.236175
1075 1 1.63981 11.5481 13.736 2.18317 2.35752 -2.40372
1076 1 23.518 4.82206 -23.7972 -2.99472 2.26124 -1.1686
1077 1 16.5578 -9.80054 -10.0662 -2.15444 -0.19888 -1.50569
1078 1 10.8587 -8.17653 13.0883 0.022933 -0.154533 1.17518
1079 1 -16.1648 0.524989 11.4097 0.360475 2.27512 2.11443
1080 1 -19.0761 -8.66499 -8.20506 3.49728 0.270443 1.16761
1081 1 7.46019 -7.43033 17.8366 -4.41597 -0.0918211 0.247034
1082 1 -19.7817 -19.4145 -5.31682 3.20425 3.88071 -1.13871
1083 1 0.588195 21.3346 -19.4552 -0.859957 -1.00925 1.77796
1084 1 -3.53635 -14.4986 -5.72316 -1.59979 -5.08869 2.01341
1085 1 -11.0206 -15.5553 -4.16688 0.150681 -0.783566 0.0174653
1086 1 -9.62191 9.27692 -4.55193 3.35446 1.57708 -0.388007
1087 1 9.4265 -0.69067 -20.387 4.58664 1.85883 -0.340259
1088 1 -21.3824 21.7553 5.52743 5.33254 2.52429 1.03421
1089 1 -17.763 4.16056 14.1071 -5.51475 -1.43528 3.19486
1090 1 -21.5621 -21.2323 -11.2974 3.40534 -1.0626 4.14854
1091 1 -15.95 10.2015 6.17891 -0.0325272 0.641708 -2.07884
1092 1 -21.991 -16.2124 -3.69816 0.426138 -4.97448 -0.416023
1093 1 22.0802 9.40218 4.71429 -2.10286 3.41833 -1.48023
1094 1 -22.8702 18.5883 -23.6759 -2.93612 3.50345 -0.135295
1095 1 -7.48312 22.0393 -9.9455 5.87539 2.78747 -2.06006
1096 1 9.92038 18.7305 -10.7879 2.88253 -1.24637 -1.92727
1097 1 15.5805 23.1078 13.3209 2.32011 -0.101418 -0.235809
1098 1 -12.8798 -4.79008 18.2609 2.73678 0.122809 0.788026
1099 1 15.3483 11.1886 15.4261 -1.49531 0.661966 -2.1351
1100 1 11.7959 -10.0804 18.3357 -1.43869 -3.7686 -0.733145
1101 1 6.05804 -14.4212 12.6828 -3.25834 0.756448 1.49906
1102 1 14.6252 -14.204 17.15 -2.19672 1.23906 0.196504
1103 1 23.314 9.19085 15.5324 -3.96239 2.1901 -2.33811
1104 1 -23.0927 -0.0394426 8.78489 -0.905799 0.139005 -2.62435
1105 1 18.492 3.0344 -1.69021 3.82054 4.20555 -0.0820097
1106 1 -18.5571 -16.6899 4.51207 0.593748 -1.10865 4.99579
1107 1 4.80646 -11.8903 2.9135 -0.252469 -0.957861 -0.0430053
1108 1 16.1995 12.857 22.2933 -2.38116 -3.32612 -1.44689
1109 1 -20.3277 -10.0644 3.20446 -2.4769 -2.00717 0.14871
1110 1 -11.4682 25.0944 9.21618 -0.268421 7.84629 3.23864
1111 1 13.7832 -9.67872 8.97125 2.91178 2.37395 2.99725
1112 1 -1.62348 -13.3124 19.5579 3.02418 -3.39447 3.27147
1113 1 -19.9797 21.0371 -21.0421 2.26012 1.40954 1.96124
1114 1 -20.0084 -4.14592 10.025 -7.04055 -0.900124 -1.48878
1115 1 21.9496 23.9214 23.893 -2.62579 -0.00377413 -3.11784
1116 1 -15.9243 0.954207 6.08796 -1.27453 -1.72709 -4.10214
1117 1 -5.41611 15.7808 8.22622 -1.40612 -3.25864 -2.67321
1118 1 -22.7512 0.367526 -12.591 1.51347 -3.74956 6.07742
1119 1 8.99107 -10.0105 4.98071 -0.80837 0.447863 0.22149
1120 1 -4.38484 -10.1833 0.113545 1.95356 2.95438 -5.73549
1121 1 13.7541 -2.23798 -19.9219 0.44484 -1.118 -0.559848
1122 1 -8.33782 23.2038 -1.49944 -3.44397 1.31925 1.38416
1123 1 16.0768 -4.1101 -4.55202 1.85121 2.10125 -1.51031
1124 1 -1.77226 13.4793 -16.6959 -1.53958 -1.36436 0.852295
1125 1 -20.078 8.48274 2.52524 -4.10869 0.57235 1.6284
1126 1 -0.677301 -12.1132 -13.9994 -1.70476 -4.32338 -0.749344
1127 1 15.4327 19.3846 -5.11885 -1.45922 6.03078 3.81071
1128 1 -0.878578 13.5296 -0.9461 -4.4813 3.84755 -5.18671
1129 1 -1.07996 -8.41961 -23.3921 5.48614 -0.697512 4.61792
1130 1 -4.75044 13.8933 -12.4565 -4.02157 0.590267 -3.30116
1131 1 14.7244 -10.3824 -7.94803 1.70053 -3.51611 4.80019
1132 1 23.4134 -4.88196 17.881 -0.517972 1.75891 4.5658
1133 1 9.29989 15.4994 20.05 -3.42992 0.786586 -1.12388
1134 1 13.7607 -20.2259 21.1044 2.69485 -4.7736 1.20478
1135 1 4.42008 1.17988 22.1606 -1.09882 -2.11376 3.47385
1136 1 -20.191 -21.76 -21.2355 2.22414 -0.293252 -1.48272
1137 1 5.15927 6.30977 3.78351 -2.69817 0.278908 2.17008
1138 1 -24.4729 -23.5578 4.98703 -5.9296 1.9556 -1.04898
1139 1 -5.97222 11.2594 4.57688 2.61465 0.156714 -0.886036
1140 1 13.0905 -6.45525 -17.3662 -3.47394 0.985997 -4.29252
1141 1 -19.3347 10.1608 11.6868 1.81029 1.90035 0.121701
1142 1 7.41706 15.9346 8.75209 -1.80052 2.80739 2.22294
1143 1 0.943817 -7.04766 -12.9193 0.0259153 4.54843 3.7365
1144 1 16.5638 2.17872 -13.0041 1.26935 1.79124 -1.47492
1145 1 3.91888 21.6008 22.9728 -2.35719 -1.20561 -3.55554
1146 1 11.219 17.165 21.2858 2.02981 -1.87771 1.07556
1147 1 -7.6627 10.9005 2.23792 0.249351 -2.20233 5.10166
1148 1 -11.7581 8.26444 10.8697 3.00829 -4.1357 -4.01029
1149 1 2.38336 -16.3964 11.325 -0.408345 -0.26241 1.35099
1150 1 -13.9634 16.3918 11.1822 -1.53949 2.95961 -0.0660251
1151 1 23.271 -23.757 20.9849 -8.08654 5.75516 2.62972
1152 1 -14.8372 14.7341 19.5804 4.91626 2.55058 3.71629
1153 1 -2.52212 -20.2383 -0.0541687 0.696865 -1.89106 3.12683
1154 1 -0.339266 10.5286 -21.7406 7.06256 -3.36843 0.396298
1155 1 6.35162 -16.9752 16.7103 -2.20922 -0.248701 0.028067
1156 1 -19.7547 -16.4483 -23.1413 -2.44433 2.43223 1.38259
1157 1 4.64905 2.70318 -8.5058 -0.348568 1.72075 -3.18729
1158 1 -16.1557 -2.68896 18.6002 -1.13653 0.162567 -0.68904
1159 1 21.0016 -2.77462 14.2915 1.9695 2.78167 5.92775
1160 1 -9.52678 5.46559 -12.7905 1.66555 -2.61965 -5.87652
1161 1 -6.84179 -23.0404 -19.193 -1.71204 2.36155 -0.622245
1162 1 7.67325 10.4935 2.943 2.17707 1.84572 0.531637
1163 1 -17.8371 -24.3925 14.6683 -3.17549 -2.64071 1.14465
1164 1 -19.7545 -18.2862 6.71341 -0.856644 5.27991 -0.00888837
1165 1 17.5421 23.828 -1.3835 0.780442 -3.51892 -3.15605
1166 1 -17.6168 24.8376 17.5646 4.80736 -0.541614 -2.42019
1167 1 -1.38971 15.4084 17.3845 -0.810699 -2.3876 -5.90044
1168 1 13.1257 -11.0141 -0.80425 -0.433673 -0.734232 2.20346
1169 1 14.373 -6.56105 18.6287 -3.87331 -0.339359 0.148867
1170 1 2.52372 17.3382 11.5432 -0.773551 -2.35533 -6.13688
1171 1 22.3883 -1.31976 -9.25094 -1.23008 7.43157 2.22126
1172 1 -22.0372 -14.8123 -17.2357 -1.0725 5.61201 2.2913
1173 1 6.49071 -19.1477 20.2601 -3.71643 5.04377 0.134429
1174 1 -21.3761 -18.6108 -17.0265 -3.24946 0.0279366 -2.65201
1175 1 -11.5762 13.1694 20.2937 4.18026 2.78176 2.87652
1176 1 -0.490269 -10.3278 14.564 0.322735 1.59188 1.107
1177 1 11.3862 2.27442 -17.7352 -1.26787 3.56086 -2.05917
1178 1 -2.83353 8.51477 6.6082 4.23324 1.38976 1.15266
1179 1 8.47727 -8.94517 -8.06358 1.68087 1.08886 -1.63841
1180 1 -10.9714 46.1243 -12.3406 -0.226269 -4.24491 -3.84147
1181 1 9.93444 16.9851 -8.34452 -1.82096 -0.0231108 -3.09102
1182 1 17.204 6.95814 1.49248 3.04477 -4.62906 -2.79885
1183 1 3.40078 -5.74234 -17.1323 -1.80134 -1.05233 -2.09296
1184 1 6.693 20.8003 -23.7753 -0.929044 -0.742566 2.26988
1185 1 14.6591 7.87835 23.532 2.38582 1.82418 2.24533
1186 1 8.93145 -7.41234 -0.159757 -0.321845 4.47413 -3.90108
1187 1 -12.9477 16.9398 -7.05809 -1.77371 -1.04486 -0.158211
1188 1 2.01635 0.613769 -0.179487 -2.98055 6.54823 4.05725
1189 1 13.1466 15.3284 3.95375 5.10553 -5.69983 0.0397371
1190 1 16.2067 -0.764282 -20.6944 -1.23152 -0.858022 3.288
1191 1 -0.731971 -2.48089 -21.12 4.61733 -6.62859 1.11297
1192 1 -13.3581 -2.53503 -10.1628 0.293603 0.883118 4.09172
1193 1 9.54446 -4.7677 13.7567 0.714383 -2.6421 -2.12108
1194 1 7.48239 16.4 -5.42497 -6.62304 2.70214 -2.6096
1195 1 12.032 -11.8665 -19.072 -2.46037 -1.00839 0.398145
1196 1 4.94029 16.0607 -13.6736 -1.85336 2.22298 -2.59229
1197 1 -20.7674 16.153 23.0822 -0.159251 3.05912 -5.23963
1198 1 20.2056 -21.4743 13.5583 0.834664 -3.64467 2.40964
1199 1 -12.4026 4.5311 -13.197 7.95526 1.17411 0.988034
1200 1 12.8975 -9.71048 12.0348 -2.39166 -0.571482 -1.50082
1201 1 22.2857 -19.169 19.8317 0.261945 -4.86636 0.499057
1202 1 -13.5138 -1.9497 -4.15669 -1.51022 -0.496923 -3.97648
1203 1 -17.5773 -11.199 -16.6167 -0.708627 5.05678 -0.528267
1204 1 -2.66129 22.9818 3.6455 -0.455038 0.892705 1.36835
1205 1 -3.67012 -17.794 9.60292 -0.0309281 3.45693 3.63075
1206 1 21.9244 -19.7846 -20.157 -3.96811 -6.48141 0.448351
1207 1 16.4364 -3.9162 -17.0879 1.53809 4.72222 -3.85913
1208 1 21.2565 -9.27507 8.61571 -4.90256 2.25606 0.22932
1209 1 2.86908 -6.08342 23.6811 3.55134 0.152643 1.60073
1210 1 -1.83606 16.2823 -4.26343 -7.02255 -2.00792 -0.709736
1211 1 -16.4359 -11.4562 10.4325 1.64372 -0.627608 -1.80094
1212 1 21.0757 2.77025 -13.3459 -2.35764 4.88615 3.20795
1213 1 -22.8424 -13.9642 20.6472 0.355571 -4.83171 3.41152
1214 1 13.2138 2.82351 -0.396569 4.9734 4.64762 -1.0382
1215 1 4.63234 9.23945 -10.5375 0.0180157 -1.15911 -1.12109
1216 1 14.109 -8.52561 -11.0737 5.63269 -3.09968 1.11596
1217 1 14.4873 -13.3234 3.58912 -0.834914 2.03206 1.26482
1218 1 17.5071 -4.44446 -9.86846 0.0971716 -0.407391 4.56791
1219 1 11.5215 13.2073 10.8825 -4.24441 -1.71667 5.88574
1220 1 -19.5553 23.926 14.323 -6.77266 2.7535 7.02462
1221 1 2.74759 21.9324 -21.2499 -0.98319 3.2965 -0.770078
1222 1 19.5297 19.9498 10.1686 -5.78946 -0.752506 1.95568
1223 1 21.9132 11.0272 10.9578 0.182968 8.20066 4.26297
1224 1 17.7461 -8.91313 15.1123 2.41489 0.561906 2.24261
1225 1 0.492535 -17.8961 20.0755 2.14188 1.61128 -1.35989
1226 1 -20.4529 14.5565 -1.17925 -4.00508 5.0734 2.67004
1227 1 0.407957 -8.12813 -2.85686 1.96295 -0.814301 -0.678396
1228 1 23.6799 -20.5695 -10.6593 0.183265 2.30656 -2.59896
1229 1 18.6556 -18.2923 -0.0540914 -3.4504 3.52079 2.85662
1230 1 -15.0415 -16.5681 -7.68723 2.34753 -1.71008 0.280375
1231 1 -17.6022 -8.20444 -10.8515 1.10988 -2.34139 0.818826
1232 1 -20.5302 18.5205 -22.1029 -0.170215 0.233575 0.0193516
1233 1 -3.81214 1.04459 -22.4473 0.59892 -4.96835 1.18068
1234 1 12.4189 13.9309 6.78465 2.08239 1.99587 -6.10983
1235 1 10.5415 19.3863 3.59872 1.56233 -0.591738 0.185528
1236 1 -6.77802 -22.1707 12.7423 0.410322 0.765605 0.117965
1237 1 -19.1917 17.0712 12.4605 -1.51147 -0.53929 3.44057
1238 1 8.39466 -2.79911 -18.5673 2.37149 -2.21019 -4.29366
1239 1 -1.04247 -23.2833 6.29071 -0.928621 0.504274 2.67067
1240 1 -6.04682 -22.8111 1.37952 -0.652225 1.33341 1.50718
1241 1 12.7582 13.7754 -17.8909 -2.21285 -5.74528 -0.379122
1242 1 8.07046 -18.209 -14.3973 6.15479 -5.09326 2.7445
1243 1 8.83761 17.5068 -22.1251 2.50351 -0.782805 1.14349
1244 1 -16.4517 3.23141 10.1522 -2.30661 3.87563 -2.36768
1245 1 -18.468 11.4769 -20.1073 5.50522 2.14725 0.270132
1246 1 -5.85843 -16.0808 3.61909 -0.721738 1.04142 0.961907
1247 1 -1.85411 1.49429 -9.78365 3.89233 5.16628 0.637858
1248 1 10.7582 5.3156 20.5268 0.743889 2.37449 -1.97981
1249 1 8.82336 14.8589 -21.0313 1.14406 -2.15078 0.892635
1250 1 6.71809 3.1336 21.4951 -1.68295 -1.36518 0.970569
1251 1 -24.1302 0.209234 21.1017 -0.735772 3.052 1.24896
1252 1 18.3209 -20.1746 2.13841 -0.947532 -3.02679 1.9053
1253 1 14.0127 25.9708 -2.51723 -0.26459 1.71663 -1.75933
1254 1 -21.4381 -19.391 4.75619 3.30019 -1.45473 -1.19753
1255 1 -4.95747 -9.46196 10.7203 0.0271442 2.67539 0.659227
1256 1 6.40791 -19.8941 -17.4392 1.58253 0.44969 -1.43932
1257 1 -5.32637 -22.8282 -10.297 -3.51204 -0.601694 -2.50353
1258 1 -17.0271 7.9884 19.683 0.0849232 -6.90759 -2.93524
1259 1 17.9552 -12.7034 9.8482 -0.437157 -2.12158 -5.09971
1260 1 3.76103 -8.58081 -13.3609 1.04642 -0.443498 1.60132
1261 1 12.0948 -6.46408 -10.09 -1.41342 -0.987888 -4.09268
1262 1 11.4712 -15.0431 -5.19682 2.7499 -1.51375 0.714292
1263 1 -15.5512 -7.07033 -2.13859 1.25415 1.03772 0.826432
1264 1 -23.0043 -12.03 -3.02276 1.91409 -0.924179 -1.65226
1265 1 -7.4759 13.0687 -10.0753 3.83257 -0.226909 2.90068
1266 1 15.7413 -9.63193 3.4473 -2.17726 -0.943044 -7.26096
1267 1 22.7128 -16.1612 3.9981 0.255167 -3.78603 0.030853
1268 1 -22.0652 -10.9937 -17.4084 -1.39915 -3.98416 2.56348
1269 1 10.3692 -6.69024 20.0256 -2.06609 -3.15106 11.3546
1270 1 -24.1133 16.1352 11.4998 -4.88788 0.448745 -1.98734
1271 1 1.26829 3.46571 18.1026 -1.50488 -3.33223 0.726546
1272 1 -20.3623 9.22967 14.9326 1.76023 -6.05953 -1.22027
1273 1 21.2755 6.17172 23.3003 -1.95197 -1.91889 -4.96631
1274 1 21.7011 20.0883 -21.891 0.984745 1.49527 -0.879486
1275 1 3.09771 2.89505 8.90745 1.11022 -9.55365 -1.7434
1276 1 -0.815039 -6.68602 -20.9838 1.21294 -3.16684 -0.0984299
1277 1 -11.1125 23.2845 -4.73831 4.03367 1.8498 -3.39707
1278 1 15.2818 -6.91706 -21.1754 -1.66463 3.28975 -0.47009
1279 1 -21.1783 15.9115 -11.8397 -1.60612 2.35706 1.60896
1280 1 3.17788 -3.23681 -4.3041 0.956789 -1.83489 1.82935
1281 1 12.9068 -9.73534 22.6143 4.43579 -4.33064 -6.07259
1282 1 12.4242 -20.1569 -0.963963 2.86165 3.50837 -1.52768
1283 1 5.88897 -21.2908 -7.98103 3.87023 0.863314 4.80992
1284 1 8.33772 -11.5116 0.946032 -1.72988 0.288091 -0.908522
1285 1 -12.6536 23.0391 15.9663 -0.0803459 -1.74344 0.397874
1286 1 -3.04989 4.66105 -16.3492 -2.77072 -0.0798011 -0.523794
1287 1 10.0377 -19.4664 19.4312 -1.48106 -0.331076 -1.9855
1288 1 3.97919 -6.09404 -14.542 0.0357687 -2.09819 1.32262
1289 1 23.6833 -11.3015 -7.26399 1.64971 2.71945 1.36023
1290 1 2.38592 7.05969 6.81248 0.0332375 5.67533 -1.5406
1291 1 -18.7946 15.6036 1.06358 5.20877 -1.88632 0.091678
1292 1 -5.21459 18.427 -4.05969 -6.90908 -4.08418 0.459219
1293 1 -7.53225 -1.93521 0.645433 2.31096 2.86794 -2.01924
1294 1 13.538 -12.3901 -10.2643 4.93183 -1.00291 1.06355
1295 1 10.6917 9.06511 -1.11497 -0.464282 -5.35007 1.52135
1296 1 -5.18665 -10.1303 4.27867 -0.864543 -0.231571 0.196348
1297 1 13.4366 13.57 15.3654 1.44653 -0.990186 5.06731
1298 1 3.48781 -6.77091 -2.70262 -1.91452 -3.72043 2.42221
1299 1 -9.19783 -9.70415 -5.58518 -2.39987 2.90421 -0.458861
1300 1 3.02758 -3.22556 -1.53373 0.786176 3.9678 -4.97512
1301 1 11.8971 16.2492 -10.4748 -2.24065 -0.477644 1.86903
1302 1 -2.8099 -1.81025 23.8271 3.01943 1.08726 0.720693
1303 1 -7.69684 -5.75468 -17.5352 1.57932 -1.71943 -0.801446
1304 1 3.95782 0.515713 -4.35479 7.16358 1.32968 -0.257899
1305 1 -3.59935 5.38505 8.59189 -3.29665 6.92335 -0.273461
1306 1 8.35614 -22.597 0.369085 -2.05897 1.30635 0.43845
1307 1 -15.0652 -23.9 -4.17387 1.95636 -2.08066 -6.01845
1308 1 -18.2479 -3.84875 6.55562 1.30276 1.06381 5.64636
1309 1 -0.791104 -11.7989 -9.52535 -0.878937 0.436156 0.727855
1310 1 -0.504556 -16.1563 -1.37051 -4.83642 7.89751 -2.7255
1311 1 -6.04242 17.9368 -13.5332 -2.28404 2.33159 -2.86877
1312 1 -17.9925 -6.23287 3.38814 1.09508 -2.25834 2.60776
1313 1 16.2801 20.1728 22.2487 -1.21161 4.00458 0.0204661
1314 1 -16.0767 10.8715 -18.6314 4.74879 2.65639 -1.80521
1315 1 -20.3243 -12.4591 -21.8336 -5.33542 1.54193 -1.42835
1316 1 16.0643 -10.1502 -14.2177 1.08091 -3.66261 -2.3838
1317 1 -10.6363 9.57802 -13.3721 -3.63078 -0.272465 -0.516382
1318 1 22.4306 21.2091 0.42497 -3.50484 1.40923 4.29353
1319 1 13.7977 25.7154 0.526804 0.538943 -0.782343 1.31378
1320 1 18.6081 -7.39798 -9.8025 0.45304 2.97198 2.39554
1321 1 9.91267 -21.7369 -5.39602 5.15031 7.29572 -2.31765
1322 1 2.99376 -14.8115 -3.27684 0.460784 2.77926 0.337409
1323 1 13.1223 -14.1888 12.2963 -4.61818 -2.12437 0.756634
1324 1 -9.81138 -16.3302 -18.4948 0.494022 -1.0642 2.03854
1325 1 -6.88687 15.2242 10.7228 0.00309343 -3.4488 0.747257
1326 1 -17.9563 -20.127 -20.7424 1.02751 0.865828 -0.890309
1327 1 -10.1279 22.8044 -22.9863 2.65219 4.7185 2.61093
1328 1 10.2955 12.7006 5.39458 -1.60598 -5.52972 -0.327141
1329 1 20.3738 -13.2879 -2.09519 -0.231347 -8.38958 -0.496896
1330 1 -9.92999 15.7561 -6.76182 1.53362 -1.42339 -5.01928
1331 1 -19.7755 1.54041 -2.83765 0.166092 -0.358024 0.0160883
1332 1 12.0455 -22.7652 21.2559 -3.64672 2.22625 0.896468
1333 1 0.12786 9.07011 7.04714 -0.103007 -0.607164 -1.53703
1334 1 12.2623 -10.0715 -9.22692 3.90112 -1.60388 2.06024
1335 1 -14.795 25.1333 -14.6175 5.25228 -1.17235 -3.18295
1336 1 2.77969 18.7577 -7.23192 2.58773 -2.30987 1.46974
1337 1 7.12373 -20.4707 7.34216 0.0626745 -1.68937 1.09064
1338 1 1.34757 8.86198 -1.2826 2.84706 -1.28385 -0.111433
1339 1 0.701776 -19.4421 22.2389 0.107549 3.26482 -0.916482
1340 1 -20.1269 15.2601 8.27149 -0.628222 4.13343 4.21849
1341 1 3.88309 8.79536 13.9791 4.95382 -3.59969 -3.36722
1342 1 1.28145 -24.3006 -16.2577 -0.471722 2.83846 2.50175
1343 1 -12.1379 -9.66851 -6.34487 -1.87212 -1.75465 -1.32823
1344 1 18.2846 -7.49922 1.97007 -1.62438 -7.53449 4.31609
1345 1 -21.3976 3.21003 -20.0965 0.360628 0.440766 -2.58531
1346 1 18.502 -3.20316 -15.1225 -1.43688 2.64083 -3.34635
1347 1 -17.0452 -13.613 -20.2918 3.08229 4.65761 1.99922
1348 1 5.50726 10.0824 -14.4457 -2.15364 -2.06931 0.146621
1349 1 3.59073 -12.3414 8.86109 2.72782 3.3261 2.99625
1350 1 -15.0477 0.116786 -3.0122 2.80974 0.321751 -0.301831
1351 1 15.1527 -16.2825 19.0807 0.496307 -2.15789 -0.356479
1352 1 6.0556 24.6271 20.7856 -1.20666 3.62537 -3.56568
1353 1 4.68269 22.508 2.38119 -2.6105 -1.72241 -1.35756
1354 1 0.508928 -5.02923 -18.2446 6.01144 -1.97305 -0.980423
1355 1 -8.73883 23.1038 19.1468 2.90605 -0.908602 3.75967
1356 1 -20.8404 -11.7839 -1.06506 -1.39718 3.95385 -1.36818
1357 1 -19.9109 -6.3259 -11.9062 2.57276 4.06911 3.78316
1358 1 -10.0331 25.1982 20.6538 -2.12726 -1.78362 3.24335
1359 1 -21.9862 -24.4063 -23.7026 0.965588 -0.818465 -2.37402
1360 1 16.6496 -15.2834 9.44926 1.90472 1.98167 -4.23182
1361 1 -8.02767 -21.5571 3.19827 0.812746 -3.11696 -3.79482
1362 1 19.2618 18.5734 6.59628 6.15884 -1.4388 1.29516
1363 1 -15.2281 -11.3322 -20.5504 1.16273 -1.05539 -5.53143
1364 1 11.2783 -10.9529 -13.8728 0.41351 4.82094 -2.99169
1365 1 10.3504 -4.82698 -22.1858 -4.11818 0.708387 -2.26111
1366 1 20.2693 -13.1531 2.2401 2.78218 2.16164 -6.20223
1367 1 -9.53891 -12.5005 12.2835 5.06534 1.88971 5.73801
1368 1 -17.9568 17.4739 -3.82445 -1.02128 -4.20298 6.07814
1369 1 23.8488 5.49986 -3.36256 7.01297 3.31266 1.44093
1370 1 3.93199 -15.3347 23.5858 0.188607 -3.88201 0.559112
1371 1 -20.7041 9.15931 -2.83321 -1.17615 -3.38 -1.6912
1372 1 -9.59674 12.5271 3.7026 0.471554 -2.85666 0.347643
1373 1 -15.3517 -8.53675 12.1992 -2.02811 2.02365 0.225807
1374 1 -20.3211 24.9318 16.9606 3.825 4.17515 -5.11513
1375 1 15.7348 -6.64079 3.48013 1.45656 -1.37089 -3.19344
1376 1 5.12143 10.478 -7.85826 -1.97137 1.90755 -2.97273
1377 1 -14.1768 21.8062 23.6193 2.06835 -2.76015 1.10886
1378 1 10.7428 -9.82786 0.308486 2.23067 -1.16304 -0.34957
1379 1 -19.3007 -14.8266 2.15615 0.713509 -0.102266 -2.38065
1380 1 16.4949 22.1489 -8.70134 4.47865 0.73216 -3.53326
1381 1 17.1468 13.7329 10.4023 1.37262 -4.7659 -1.75798
1382 1 14.2978 -15.285 8.23945 -0.283513 1.91748 -2.78403
1383 1 -6.70889 -22.7974 -14.2132 -1.88511 0.120785 0.559538
1384 1 2.87215 19.498 -11.6321 -2.55517 4.4311 4.23564
1385 1 -16.7695 24.0521 13.4454 2.47819 -0.867461 2.73882
1386 1 -12.1423 9.67457 1.90152 -1.69879 4.45855 -1.144
1387 1 -21.4305 -0.818417 1.30787 0.842812 6.07141 -2.61795
1388 1 18.2201 -1.1629 16.7412 0.361588 -0.806965 -0.495167
1389 1 20.2251 -3.56299 -1.20131 -1.45551 2.3711 4.12825
1390 1 5.90517 -1.2101 11.9082 -1.71648 -3.38674 -2.22129
1391 1 -12.8347 21.7839 21.0249 0.281358 -7.72783 2.07776
1392 1 23.194 4.59178 4.37584 -2.05002 -1.79337 -0.145994
1393 1 -1.9955 -3.17478 3.03819 -1.6007 -1.6001 1.48
1394 1 4.15817 6.8114 0.0541205 -0.954302 -1.6034 -0.836699
1395 1 0.806961 7.1225 -8.68217 2.32695 -5.87807 -1.05814
1396 1 -18.5713 -8.11932 7.65817 0.256498 5.27077 -0.764663
1397 1 5.04481 22.9052 -8.31726 -0.739362 0.674599 0.0495368
1398 1 4.62384 22.1861 -5.28426 2.07951 -0.456632 -2.80442
1399 1 -0.0785226 -23.6207 -2.5847 3.53756 -4.13666 -2.98792
1400 1 -14.1754 15.5845 -23.5306 -2.85329 1.10145 0.806544
1401 1 20.4158 -21.4566 22.2959 -2.08006 -6.75248 -3.94649
1402 1 -17.3899 -5.26528 -16.1113 3.20499 -2.60827 0.981823
1403 1 15.8802 -23.8885 17.495 -0.482841 2.35111 3.37651
1404 1 21.6769 -11.1768 10.9466 2.83693 -0.599141 -2.10678
1405 1 17.4622 22.7157 -23.3213 5.2193 -1.69368 3.03
1406 1 -5.93798 1.81537 -12.038 1.96674 2.21507 2.57973
1407 1 -23.4351 8.36504 -2.40092 -5.10937 2.86382 -4.32002
1408 1 -4.168 -5.2464 -15.6369 -0.138101 -2.73328 -1.90751
1409 1 -1.0929 5.45371 22.1563 -5.76558 -0.963247 3.35239
1410 1 1.20981 -20.4114 -16.9539 1.21926 -0.492832 -3.05262
1411 1 20.127 4.55802 -21.5317 -0.927005 -0.56334 4.14464
1412 1 -19.3446 12.4587 -12.1578 -3.3564 1.97043 -1.46635
1413 1 -15.4357 4.49008 -20.7823 -0.477481 -1.07946 0.996814
1414 1 5.70722 22.4489 6.34682 -1.37339 3.71608 1.67755
1415 1 -7.40889 -22.0096 -1.00124 -0.357573 -0.466859 0.548205
1416 1 -23.9411 -8.21757 8.44054 -0.0746918 2.47594 1.43303
1417 1 11.2226 4.59129 13.5428 -1.67079 0.876973 -3.11895
1418 1 14.3288 -8.48154 -1.66718 3.54085 -3.61038 2.03131
1419 1 10.5123 22.5403 -1.51562 2.93192 3.5763 -2.23059
1420 1 -13.4156 20.6113 -20.1578 -0.389757 3.44872 -5.47765
1421 1 21.7999 -10.524 5.3027 -1.38292 -3.2228 -0.0089389
1422 1 -14.9416 -19.5004 -12.2311 -2.44203 0.482205 -0.646927
1423 1 8.83756 20.5527 -18.84 1.118 0.542782 1.08551
1424 1 20.8553 12.3793 -8.90397 1.58934 -1.99548 -2.81859
1425 1 1.37687 4.16857 -11.6393 0.429741 1.36252 -0.989317
1426 1 10.0298 -19.6838 3.80481 1.56247 -2.78987 3.69541
1427 1 17.8852 -14.4225 -1.2081 -0.107529 -6.20879 0.453225
1428 1 -4.27282 -17.0539 20.7503 -2.43611 0.0294679 -2.04982
1429 1 -19.3277 -14.4101 6.32368 -0.547818 -2.35908 -4.82194
1430 1 -2.24075 16.2704 6.32021 -1.18927 -0.718939 0.816437
1431 1 -8.39983 1.65413 -10.8241 0.301189 -3.95767 -0.0938739
1432 1 -10.5667 9.28142 19.0203 1.92272 -1.83098 1.8848
1433 1 -17.6269 -12.3237 -13.9158 -2.81769 -1.34794 3.56046
1434 1 -23.4277 7.04104 22.8692 3.27114 3.81192 6.64579
1435 1 20.433 23.5129 -3.9949 -0.437467 3.56296 0.997802
1436 1 -15.541 -1.69454 -15.1716 -3.22493 6.81907 3.95271
1437 1 5.80153 14.7693 -20.3623 -0.659044 6.9057 -2.4127
1438 1 2.25209 -2.08641 -15.4082 -0.681446 -3.34723 -1.13013
1439 1 -20.1552 8.13959 -9.48739 1.73503 2.08304 -0.491304
1440 1 -22.4576 12.249 -3.34935 0.417846 -0.998962 5.50185
1441 1 -17.041 -15.5858 17.1657 -3.6081 -0.816197 0.7696
1442 1 -23.0801 -7.25833 -3.7091 3.37923 -0.271263 -3.1318
1443 1 17.0254 -13.964 18.7911 1.63892 4.44956 -0.146988
1444 1 11.2284 19.1066 -22.5782 3.11615 -1.04736 -1.36161
1445 1 11.4721 -20.4953 10.9627 -1.28 -0.472797 1.69082
1446 1 3.6123 -8.91862 -8.81985 4.18281 -1.04234 3.81789
1447 1 21.944 -4.73986 -19.1844 0.78348 1.17261 1.70354
1448 1 -15.8423 2.7853 3.96648 -4.3165 -3.26291 -0.145504
1449 1 12.1923 -4.86752 0.248434 -2.81404 3.02937 -3.18639
1450 1 -7.44734 -6.86941 -8.15554 1.96028 2.39118 3.00776
1451 1 11.1905 21.3371 -10.2152 -0.513291 0.264753 -3.96185
1452 1 -6.23435 -21.689 -16.8796 -1.34175 3.8977 -6.53821
1453 1 0.414849 -20.1341 -5.66158 -1.42201 5.92546 -0.602373
1454 1 6.66484 -11.1711 -1.21234 2.91274 3.23552 -0.0944261
1455 1 -15.7937 -19.11 -6.71112 0.765724 -0.175676 -0.252604
1456 1 -17.3334 13.4816 10.7425 0.499176 -1.46185 -1.83736
1457 1 -19.0011 1.85269 -20.3626 2.03265 -4.18365 -1.48031
1458 1 -21.0353 12.7179 7.35766 0.659483 0.0563611 -2.54628
1459 1 -11.6091 -12.1549 -5.39041 0.697022 -4.14127 -4.14456
1460 1 -11.8606 7.30601 -12.2751 4.3965 -3.95516 -7.7289
1461 1 -13.9899 17.5415 22.6815 -1.37544 -3.27939 -4.92774
1462 1 -8.96776 -19.086 7.82416 0.710131 -3.10845 -0.849354
1463 1 7.95324 -2.30618 15.0861 -2.38178 2.21434 -0.432537
1464 1 3.96428 -19.6827 1.42339 2.86667 2.19116 0.711497
1465 1 -20.5792 23.0815 -13.4527 2.9835 -1.07425 -2.95389
1466 1 -18.24 -5.72326 -2.91388 -1.42191 -0.194721 -1.21546
1467 1 23.7373 -15.756 -18.1403 0.197752 -1.23298 1.5402
1468 1 18.9453 22.7825 16.157 2.2601 0.0912335 -1.16438
1469 1 18.4575 11.042 5.05991 2.01596 5.53124 1.61701
1470 1 -4.43053 -10.6298 7.01155 0.275291 4.41529 0.00810679
1471 1 -5.70843 -4.52794 -8.40096 -0.379733 2.48045 -1.30589
1472 1 20.7653 5.08419 15.3914 1.8582 -5.15305 -3.97391
1473 1 14.2824 -17.2488 -13.7445 1.83462 4.28357 0.412863
1474 1 1.51568 22.7318 -23.7787 7.98683 2.41379 1.36702
1475 1 -21.1251 45.4637 -4.06321 -2.88013 -2.78044 -1.95666
1476 1 -21.233 14.1949 -19.3871 5.24842 0.111027 -1.66924
1477 1 18.0052 0.185597 -1.09456 -0.538493 3.7696 -1.12328
1478 1 -0.324382 3.63787 1.33594 2.16911 -2.2041 1.88855
1479 1 11.4003 -8.43062 8.4824 1.13341 2.06717 -0.465778
1480 1 2.51594 13.0177 -5.7159 0.970998 0.454771 0.956062
1481 1 -7.91852 15.7268 -2.69326 -1.25298 -2.10907 2.01542
1482 1 5.67844 21.8653 -21.2707 -1.54013 -0.434453 -1.57836
1483 1 10.407 -23.1958 -20.5113 6.29795 3.0055 -4.74507
1484 1 -8.05652 10.8842 6.59948 1.15142 0.438069 -1.10392
1485 1 10.6679 -10.3589 -23.6352 3.39238 0.251188 -2.04511
1486 1 -16.9466 -9.1025 14.7669 6.8948 2.94648 -3.5893
1487 1 -1.70284 2.46323 -17.6493 4.23291 2.5232 2.0104
1488 1 -17.1065 -19.0603 12.2077 -0.770697 -2.26831 -1.45063
1489 1 -23.881 14.5202 -2.25214 2.26614 -0.856189 1.7563
1490 1 -22.0265 5.75166 -5.15229 -3.6781 6.12039 3.43111
1491 1 12.2904 8.05204 -6.97265 2.54895 -3.79746 -0.985792
1492 1 -13.7017 11.3609 12.9333 0.409472 0.567523 0.866962
1493 1 -5.10654 -6.0155 -18.4035 4.04872 -1.23467 1.25476
1494 1 -9.15921 7.34883 -22.4465 -3.41526 1.26467 2.18743
1495 1 -17.5418 -10.0902 20.0626 4.69824 -2.49742 -3.99255
1496 1 -3.86633 10.1996 -9.80895 3.85537 -0.377961 -2.29155
1497 1 13.4397 -9.30076 -18.0742 2.3906 1.19318 1.01935
1498 1 -12.7084 4.05069 11.7993 0.36086 -0.899204 0.967385
1499 1 17.7706 4.78333 21.4935 -0.527574 -1.25244 -1.1058
1500 1 -21.3575 16.5616 14.4297 -0.194604 -2.63564 -0.862236
1501 1 8.96672 16.8815 -15.4773 -0.52755 4.33529 -1.14647
1502 1 -24.2061 -7.74632 -6.62292 2.65085 -1.06836 2.11575
1503 1 9.92729 22.7829 -22.6082 -5.3687 -1.41154 1.39762
1504 1 -3.01327 -23.6403 -6.00871 -0.430187 -2.04613 0.110287
1505 1 19.1954 -23.5341 -20.2086 1.72314 1.63409 -0.372695
1506 1 13.0125 13.6245 -0.843599 3.21862 -1.34575 -4.818
1507 1 -22.8196 18.7265 -5.70784 0.833052 -1.22429 -1.26953
1508 1 19.1592 -12.1721 -4.42612 -2.21211 6.29112 3.48778
1509 1 11.8879 21.0368 -7.51862 1.02066 1.12349 0.329357
1510 1 -16.8011 -11.8725 -0.389612 -3.55006 0.472289 0.684826
1511 1 -21.7284 -6.71919 13.9687 1.5159 -1.74962 -0.465234
1512 1 -12.2837 -12.6762 -1.15529 0.173772 1.39149 1.56399
1513 1 -19.6241 2.7774 15.8773 5.00379 -3.72261 -0.761726
1514 1 -13.0031 -5.2802 -5.57338 1.1901 1.15275 6.11905
1515 1 -8.63378 -21.5571 21.4951 -4.46986 -0.154276 -0.369759
1516 1 -9.00759 24.601 23.2634 0.000627264 -3.83472 0.70431
1517 1 -24.1284 -15.5395 -8.31666 -0.12599 -3.16605 1.78623
1518 1 -1.43023 11.0415 23.6497 0.0817696 -1.55614 -3.25633
1519 1 -12.089 -18.0336 -0.892234 0.446675 2.79916 -0.403667
1520 1 12.0712 2.73844 -12.7533 1.60626 1.22414 -1.31651
1521 1 -8.39849 -11.1102 16.9429 0.827598 0.369407 -1.34293
1522 1 -12.2543 0.56345 -13.9436 2.22701 -3.21344 -0.0232205
1523 1 -6.45872 6.69028 14.0093 -1.65259 5.18168 -0.879058
1524 1 2.61817 -18.6205 4.08853 -0.103174 -0.969744 -3.85292
1525 1 -9.86105 -5.69161 0.357541 -3.95671 4.01475 2.68011
1526 1 17.6123 23.1616 1.44872 -0.575183 -2.07021 1.63184
1527 1 3.8455 -1.76993 -7.73731 -1.64773 -7.17338 1.0525
1528 1 7.75582 14.0356 17.7207 1.5422 3.59036 2.33614
1529 1 -4.99203 0.0562716 10.5743 -0.134113 0.306851 -0.716359
1530 1 15.8145 16.9011 4.79928 -0.00561062 -2.83058 2.04262
1531 1 5.75357 -7.97048 10.5037 2.86683 3.15488 1.90327
1532 1 20.4289 -4.27403 -16.5755 -0.180736 -5.81199 3.7485
1533 1 10.7969 22.0369 11.501 -1.31727 -0.0111732 -6.31617
1534 1 -17.8348 -6.98667 11.026 -3.74336 -2.56591 -1.02252
1535 1 1.6287 -6.28438 14.5219 -0.296922 -1.11694 -4.06409
1536 1 -6.79823 1.83926 23.4276 -1.88424 0.32438 -1.66994
1537 1 -3.05657 23.2831 -17.6834 -0.327332 2.14314 0.388537
1538 1 5.2791 17.2783 17.8235 -5.42776 0.974062 1.33222
1539 1 2.14362 6.67398 -15.4433 -2.64859 -4.81623 -2.29413
1540 1 -21.0877 5.98745 -23.7565 5.89132 -4.73151 -4.15938
1541 1 7.63836 -18.9155 -5.23161 0.40444 1.46658 2.00588
1542 1 -18.9233 -5.53702 16.6228 -1.21603 -3.8035 -0.234545
1543 1 2.28179 -2.53312 13.1012 0.806812 1.33622 -2.17683
1544 1 -5.54944 21.5809 -18.6429 2.59525 -0.240965 4.4321
1545 1 -8.49302 -14.9518 13.4554 3.12158 0.315507 4.15845
1546 1 -14.6136 -10.7043 19.7312 3.20796 5.92378 0.927478
1547 1 11.4026 0.764466 0.0249611 -1.29117 0.405833 0.79823
1548 1 18.0111 46.3484 -8.82179 -4.58455 2.67297 -2.1429
1549 1 -0.147295 -3.76748 -15.7001 -1.2953 -1.62514 -4.46069
1550 1 -3.09042 -8.17802 -10.9539 -1.16862 -8.28625 0.77566
1551 1 11.8484 -1.1789 -7.63444 -7.57665 -5.18402 -5.34996
1552 1 19.4436 10.6721 -17.6908 0.11395 0.524087 1.96451
1553 1 -9.46109 20.8688 -14.073 -2.41764 4.74552 -0.382516
1554 1 -5.46289 -5.66879 -22.8534 -1.27156 -0.891875 3.28504
1555 1 -21.6769 -4.76513 -4.30181 -0.230498 0.505674 -1.0659
1556 1 19.7396 -20.4647 -9.41449 5.28407 0.44813 -0.425172
1557 1 9.00581 -23.5604 -18.1813 -2.70373 -1.43659 2.92647
1558 1 9.29335 -15.8561 0.307171 -0.0833958 -6.92011 4.45051
1559 1 20.7177 16.6466 0.836262 -2.31285 -0.715567 2.46593
1560 1 -18.3831 -20.8298 18.9864 -5.6747 -1.14741 1.21939
1561 1 19.9052 18.0469 -6.13495 1.12165 1.58803 7.42457
1562 1 0.975444 -5.17366 -2.4141 1.78757 -3.88574 -0.0681675
1563 1 -3.66896 -5.25113 10.7709 -4.44536 0.0624866 -0.192664
1564 1 10.7424 14.5627 -7.19674 0.416503 2.18427 -0.190413
1565 1 -5.74203 15.2558 -9.06213 -0.739116 1.62651 -6.15093
1566 1 3.75991 -7.19327 7.76276 -0.622298 1.17366 6.884
1567 1 1.72629 -7.35205 -19.7812 -0.070955 1.72733 -2.96713
1568 1 18.9345 23.439 -9.33207 4.78834 2.97555 -7.249
1569 1 8.54118 14.9677 6.26146 0.476835 -3.42526 -2.23003
1570 1 -20.4363 2.58385 -12.8009 4.22542 2.03784 6.01781
1571 1 -1.34839 -10.4801 -0.302609 1.51974 0.300136 1.80491
1572 1 -1.97022 -16.6741 11.4862 1.90497 0.243579 9.05839
1573 1 -8.78217 -12.3981 19.4857 2.38491 4.51806 3.24416
1574 1 18.7278 -18.6715 5.98989 -2.80062 -3.16448 -1.96949
1575 1 -17.8426 15.6514 4.98651 -4.29017 -2.95336 -2.38664
1576 1 13.0352 21.4394 -19.3943 0.827194 -0.780553 1.05713
1577 1 15.8741 -21.2787 3.68302 -1.46563 -3.87773 0.581149
1578 1 16.0154 -1.84243 -11.7672 -1.90038 -2.11677 -0.594452
1579 1 -5.90951 13.8118 -6.64414 0.461625 1.34029 -2.05656
1580 1 -17.6348 -23.6458 -7.98652 7.86967 2.82854 6.56812
1581 1 -6.23005 -6.85823 10.6494 -2.1336 -0.395282 -2.11692
1582 1 -13.6515 4.17438 -1.7036 -2.86263 -0.396773 3.49039
1583 1 9.99749 -1.15659 -5.17949 -2.21996 -5.05498 -3.17833
1584 1 -7.04619 -4.16129 13.9035 1.03145 0.552936 0.0858724
1585 1 -9.14356 -12.9704 22.7545 1.19154 -0.919885 -1.02201
1586 1 -19.2669 -23.038 0.0321336 6.11996 0.744183 -1.00565
1587 1 19.4854 -5.26174 -7.8328 -1.49673 -1.51202 -4.34124
1588 1 2.22278 18.0756 -21.0102 1.15053 -1.08685 2.50332
1589 1 -10.8709 -22.3347 -3.77848 2.3331 -2.80861 4.9133
1590 1 21.519 8.36396 -14.7807 -0.698117 -0.584734 3.54904
1591 1 12.2371 11.6565 1.03807 5.77223 -4.71376 1.76477
1592 1 17.7539 9.77982 15.5241 0.995095 1.33352 -3.14414
1593 1 2.31644 23.0195 -17.694 0.209414 3.98477 -3.76039
1594 1 7.9875 8.0318 -1.45224 -2.8307 0.879318 5.95534
1595 1 6.52227 17.0661 -2.7344 -1.34137 -3.3496 -0.62982
1596 1 -5.24132 -1.25105 -19.1865 4.04123 2.30966 3.19097
1597 1 16.9678 -23.0672 7.61469 -0.231252 -1.04497 0.54212
1598 1 0.40197 14.9104 2.13608 -2.57859 -0.507939 -4.6148
1599 1 -22.315 -3.41654 11.3512 -1.71873 3.35267 0.283815
1600 1 19.0061 -13.9953 -15.0884 -4.94921 3.5749 -1.12808
1601 1 6.80589 14.8489 -17.652 -0.515307 3.07366 4.34046
1602 1 -20.8922 -12.8741 -19.0475 -2.16652 2.11854 -2.40553
1603 1 6.48868 -9.31816 -14.559 -1.1625 0.25054 0.634329
1604 1 21.3628 -15.0255 -16.0912 4.09703 -0.232079 -3.47021
1605 1 -2.13581 -2.12507 -12.113 4.32708 0.379976 0.76927
1606 1 -21.4183 16.0847 2.52982 3.68249 1.59561 -2.16926
1607 1 12.9825 -23.8029 -15.2128 -0.558039 -5.45697 -1.65228
1608 1 -23.9722 4.73767 9.66435 -1.44639 1.46517 1.77226
1609 1 -22.5596 18.1468 -19.0985 -0.171858 1.21632 2.95296
1610 1 -12.2617 20.4196 -15.0466 3.01999 1.70536 -1.93766
1611 1 6.38394 12.3229 -1.8719 -3.07587 5.15233 0.431036
1612 1 -23.1201 -17.6385 15.7824 -1.21842 4.67002 -0.674399
1613 1 0.335943 -14.7504 1.05398 0.357517 3.6087 2.36182
1614 1 -14.4535 -13.1658 0.922759 -1.6388 0.658698 2.28048
1615 1 -4.2174 -15.5897 -9.55446 0.120602 -4.3017 -1.8574
1616 1 14.3768 -12.9924 -17.6416 4.80022 -2.24005 1.09847
1617 1 -17.5624 -15.5125 -10.0764 -1.26513 -0.605013 4.34331
1618 1 9.82188 15.906 16.6415 -2.20928 -0.686196 5.65982
1619 1 14.3547 13.4773 18.443 0.986625 3.80307 0.311934
1620 1 11.3228 -9.35941 -5.39708 4.41426 7.36158 -3.59684
1621 1 -19.3547 6.3311 12.8326 1.31045 -1.198 1.60289
1622 1 -16.2682 22.9687 16.0068 0.652756 1.85179 2.28898
1623 1 -10.7492 -17.6875 16.1154 -0.252484 1.80623 5.48959
1624 1 4.86327 17.4215 -20.1398 -1.36022 -0.843316 -0.038882
1625 1 12.1958 13.3122 -10.5711 1.28521 -0.445991 -4.05756
1626 1 17.1506 1.48045 19.4345 -1.66478 0.385719 -1.64158
1627 1 18.7891 -7.57216 -23.4575 4.73139 -3.67128 4.91806
1628 1 18.6411 2.94142 3.16865 3.32633 1.48435 -3.38305
1629 1 -6.59223 -21.5246 15.6009 2.48403 -2.46262 -4.8392
1630 1 12.7847 -8.16106 20.3934 3.18339 0.694669 -3.41202
1631 1 -23.3539 -20.97 8.3104 -0.246847 0.984282 4.44916
1632 1 -5.57574 9.99464 -23.2812 0.668153 -0.497732 0.627321
1633 1 19.0524 18.9261 -22.4278 1.1951 3.93131 -1.45498
1634 1 -20.6233 -8.11616 -21.7817 2.93841 -0.985614 -3.87155
1635 1 4.04612 -17.3131 -12.0891 3.60271 2.03372 -4.47849
1636 1 20.1581 -11.81 13.5191 -3.72065 -1.91098 0.435136
1637 1 -2.12624 21.4968 -4.23388 0.00363829 2.97441 -0.0951621
1638 1 14.4474 -4.90507 -19.4036 -0.00731472 2.37311 1.45624
1639 1 11.4737 13.4022 19.6451 0.231741 -0.45601 -1.72657
1640 1 -18.8018 -21.5925 -11.3408 -0.234741 -2.07147 0.242598
1641 1 22.4568 -14.4788 20.7232 2.2035 1.28486 -3.1681
1642 1 -2.25587 22.8778 6.54065 -4.97787 4.66887 0.696861
1643 1 -5.02359 23.713 -10.703 0.654152 -3.97516 -1.92096
1644 1 -19.1397 -1.79427 8.46459 0.847087 -1.596 1.68874
1645 1 -4.24792 -6.09268 -6.00158 4.12973 -2.52644 -0.732624
1646 1 -22.6465 -6.15656 -17.0777 -0.564426 -1.11108 1.56431
1647 1 17.257 12.6396 -17.5131 -0.464563 -2.16687 1.4573
1648 1 -21.684 -15.059 22.9889 -0.467072 -1.05766 -0.485434
1649 1 -17.3461 -5.19539 -9.59755 -1.31216 4.83413 1.04193
1650 1 9.83627 -3.72843 -14.5163 2.58892 -0.14532 0.43334
1651 1 14.6234 -16.4452 0.191622 2.54503 -2.24304 -0.231226
1652 1 13.7806 5.18977 -19.3019 -0.15459 -2.93653 1.33278
1653 1 10.9576 -22.4842 3.75834 -2.20519 0.278344 2.34995
1654 1 5.48222 -16.5533 10.9032 -3.6816 -4.09345 -3.80839
1655 1 -1.92745 15.0546 13.0751 5.55496 -1.91684 -5.79346
1656 1 -4.03958 12.3253 15.3322 -1.46568 -1.38403 -5.09991
1657 1 16.7171 7.78378 -13.6625 -0.135616 1.34344 2.34929
1658 1 -19.196 17.8804 8.08181 -2.33047 -3.10584 -2.9957
1659 1 -5.05286 -23.0493 5.82341 3.48493 -6.20007 -0.061559
1660 1 2.42927 -9.80911 -20.9643 -2.40935 -1.56111 5.0048
1661 1 -23.3232 0.719834 16.1543 -2.69136 -4.71418 -2.96205
1662 1 -11.6717 -19.984 -8.82379 1.67434 2.80164 -4.1082
1663 1 -15.5841 -2.00456 -0.88288 0.451799 0.780952 -2.72579
1664 1 1.97966 -12.1506 -15.0513 -1.31212 -4.22743 2.94752
1665 1 -4.12906 8.50421 18.5745 0.675405 -3.32422 3.07445
1666 1 18.0971 -8.04875 -16.3836 0.15337 3.73153 -3.90627
1667 1 -14.4499 -1.55942 7.08973 -2.35418 1.10009 1.31312
1668 1 -11.94 19.0623 8.13615 4.1885 -0.543142 -0.833421
1669 1 16.0841 -24.2473 -12.352 0.246183 -1.89123 4.57676
1670 1 2.92016 16.6078 1.40395 -1.12161 -5.26389 1.4258
1671 1 -14.1155 7.3233 20.1748 0.912289 -0.0569924 -3.1546
1672 1 2.50056 11.7866 -23.694 -3.29914 -1.04393 -2.39725
1673 1 2.56759 -16.009 2.66315 -3.47788 -0.724912 -1.80909
1674 1 3.17995 -4.5428 -6.87688 1.35488 -1.26395 -1.37274
1675 1 1.1908 8.94549 15.2786 -1.40434 -0.988993 -0.32001
1676 1 -16.9946 -1.11704 -4.77854 9.57017 -9.51399 -0.104091
1677 1 23.2939 -18.8394 11.9695 2.68472 -0.0967734 -0.842925
1678 1 4.91318 22.087 -17.1854 -2.3458 1.22034 1.73489
1679 1 -12.7236 24.5478 20.5429 2.16275 2.79533 -2.03699
1680 1 -22.2809 -19.6459 -21.4766 -0.343153 2.27935 0.950146
1681 1 -17.8678 -10.8509 -21.4003 2.08462 -2.24497 -3.7635
1682 1 6.77939 10.262 0.299594 3.5864 -10.7559 -0.00415363
1683 1 15.035 24.2411 -16.2875 -1.62639 -2.45681 3.82422
1684 1 5.75425 15.0696 15.9014 -0.711589 1.08761 -9.30396
1685 1 -20.2683 13.4801 23.8172 -4.75826 -2.2522 0.666524
1686 1 11.0208 -12.0395 21.9547 5.18958 -6.39801 1.99492
1687 1 21.3023 -18.9966 -13.7657 2.82665 -1.26566 -0.278889
1688 1 -16.9349 -2.54889 -11.4282 2.86754 5.54252 1.46519
1689 1 3.4019 -23.2073 -1.99791 2.31238 3.04115 0.89505
1690 1 -7.23919 -23.366 10.0949 -1.33628 0.565704 0.738966
1691 1 -17.9324 -11.7808 6.86513 0.580744 2.74082 -3.67323
1692 1 -2.96434 18.3138 -5.77997 -4.38901 3.80031 0.934431
1693 1 21.3146 9.25567 23.5953 2.84645 -3.46461 -2.31864
1694 1 -15.1057 4.34353 -14.4203 0.445952 2.09755 -1.51822
1695 1 17.7984 45.2636 -11.5666 -2.61062 -2.02453 -0.579835
1696 1 11.5236 -1.73629 1.73027 -0.0961559 -1.08308 0.238038
1697 1 -11.7199 -23.0846 4.86412 4.24421 2.2905 -4.8959
1698 1 -9.95206 11.5481 -1.21579 0.132858 -5.14835 1.55227
1699 1 13.82 1.77324 16.0596 -1.77523 3.67934 2.86179
1700 1 12.7458 -0.189791 -13.106 1.74889 2.64241 -0.361151
1701 1 11.982 25.7587 -4.42267 -1.30423 1.26879 -1.91852
1702 1 -0.138454 -20.4609 11.4608 -4.38514 1.36663 -3.01502
1703 1 2.73174 2.32089 -12.8553 1.93963 3.99592 -3.79556
1704 1 -7.87131 -12.733 5.8773 3.57277 1.54533 4.06632
1705 1 -2.19914 23.7924 19.4151 1.55309 3.37123 -0.921542
1706 1 8.19011 8.97868 -17.0894 -3.39949 -2.64165 -3.4503
1707 1 -11.2271 -10.7196 17.1615 0.184576 -3.58204 1.58456
1708 1 -8.33557 24.0898 14.5405 -1.90834 -1.30904 0.664802
1709 1 18.48 21.642 -2.99794 4.6675 7.12109 -3.16701
1710 1 -8.41795 -21.1378 -12.908 6.0756 2.80714 0.282825
1711 1 -3.67423 6.41209 1.12209 4.00957 -1.06537 3.34061
1712 1 12.4935 14.1586 -20.62 -1.91772 0.251584 2.83087
1713 1 21.4761 17.0529 11.1413 -2.2049 0.445462 8.33897
1714 1 7.43392 -3.35817 -12.8762 -3.69775 -3.88613 2.28323
1715 1 11.4559 26.7044 16.0721 0.885776 3.94782 -2.1527
1716 1 14.7526 -24.0538 23.9219 1.03379 1.41865 1.60804
1717 1 12.23 -15.4808 -2.42281 -3.88258 1.9889 0.026685
1718 1 4.66803 -20.1116 -11.0101 0.565279 1.96712 -1.78197
1719 1 20.6709 7.28371 0.306491 -0.485363 2.17931 -0.652852
1720 1 -3.17024 -23.3238 8.03101 2.88321 4.71022 5.40223
1721 1 5.80893 2.71735 9.99199 0.975178 -0.0275569 5.41246
1722 1 20.0662 -22.5764 16.1131 2.44574 -2.78452 5.85758
1723 1 22.6284 15.1754 2.30535 -2.30547 -2.95879 -2.19676
1724 1 -17.6892 -23.4538 -4.38403 1.09154 1.66844 2.90469
1725 1 -14.7298 8.37485 -18.7973 0.15922 -3.07975 0.4955
1726 1 16.3583 24.8335 23.3237 0.171617 5.31415 -3.65344
1727 1 23.4392 -2.30932 -18.8131 -0.626718 -1.91582 -2.4982
1728 1 -23.6557 -4.17944 -22.8413 -0.125783 -0.231314 -0.346243
1729 1 -15.4183 4.46302 12.2524 -2.40813 1.13667 2.22585
1730 1 -3.7259 -8.05538 -23.8892 3.27924 0.186458 3.24551
1731 1 19.6592 5.17321 -3.29899 -2.09652 -0.620689 -1.72682
1732 1 14.2698 -12.8248 6.34379 -0.133811 3.62125 1.11816
1733 1 -12.5829 -16.6724 7.11362 4.50121 2.71276 3.6608
1734 1 -7.05567 25.6056 -23.18 1.87393 3.31422 -2.43285
1735 1 -0.322276 20.5279 -16.7132 -2.43993 -1.7161 -0.247418
1736 1 17.3084 3.32009 13.0668 -0.0497147 -0.467459 -0.131901
1737 1 -17.0813 1.36197 -6.18514 -4.63599 -2.25306 2.67878
1738 1 6.08652 12.5266 -22.2082 -1.50878 3.25348 -1.18362
1739 1 -8.34574 -19.3461 15.4384 0.106124 -1.4477 6.6485
1740 1 3.16923 22.9082 18.2175 1.51665 -2.4111 -5.46378
1741 1 10.2239 13.5259 22.1629 -4.05424 -4.37768 -2.02375
1742 1 1.46987 -6.07764 20.1505 -4.19755 1.16349 -5.04164
1743 1 19.6271 -15.9594 9.54883 1.06789 -3.91673 3.28472
1744 1 14.6336 24.2892 -7.65054 -2.99604 -1.65536 -1.98298
1745 1 6.67374 12.5722 -6.50056 0.316959 3.96013 3.53953
1746 1 16.7801 23.6458 -12.2776 0.851244 -0.168305 -3.71136
1747 1 3.28852 -14.6911 -6.94091 2.92451 1.38852 2.38828
1748 1 14.7076 -1.45059 -3.90478 0.616373 1.92679 3.16399
1749 1 21.7493 11.4947 16.4544 5.25322 -0.982829 -0.587558
1750 1 15.3158 20.5568 12.2751 -1.0466 0.165584 -1.42989
1751 1 2.22212 -9.13567 14.6359 2.76766 -3.79239 -2.857
1752 1 21.3332 18.6584 -18.9968 -1.57138 0.689408 -3.30328
1753 1 -22.6807 -16.9496 -22.709 -2.60084 -1.55277 1.19073
1754 1 -23.6018 13.0871 -20.8811 2.00311 3.00044 -4.66961
1755 1 -9.58935 -1.43664 -8.52642 -5.63286 4.77097 -0.688262
1756 1 -16.8303 3.4071 7.37836 1.2952 1.29082 2.84391
1757 1 17.7232 -15.4806 -8.81777 1.10207 1.78459 1.32122
1758 1 18.7098 -24.2228 5.85439 -4.97725 -0.5031 1.74429
1759 1 19.5942 9.82269 12.0279 -0.527614 -1.54398 -0.50572
1760 1 -18.1117 -14.2935 -22.8174 2.86618 -2.76373 -3.08496
1761 1 21.0349 -17.0638 -23.8505 0.193844 -0.341266 -4.04009
1762 1 1.80344 19.8302 3.72038 -4.21903 1.09437 -2.02211
1763 1 -2.39405 3.78049 12.832 -2.60073 -1.28986 6.25704
1764 1 -15.1025 17.5864 -12.7926 0.496696 -1.36292 3.80925
1765 1 2.01063 -18.8772 -3.61618 1.34974 -0.439139 -4.90995
1766 1 -17.9641 0.758143 17.0131 -2.63763 7.24892 -6.0113
1767 1 8.76126 23.104 18.418 0.356983 6.62019 -0.225209
1768 1 13.0744 -3.33236 8.72793 -1.18074 2.87083 -4.0095
1769 1 -23.045 14.9528 16.144 0.205858 -1.05013 -4.8441
1770 1 -10.0535 -4.83188 17.7793 2.1716 0.719367 4.61956
1771 1 -0.705304 22.2595 11.7137 -0.112636 1.43505 -0.804149
1772 1 12.8013 -22.5725 1.48352 -0.956921 3.67871 2.09337
1773 1 17.4546 13.7432 6.12893 1.56405 -1.22985 -4.41928
1774 1 17.4375 -17.9473 21.8608 1.1743 0.343638 -2.85368
1775 1 8.0057 13.4565 -10.6337 -3.9441 2.54131 -1.65007
1776 1 10.8324 12.5488 -2.64535 -1.95979 -0.319231 -1.77701
1777 1 -21.3989 -13.218 16.4325 4.58499 1.11051 1.36486
1778 1 -15.3561 -5.85601 -11.801 0.57021 6.3955 -0.549246
1779 1 9.25122 5.30041 -7.71209 3.93707 1.13496 -5.56213
1780 1 6.36522 4.58824 -6.49887 1.12725 6.32217 1.58852
1781 1 6.03918 18.0687 -22.7874 -1.64262 -1.9999 -1.26682
1782 1 -22.3211 -14.2176 -12.9905 0.192571 -2.29435 3.44119
1783 1 17.2998 5.83678 -5.07201 5.6916 -5.75469 -0.989285
1784 1 -10.8033 17.0647 14.0118 3.54784 2.84796 -0.828632
1785 1 -7.28285 6.05136 -11.0559 1.57643 -5.86813 -4.30142
1786 1 -4.08753 0.756852 -4.63182 2.87974 -0.380144 -2.19795
1787 1 6.8373 18.5663 -11.0248 0.877227 -0.337474 -0.439799
1788 1 -14.7999 -16.5583 15.5936 -2.06632 -6.94485 -2.45021
1789 1 22.1525 -0.411472 -6.76599 1.40951 3.57068 2.33303
1790 1 9.82486 4.54286 -12.7028 -2.41012 3.95961 -2.68559
1791 1 -0.170245 -6.93314 -15.7211 0.277509 2.99473 1.53098
1792 1 -15.5942 5.89928 6.79847 -3.77029 0.17226 -0.00438173
1793 1 18.6706 6.52468 -23.3904 3.32419 2.29966 0.730403
1794 1 18.7088 3.40552 -19.1992 2.45032 -1.50454 -0.861003
1795 1 15.84 -1.9381 -14.9437 -1.81942 0.895795 1.28765
1796 1 -22.2037 -10.4207 -21.6515 2.099 -5.62425 -4.57325
1797 1 1.50147 16.5451 17.1977 -1.79298 -1.51234 -2.11837
1798 1 19.6239 -6.52105 -18.5234 -0.0946117 4.00072 5.77741
1799 1 -10.8966 12.1919 -14.2371 -3.39106 2.07035 -4.0548
1800 1 1.28917 1.5108 7.27104 -1.98812 -1.48483 3.66734
1801 1 -11.7845 -19.6031 -4.68285 4.17108 0.138667 4.82681
1802 1 -19.2062 -18.6382 -11.4727 -0.140626 -1.33203 -1.17733
1803 1 -13.9459 14.5616 -8.02944 -2.7069 3.15558 0.740644
1804 1 -2.40945 -23.155 -12.6513 3.79499 3.11013 -2.68841
1805 1 12.9414 3.50676 -7.12573 -0.0568101 0.845637 1.39545
1806 1 12.1273 -3.38186 14.2873 -3.01633 0.791551 0.327782
1807 1 -16.4494 -9.87307 22.7439 -1.35312 -1.0592 1.27746
1808 1 19.2398 -12.0243 17.8 4.9855 2.45874 -2.29818
1809 1 9.57204 20.2137 0.228525 3.55593 -0.532719 -0.67573
1810 1 12.2634 -23.0121 -6.06019 0.928102 0.299867 -3.05696
1811 1 0.96099 3.6791 21.0138 -3.34356 4.82936 2.94422
1812 1 -9.83859 -3.81425 -22.5155 -0.436813 -1.5403 -2.00148
1813 1 -14.8982 6.74739 17.6717 1.85773 1.15182 2.07533
1814 1 13.4434 4.30885 -10.946 -3.06414 -1.56102 0.497631
1815 1 12.2878 -5.38339 23.71 -0.126755 -0.367407 1.06221
1816 1 -0.188264 15.9142 -10.6122 -2.68879 -0.549173 3.52082
1817 1 -2.30229 18.603 -16.1477 -2.08614 1.78265 -1.91955
1818 1 -23.7989 -9.49105 5.75084 2.21824 -3.45357 -3.76939
1819 1 -11.0808 -13.601 18.4421 0.00973543 -1.76817 -1.21105
1820 1 15.3115 10.8808 -11.4019 1.24304 -4.12742 2.17519
1821 1 18.5298 22.5286 9.8755 1.15853 -3.83919 5.3281
1822 1 13.8095 -0.771017 -0.958519 3.0835 -1.49707 0.641334
1823 1 6.77828 46.3744 12.1732 -4.15555 1.03342 2.13579
1824 1 -17.9916 -20.1154 7.59094 0.0656527 -5.82358 -0.0600445
1825 1 7.62433 -10.6878 -5.59929 -3.65332 -3.0258 -3.449
1826 1 17.7964 9.58614 2.68712 0.528046 4.18046 -1.64062
1827 1 16.6319 -21.7312 -2.65862 0.477105 3.5836 -1.00041
1828 1 -13.6832 -21.173 -21.4259 -4.27968 -1.41717 2.14453
1829 1 1.87722 20.557 8.06449 -3.31118 -1.94359 -1.64567
1830 1 -16.5506 4.41069 -16.7749 -2.60385 -6.11639 -0.900408
1831 1 14.5033 -15.2444 -4.39878 1.5581 1.21305 -2.09336
1832 1 -22.2678 -12.2945 -24.0512 -1.51926 -4.107 -3.10248
1833 1 -10.5161 1.62111 15.5963 -3.22351 -0.909787 3.82334
1834 1 8.24827 -7.87438 -21.6608 0.336302 1.84484 -2.40297
1835 1 5.2936 26.0777 18.5415 0.422571 -0.432857 0.859376
1836 1 -9.76417 -23.1562 -19.0393 0.860924 -1.37115 0.267959
1837 1 13.6482 -22.1453 9.93328 -8.72135 4.52174 1.05244
1838 1 18.0377 20.4873 1.21315 0.549251 2.63154 -0.965739
1839 1 19.9421 25.132 5.22381 -2.7523 2.88572 -1.03101
1840 1 -21.9994 -11.5339 1.3585 -3.75758 0.858169 5.3716
1841 1 9.23227 -23.3995 -10.463 -6.51847 -0.669866 -0.76374
1842 1 13.0335 -20.6114 4.22366 1.48556 1.93423 -2.48223
1843 1 8.01764 -3.32995 -21.6772 3.44948 -1.79677 5.66535
1844 1 -3.4426 -1.72333 6.26205 1.4505 1.2732 3.22541
1845 1 19.702 22.0579 23.2511 -2.46678 1.85195 0.87525
1846 1 9.6645 -23.036 7.76887 -1.11553 2.28447 -1.09441
1847 1 19.673 -14.6963 18.4773 0.108158 2.36989 0.134889
1848 1 6.22717 5.04804 -15.1379 -3.97415 -2.27732 -2.24239
1849 1 13.5422 -22.8075 -12.7335 -1.58818 -0.00824494 1.05235
1850 1 17.9694 -22.6532 -8.11023 1.4573 0.953546 -0.657422
1851 1 -6.91752 4.68957 -1.26125 -4.50809 2.29863 1.01584
1852 1 -0.0214297 1.30972 -20.4632 -2.65873 1.72522 2.55903
1853 1 6.01316 -11.985 7.26391 4.78575 1.67356 0.0604502
1854 1 4.20169 47.1119 11.7806 0.678085 2.91709 -2.20204
1855 1 1.25815 22.4561 -14.8556 3.94305 -0.932173 4.2514
1856 1 5.89596 -3.951 -19.751 2.40251 -3.67817 0.357151
1857 1 -0.515667 -21.2265 1.82413 -1.18323 -0.732946 -1.71467
1858 1 -0.6233 -13.8419 -11.5906 -5.01294 -0.856509 5.485
1859 1 6.43103 -15.3418 -17.0683 1.97105 -3.52454 0.648811
1860 1 7.1195 0.232096 9.84466 5.54836 1.96442 -7.42718
1861 1 -15.665 -21.4192 -17.1002 2.59739 0.815213 1.04698
1862 1 -12.1473 -2.00274 -7.60944 1.27223 -8.52075 1.83514
1863 1 -5.89566 -15.4957 -7.10808 3.66794 -0.234697 1.485
1864 1 -7.21903 13.9804 19.4079 2.37116 7.79099 -0.88785
1865 1 -10.9213 -4.80224 4.36964 -1.28675 1.91996 -2.41378
1866 1 7.40559 21.7539 14.3636 -1.80983 2.26177 -0.519305
1867 1 6.82691 -8.37229 -1.76787 -0.290161 -1.06242 4.14662
1868 1 -8.65213 3.82648 16.8932 -5.61847 3.77425 -1.04417
1869 1 -1.75247 25.3341 17.1144 -1.23944 3.4295 3.40574
1870 1 -15.8807 10.2491 14.6226 0.341319 0.784469 -2.49559
1871 1 16.9955 -13.8432 6.05595 -6.74145 -1.69211 -4.74463
1872 1 -2.2729 -9.95605 -13.0317 4.53415 0.603712 -2.86348
1873 1 -11.2681 16.621 9.48476 -0.0145418 -3.28155 0.499453
1874 1 -12.0872 -14.0333 -21.1771 6.32948 2.12141 2.16718
1875 1 21.5322 -8.45701 -13.438 -2.6082 -1.24392 -1.49063
1876 1 -21.703 10.2944 -22.8338 3.00946 -0.987549 -1.31664
1877 1 -15.6372 -5.04641 8.30515 3.46876 0.791115 0.691671
1878 1 20.4325 23.4426 1.08351 -1.51576 0.805302 4.04882
1879 1 -17.6974 -15.9273 -16.313 1.71237 0.186589 0.104712
1880 1 -0.986685 23.6402 -19.5063 -0.728962 1.74864 6.35533
1881 1 9.70868 2.81694 21.3057 -5.14414 -2.02953 1.06714
1882 1 -8.83706 9.63155 16.572 -0.43575 -3.26412 -0.56467
1883 1 -7.79957 -13.3915 -5.04789 -7.21094 -2.89373 -0.454135
1884 1 15.3074 14.1136 8.12007 5.80745 1.19837 -0.985453
1885 1 -9.41801 18.7725 22.5878 -0.256606 -2.84271 0.3393
1886 1 19.8784 23.3439 7.47972 -2.5417 0.321414 -2.61255
1887 1 19.3715 -6.65032 14.6179 -0.628121 0.017107 -3.73541
1888 1 -8.01337 -19.1709 -10.6977 -3.19772 2.38258 -1.38691
1889 1 -11.2116 0.83254 8.73352 0.0783838 0.487426 2.36751
1890 1 -24.2639 8.89838 -23.278 -0.397238 2.94308 3.02908
1891 1 -9.46307 -13.1194 -22.5962 0.8814 3.19998 -2.33881
1892 1 -2.01168 -13.1409 -16.3118 -0.996948 -3.16545 -4.23465
1893 1 3.28747 0.377655 19.697 2.20447 -2.83653 1.35676
1894 1 -0.750682 -18.12 -3.33199 1.66651 0.715265 -1.23181
1895 1 -18.8078 -9.99349 16.9577 -1.97257 2.75008 -2.31028
1896 1 15.3113 22.0288 -1.39231 -0.522346 1.29496 4.67845
1897 1 -13.5193 -23.5412 -6.53928 3.6854 0.68845 -1.30842
1898 1 -23.2804 18.5126 13.1283 -0.250519 2.1564 1.69512
1899 1 -7.5145 19.7211 -5.65882 3.74216 0.0478551 2.40207
1900 1 -11.5315 1.18746 2.67504 -1.46371 1.76303 4.90974
1901 1 -10.6089 -9.51977 -17.4004 -2.16254 -0.607109 0.863463
1902 1 21.423 1.34159 -20.2773 2.57457 -1.46144 -2.70566
1903 1 -1.28792 -15.7402 -15.5858 2.07984 4.53422 0.704502
1904 1 -8.97358 -21.8237 16.996 0.834683 -4.44294 -6.18135
1905 1 -13.9627 9.02397 -6.01815 2.85282 1.27835 -2.30327
1906 1 -18.843 -24.4263 12.1715 -0.26166 1.43866 -3.64611
1907 1 -19.9001 -12.3722 10.8667 1.17989 1.32511 3.62415
1908 1 -16.2486 -5.10004 1.47145 -6.02839 -2.94135 -1.26306
1909 1 9.11381 -10.2136 12.1572 1.41335 3.12704 3.54563
1910 1 -8.52463 -10.0994 14.1942 -1.30798 3.04762 0.289796
1911 1 21.3184 -1.08658 -4.19439 -3.53354 -2.32886 2.51444
1912 1 -15.8802 3.32764 0.0909626 -7.41766 2.4078 -3.35496
1913 1 -1.36228 19.1924 -0.0500426 1.37137 -9.10541 2.62465
1914 1 20.8002 6.62438 4.63062 2.51541 0.251701 2.00371
1915 1 18.6018 -18.8052 -14.7837 2.55209 -3.0957 -2.84199
1916 1 -7.40531 16.7162 5.21749 1.74011 0.035596 -1.59473
1917 1 23.3626 22.8403 19.2539 2.81665 2.04622 1.751
1918 1 -18.2385 -0.938059 -19.6858 3.89064 -0.919067 2.98997
1919 1 -21.998 10.7272 -15.0523 -2.90368 -0.811465 5.07716
1920 1 21.7914 -15.3935 1.30019 -2.43304 0.927976 -1.58444
1921 1 18.235 13.8596 -5.99175 2.68076 -1.10507 0.685937
1922 1 6.40863 15.4776 19.7918 0.476657 -6.93547 4.68734
1923 1 13.9511 0.181793 -10.4797 2.55019 -1.36659 -2.47626
1924 1 23.0829 -18.7996 -0.840393 -1.94377 0.0409633 -1.80215
1925 1 22.4073 -23.8689 16.7381 -0.615045 4.82911 -0.501611
1926 1 14.152 -3.91948 -6.65841 2.26393 3.06663 2.55793
1927 1 -8.55834 -19.6377 -20.6561 -1.63944 0.0863654 -1.35215
1928 1 22.5877 -3.43016 4.61523 0.51683 -5.25411 3.17469
1929 1 7.11315 19.3771 1.82013 -4.06495 -3.74743 -0.862023
1930 1 -6.81503 -13.6529 -18.9637 2.11897 1.97265 -0.378823
1931 1 -9.19605 6.24397 -1.62748 2.12574 -3.23366 -1.14155
1932 1 -2.18584 20.024 6.20021 1.26831 -3.56713 1.46151
1933 1 -2.78342 20.5213 -18.2512 7.54047 -2.16294 0.983831
1934 1 1.10943 -10.9423 -2.2753 -1.43115 3.75201 -1.36843
1935 1 17.2367 -17.8396 3.47255 -2.52517 2.60045 -3.47189
1936 1 19.5036 -22.484 19.8596 1.06627 0.507354 1.31012
1937 1 4.08435 2.8859 18.1619 -1.49032 -0.923821 0.647997
1938 1 1.9421 6.54054 17.5973 -3.39944 0.210077 -1.00285
1939 1 10.3077 11.1306 2.8383 -4.11313 -1.33788 -0.310133
1940 1 -20.3114 -24.0437 5.92358 4.8275 5.34726 1.62846
1941 1 -0.868031 -23.1144 -10.3449 3.33073 -4.86236 -1.4034
1942 1 -2.99808 9.27615 -3.12557 -3.86838 -6.56144 -0.0170528
1943 1 4.8285 19.257 -5.13693 -6.03655 2.62178 -0.0572043
1944 1 -19.7783 -24.3067 -2.37661 -4.23714 -1.98531 0.240148
1945 1 -21.2075 -18.9581 20.189 -2.27623 -2.77143 -0.736442
1946 1 7.44665 9.02974 -6.95919 -1.45664 -1.431 0.406694
1947 1 -15.6989 13.1722 -14.206 -2.55547 -0.81842 -3.12088
1948 1 14.2634 3.05351 -14.5572 2.40335 -5.56177 2.09699
1949 1 -7.36215 -7.27694 -10.9806 -3.25599 -2.98799 0.356541
1950 1 -24.3066 21.7184 -3.00513 -3.97485 -0.141304 2.06884
1951 1 -5.60092 -14.4086 12.8667 -1.56311 0.470606 1.39905
1952 1 5.79215 -16.3372 -14.2274 2.68515 3.04122 1.73681
1953 1 16.3935 -19.0504 -1.7803 -1.59442 -5.30975 4.76843
1954 1 6.12298 7.30608 10.561 -0.416358 4.37348 0.588889
1955 1 -12.8045 -18.0612 21.8124 -4.18872 -0.0830778 7.61977
1956 1 -5.78238 0.772613 3.94622 -3.04602 0.658927 -4.05405
1957 1 14.8962 16.5023 9.4141 4.15138 0.296586 0.061642
1958 1 14.5066 5.92624 16.7552 -0.0100574 3.42434 0.280738
1959 1 20.717 -6.28932 -2.0844 2.10172 -3.71068 -3.51534
1960 1 -16.7537 -6.00675 -22.2795 10.7544 -0.61973 -0.815286
1961 1 16.2688 -14.3522 -6.74956 2.10081 0.27782 -3.92101
1962 1 -1.64147 -12.5011 -4.41033 -6.54944 0.629416 4.88302
1963 1 -3.31554 16.9906 0.562998 -1.77893 5.40483 -0.945762
1964 1 20.3664 24.7155 -14.6961 -2.66996 3.8713 4.97095
1965 1 19.3509 -7.02974 19.21 -1.63337 -0.0697583 -0.303772
1966 1 -21.6523 -17.4666 -10.2668 -3.91471 -0.669911 3.1494
1967 1 -12.6562 -23.2506 17.0756 -4.06655 -2.17152 -2.77415
1968 1 -22.7357 13.4465 11.7438 -0.566022 -3.53924 3.23494
1969 1 -2.21522 -9.46858 10.3615 -1.38554 -2.63572 3.1032
1970 1 21.6442 -9.10741 -1.8862 -1.21641 4.57922 2.21879
1971 1 -23.9596 -3.91606 7.25997 0.237806 -1.12292 3.70609
1972 1 -3.02483 -7.46117 6.45472 1.37589 -2.46915 0.524707
1973 1 12.464 -16.6838 20.0102 -1.54297 -1.48296 0.00237846
1974 1 17.0306 -10.2883 11.3321 -1.56487 0.995615 1.06473
1975 1 11.0339 -20.4981 -16.5737 -2.65578 0.849259 0.461214
1976 1 20.8203 -10.7188 -22.4685 -7.14254 -1.92042 3.00998
1977 1 15.7133 -12.8878 11.9844 -1.36906 -2.47519 -3.43558
1978 1 5.29443 -1.54377 23.1948 3.47944 -3.24558 -5.13503
1979 1 -1.26978 24.5632 13.2853 -2.17478 -2.17103 1.76323
1980 1 -21.7919 7.69068 -20.087 0.682581 -0.0858083 1.36347
1981 1 16.8532 25.7518 -3.33891 -0.896531 -3.60765 -2.84125
1982 1 -20.3526 -5.95899 21.0181 2.30281 0.4399 1.17593
1983 1 16.4074 -7.03577 -5.00872 -3.12904 -0.925732 0.698645
1984 1 2.70328 21.483 20.5628 2.24712 4.65939 -4.31264
1985 1 3.44462 -22.6154 -8.60276 6.97494 -1.63527 -1.3569
1986 1 13.273 -5.43752 2.70409 2.95052 -0.868641 -4.37717
1987 1 -21.428 2.04276 9.86014 1.09836 -3.86653 -2.80077
1988 1 5.67836 19.724 9.62265 3.60763 -5.09761 -2.20119
1989 1 -12.19 -16.2987 10.0789 -2.1577 -0.441441 -2.77864
1990 1 19.6281 -16.8586 -6.73284 -0.644931 -2.71569 -1.20196
1991 1 -22.4958 46.8868 21.8181 -3.74733 1.36069 1.20522
1992 1 12.0267 21.7139 4.39893 3.03897 1.51837 2.16329
1993 1 4.13177 12.2766 -13.2257 2.21682 0.237352 -1.40676
1994 1 -23.8721 -18.279 3.94794 -1.17699 1.32747 -4.05794
1995 1 2.05519 2.43909 13.4493 -0.92299 -0.732949 0.294815
1996 1 -11.7854 8.2289 21.4457 1.22149 -3.75594 0.969969
1997 1 21.9132 21.12 7.21639 1.12101 -2.97084 -1.57061
1998 1 -14.2396 10.0848 0.0259984 3.34378 0.576189 2.24283
1999 1 -1.5638 -10.622 23.236 -1.39373 3.14817 4.40922
2000 1 5.70662 4.0703 -18.0256 2.19342 -3.29235 -2.21128
2001 1 -9.96191 -13.0494 -2.9836 -0.377001 0.135192 0.417733
2002 1 -22.159 20.7994 -7.75859 -5.99375 2.0976 0.426675
2003 1 11.2254 -4.06599 -11.0758 0.581305 -0.980347 -2.79462
2004 1 -0.592054 -23.2544 -23.181 -0.359953 -2.88853 -1.49909
2005 1 5.4849 -3.48816 17.5627 4.73557 0.309523 -1.93094
2006 1 7.30807 -12.5764 -8.15266 2.26065 -2.55201 1.95799
2007 1 -9.8221 13.2377 -11.7396 2.49723 0.319693 1.69357
2008 1 -10.489 25.5801 13.6628 0.2835 0.6608 -4.15203
2009 1 -3.57094 1.90301 -0.58922 -4.64419 -1.00065 -6.02413
2010 1 -9.0966 3.48888 22.0844 -0.299515 0.847629 -0.957194
2011 1 -1.26288 9.95043 15.8077 0.448606 1.13497 -0.485523
2012 1 16.5239 -19.4483 15.2648 4.22448 -3.01477 -3.52695
2013 1 -13.8372 23.064 4.63459 -2.93536 -2.08567 2.14104
2014 1 -10.953 -8.57112 13.0437 -1.8297 -4.17988 0.570623
2015 1 -2.47783 -6.22166 -3.42786 1.2378 -4.15687 -0.687193
2016 1 -6.29228 -17.0652 -3.65575 -3.16476 1.84593 1.17689
2017 1 12.4249 9.68454 22.2694 -9.35353 0.603619 -0.369398
2018 1 -16.6498 -1.65513 5.20286 -1.46237 -3.86481 -0.14356
2019 1 1.76527 25.9916 21.4713 -1.42516 -0.758382 0.131263
2020 1 8.46245 -14.8267 -15.2153 5.44796 -2.44284 -0.66819
2021 1 -4.87473 15.1601 13.0446 2.17285 0.247024 -0.83976
2022 1 16.0581 21.164 9.6635 -1.27014 1.01826 4.0143
2023 1 -22.3424 -11.3527 6.93173 2.86072 5.6946 -0.0203362
2024 1 9.13573 9.88975 11.8885 -0.251455 2.7895 -2.01466
2025 1 3.41657 -12.6284 -23.528 -3.1638 0.188752 -3.38223
2026 1 6.15851 22.0166 11.8054 0.924856 1.08963 -2.09334
2027 1 6.06178 15.6634 -11.0651 -3.4318 1.37794 -0.224624
2028 1 1.59507 -2.71744 -19.3401 -0.576336 -3.07946 4.25738
2029 1 15.5122 -9.63651 -4.24594 0.903675 3.15616 1.26259
2030 1 10.7859 -17.7124 -21.609 0.472175 2.4817 1.13856
2031 1 -5.05555 -20.0271 -10.3939 2.61446 2.1212 6.31082
2032 1 -9.42414 3.42241 5.80436 -5.61864 2.93712 -0.0811695
2033 1 8.25116 17.2795 0.567182 0.33131 -5.20408 -0.424355
2034 1 -9.02599 -0.392875 -17.4419 -1.9698 0.111125 -0.921492
2035 1 15.9804 -18.2796 -23.9454 3.30046 -2.67389 -2.80152
2036 1 -14.0438 8.14208 23.165 0.50749 3.23477 -2.16995
2037 1 -15.3377 9.23642 9.02218 -1.65271 4.89571 3.77974
2038 1 21.4885 -0.473978 10.8025 -1.33223 0.980924 -0.753322
2039 1 8.60987 -21.9499 -22.4948 -0.426292 -2.74668 0.946174
2040 1 -5.78238 -23.3508 -5.37607 -1.70017 -2.20502 -9.75585
2041 1 -15.653 -14.7763 21.0232 0.164916 0.128682 1.65723
2042 1 6.76315 -21.6402 22.1045 -0.879358 -0.0286261 -1.50285
2043 1 19.8016 11.6793 14.4501 4.45463 3.75205 -4.36886
2044 1 4.43208 -6.68245 0.935804 2.52257 0.760049 -4.97428
2045 1 4.58153 -17.6131 -16.7353 -2.27041 -2.92036 3.37971
2046 1 -7.6597 17.9126 18.6095 1.93522 1.43011 -1.85152
2047 1 -5.9021 -14.5601 6.37738 1.0756 3.01747 -1.72813
2048 1 2.63559 15.0123 -17.1314 -0.993313 -0.936541 -3.23478
2049 1 16.0622 20.6043 -19.8702 -1.63847 2.75417 -4.52678
2050 1 -10.9496 8.00263 -9.29894 -1.9151 -0.00409478 -3.28529
2051 1 -20.8515 9.05681 -6.87291 2.56184 3.12662 4.08276
2052 1 -9.57511 4.40883 -23.1874 3.46628 -1.25074 4.59498
2053 1 -23.1886 15.4217 -17.8096 3.75329 -1.73917 -0.859176
2054 1 14.3895 5.7562 0.115241 -0.203241 0.0414137 1.93167
2055 1 3.41162 16.6249 7.589 -3.51968 -0.264933 0.142927
2056 1 -4.91811 24.6938 23.2867 0.299328 -1.41546 -0.458312
2057 1 15.6701 -3.77303 8.03068 -1.64415 1.09893 -0.187656
2058 1 21.1889 8.42919 -12.0673 -2.06279 0.0406502 -0.316611
2059 1 6.1886 -10.6471 20.793 -0.920191 2.34558 -1.67684
2060 1 -6.95184 -2.52327 -3.27471 3.32696 4.25577 -3.02221
2061 1 -15.7039 45.5469 -22.6739 -0.985143 -3.44143 1.97978
2062 1 -19.4161 19.5063 -8.27611 0.0237604 -0.951108 1.54745
2063 1 -11.4109 -8.53926 -20.2669 -1.84239 -0.575884 0.840733
2064 1 -14.9491 -17.1218 10.5344 -3.66951 -4.93921 7.22072
2065 1 14.092 -20.1758 -23.4456 4.1982 1.80005 -2.11302
2066 1 18.6102 4.34067 10.8625 4.89054 1.14416 -3.27009
2067 1 23.0182 8.48785 21.087 -5.25315 1.95087 1.2594
2068 1 -14.9699 7.29568 -3.83434 -0.792828 1.50306 1.10297
2069 1 20.8153 -23.7984 -12.8234 -1.32073 2.78252 1.37256
2070 1 22.5381 1.71187 -1.44943 -2.00259 4.50056 -2.42874
2071 1 23.575 -16.2269 22.9684 2.17211 1.75897 -3.25403
2072 1 -18.8597 5.62642 20.5747 -3.94233 -4.53952 3.44953
2073 1 -16.3815 7.07914 -14.428 1.18447 -1.59758 2.2669
2074 1 2.09487 10.9897 -10.6591 1.5398 -4.2802 1.74022
2075 1 -7.68104 -15.326 22.2662 2.24697 -1.41817 -0.562926
2076 1 -12.5884 23.7542 -8.44536 1.55728 -4.95569 1.67715
2077 1 -18.8642 -3.40039 3.73066 -2.77534 -2.7367 1.01174
2078 1 -14.4085 0.94276 -22.6637 -6.08823 -1.5157 1.35624
2079 1 6.29586 -16.2069 -19.7592 7.08284 -2.2557 0.745643
2080 1 22.0507 -24.0242 -17.5127 -0.575946 1.9628 2.11991
2081 1 23.3327 19.0984 -11.7248 -1.81077 1.44923 -2.20318
2082 1 -8.37409 20.2244 4.37477 -0.99082 4.40496 0.164177
2083 1 19.2545 10.1879 -8.89255 -3.9183 -1.51696 0.845962
2084 1 13.2898 17.8049 19.3107 6.58803 4.05149 2.33266
2085 1 -21.6757 -21.5209 -8.66497 1.88477 -3.09799 0.598517
2086 1 -10.4355 -13.8597 5.36681 1.64209 0.409747 -5.60725
2087 1 -10.1552 7.09074 -19.8964 -1.26718 3.00672 -2.97834
2088 1 6.98052 20.7876 21.246 4.09516 -3.22089 1.37111
2089 1 9.64609 14.4583 -18.3 0.627854 -4.77691 6.78464
2090 1 13.7286 8.0918 18.4611 -3.91684 -0.143761 -0.728014
2091 1 -7.94906 10.27 11.7216 3.26816 -1.58154 -3.26355
2092 1 -18.0867 24.5287 -22.6791 -0.193431 -3.21882 -0.182745
2093 1 -4.79704 11.8261 -3.38774 0.278711 4.34567 0.251935
2094 1 21.5277 13.9027 -2.2112 -1.83925 -0.997818 -5.74386
2095 1 -22.2939 -7.93116 3.85802 0.481065 0.0799116 -9.56816
2096 1 9.39962 -4.68747 0.526343 -1.92205 -5.49966 -2.50482
2097 1 -3.74079 8.3847 9.37746 0.0624556 1.00309 -4.49943
2098 1 -18.3781 -17.2609 -4.33874 1.92991 -4.17194 -5.81705
2099 1 14.3164 -9.98299 6.24309 2.83814 -1.81212 2.30687
2100 1 -1.4487 -3.01341 21.5876 1.03602 2.89091 -2.26585
2101 1 -21.8826 -8.82518 18.9964 -4.95474 -0.295851 -0.583529
2102 1 5.51618 6.26844 -8.80994 2.77268 2.62954 1.25968
2103 1 10.67 -16.6073 -14.4246 -2.07341 4.14824 1.902
2104 1 -21.1684 -3.60847 19.5907 -0.528403 -0.923264 2.13084
2105 1 13.3837 8.8758 -11.2363 -2.32351 -1.85779 -0.480543
2106 1 -19.7557 -17.9704 -20.7375 3.04586 0.714406 -6.82637
2107 1 -8.13912 6.02524 -15.1854 -2.46433 2.00664 -0.813105
2108 1 -10.8851 13.131 1.04986 -0.450919 1.24906 -5.56348
2109 1 -5.55675 10.6776 20.5655 1.43235 0.200354 -0.816478
2110 1 2.49174 9.64959 3.66271 -0.0281838 -1.0206 -5.06394
2111 1 21.7743 -11.5556 20.9203 6.39756 -0.0731547 -2.90892
2112 1 -7.77068 4.47816 9.6805 1.81228 1.72801 -0.809927
2113 1 -17.4965 -3.68339 21.1538 -1.662 -2.46849 1.76063
2114 1 -1.45431 -22.6943 20.9359 0.89625 2.42144 -2.85615
2115 1 15.713 -14.1734 -10.6493 -0.679452 -1.90059 -0.850664
2116 1 18.8201 -3.70793 5.13735 -2.38855 3.28693 0.127995
2117 1 23.026 22.2433 4.74578 -6.30761 1.9683 2.0322
2118 1 -10.2297 -0.0896628 -4.00384 3.26109 -5.44895 0.363295
2119 1 -9.91806 17.7026 4.77452 1.53921 1.39371 3.19092
2120 1 15.1618 -17.804 13.0061 0.761733 -1.61643 -1.29497
2121 1 9.28516 -20.546 23.3268 -1.6283 0.870301 5.11315
2122 1 10.8896 7.63337 -10.3931 0.836852 -0.771517 1.72519
2123 1 21.4069 -8.84461 -17.5834 -3.17473 5.06695 -2.09584
2124 1 22.3074 0.212654 -17.8897 3.09377 3.56902 2.93117
2125 1 -1.63556 -14.7822 15.7513 0.43224 -6.16801 -4.09625
2126 1 13.9177 -8.18524 -6.19142 1.59272 -2.32898 1.22674
2127 1 22.671 -8.41634 -20.2271 -1.15203 -5.07129 1.79825
2128 1 -18.796 -20.5533 -1.18537 0.731928 5.3231 -2.01974
2129 1 -13.2059 -22.8481 13.5251 2.64271 -4.4312 -0.942789
2130 1 -23.9762 11.3433 -9.0209 -0.434652 0.563517 -1.49895
2131 1 17.9 -7.3856 -2.38165 -1.78087 1.71222 3.48506
2132 1 12.0285 -21.7611 23.9075 -0.00378742 -1.78709 1.72934
2133 1 -14.3985 -12.7814 6.44399 1.85707 -0.527039 -1.94248
2134 1 9.72991 19.7801 7.66187 -4.43459 -3.26553 1.24266
2135 1 18.5375 10.0224 23.0568 -2.19283 0.44812 0.27478
2136 1 -4.08426 -21.8793 3.52359 -1.96734 3.06035 1.7711
2137 1 16.0743 17.2333 -23.5698 -4.40222 0.115774 0.264795
2138 1 17.5682 24.1449 -15.0955 3.94631 1.28316 -1.19386
2139 1 -9.53125 4.40943 -19.1235 -0.354711 -4.07066 -0.909385
2140 1 11.0511 -15.1286 17.6503 -1.44513 5.41286 1.312
2141 1 -21.9882 -23.4071 1.13541 4.95051 3.45466 -5.86583
2142 1 -15.8559 -11.5375 15.7218 -3.0915 -2.83295 0.188677
2143 1 18.7213 4.49252 -14.0291 1.45206 4.46134 1.69636
2144 1 5.44778 -0.797857 4.61918 -2.90295 6.63252 -1.33052
2145 1 -23.1131 13.0991 22.79 -1.03002 1.9155 2.73613
2146 1 1.68158 9.53713 18.1203 3.13363 0.548229 6.22689
2147 1 3.65856 6.14718 15.2948 1.36375 -0.0739804 5.86962
2148 1 12.1337 -24.4802 19.0015 -0.523973 -4.17975 1.75216
2149 1 20.4104 -5.35902 -4.89656 0.139085 -0.29392 -1.94445
2150 1 16.8645 -8.87601 -0.00464667 0.391366 -0.73718 -0.327935
2151 1 8.31106 4.56343 -10.295 2.86209 -1.23925 4.76613
2152 1 8.96717 21.8516 -3.88176 1.44461 -4.83565 3.37037
2153 1 -8.61052 -11.4687 -0.840676 -0.35647 -1.99772 3.61029
2154 1 -11.6295 19.2055 -21.997 -3.54365 1.06278 -3.60186
2155 1 15.0572 4.90982 20.7394 -0.88097 -1.11514 0.228592
2156 1 -20.8558 17.1149 -7.5311 -4.18798 -0.457128 -3.18743
2157 1 -2.35238 17.7698 21.765 0.263873 -1.13821 3.0101
2158 1 -17.0551 12.8002 15.5653 4.14625 7.01643 -4.24699
2159 1 2.77425 -20.4489 11.928 2.8785 -1.61162 -3.08925
2160 1 -19.6856 -1.63812 21.0185 -2.85894 -2.22432 -1.29729
2161 1 -1.4029 10.0917 -5.12835 0.779696 1.75661 5.04491
2162 1 19.9588 11.6886 -3.33439 1.8283 4.0018 -5.3895
2163 1 6.13176 -5.92869 14.2155 0.810428 -0.132397 -2.1471
2164 1 18.8365 -0.244527 -9.93355 -2.36207 4.22094 -0.0907978
2165 1 17.532 21.2321 -15.6152 3.05398 9.24082 1.91877
2166 1 -14.7327 19.1003 -15.0377 -1.2458 -4.89362 -0.1223
2167 1 -14.8281 -10.9275 -17.1093 4.60682 -3.97926 -0.305227
2168 1 -20.0462 18.4933 3.10777 0.712401 -0.169097 0.664412
2169 1 11.4965 -5.93948 -19.954 2.51444 -2.02699 0.493255
2170 1 -8.32758 -15.7138 -0.293574 2.62276 1.7036 -0.964785
2171 1 -2.78405 4.50188 3.11771 -0.607319 4.95566 -2.16155
2172 1 0.289364 19.2611 -4.0789 3.32222 0.834604 -1.9161
2173 1 21.0645 0.513236 -15.0031 -6.112 -0.766961 -4.0794
2174 1 4.57681 10.2016 -3.20797 1.23374 1.98173 3.18611
2175 1 10.8725 -23.0205 12.0078 -5.49286 0.898616 3.81052
2176 1 9.11966 -18.0913 15.2804 -1.63962 -3.60994 0.0614331
2177 1 19.1007 16.4041 17.1799 4.81472 1.54858 0.654254
2178 1 16.8948 -18.2299 -7.41768 -6.01278 -2.77092 5.16173
2179 1 10.8344 -3.75961 6.73335 1.99215 2.30723 3.49193
2180 1 9.80229 -6.56626 -12.1156 0.898928 -1.14763 -6.30351
2181 1 -15.8136 -21.9044 19.8388 4.07289 0.890862 1.93235
2182 1 -2.72893 1.3216 11.2539 -0.481523 1.07206 -0.293575
2183 1 4.9542 -3.66325 10.4278 0.595628 1.50939 -0.935645
2184 1 15.4108 16.334 -18.9203 3.5645 3.24187 1.25801
2185 1 7.59668 7.542 19.8249 4.03769 4.17392 -1.03793
2186 1 3.81848 -10.0938 -16.0317 -1.89462 -0.222256 -3.5359
2187 1 14.4397 -5.72939 9.93899 1.46468 -3.74169 1.60185
2188 1 -10.2473 3.44905 8.70146 0.531772 -0.225011 1.20969
2189 1 2.01047 17.2034 -9.50862 -2.38564 -0.502007 -2.11464
2190 1 -1.44769 3.51217 -11.8058 3.81045 -2.37542 -1.45642
2191 1 11.9859 9.9907 4.94327 5.27087 0.392772 -0.732156
2192 1 0.352544 2.35203 -23.4284 3.09688 -1.74162 0.49638
2193 1 14.2471 -15.6795 -15.9733 -1.18362 3.78031 3.16449
2194 1 -20.1275 3.88319 22.5846 0.456793 -1.46289 -3.62545
2195 1 -10.6304 -17.9169 -10.5848 -3.62404 1.09037 0.508201
2196 1 -4.477 5.94883 -11.6231 1.53203 2.61898 -0.641845
2197 1 14.8879 22.9693 18.9945 -4.15991 -3.56579 1.21142
2198 1 4.12487 13.4829 -3.14203 -0.140085 0.0189312 0.987651
2199 1 -18.0075 11.0103 -0.127456 -1.36196 -0.530797 -4.17339
2200 1 -3.69016 -22.9773 -0.36593 6.87317 -1.19846 -2.89636
2201 1 17.4647 -12.3349 -20.2705 0.627249 2.7199 0.908125
2202 1 18.5274 -20.791 -17.1904 0.492426 -1.76403 0.230167
2203 1 9.2281 2.2222 -3.85713 7.1456 -2.24851 -6.20174
2204 1 5.35798 3.50146 -2.0328 1.52553 2.28463 1.39881
2205 1 -22.8758 8.44127 -16.315 1.62259 -8.58592 3.65735
2206 1 -2.88652 -7.82571 -14.9588 1.22424 2.30059 -0.509104
2207 1 23.6127 -5.39956 -1.79846 8.82876 -4.04667 3.77878
2208 1 17.4139 21.423 -5.84093 0.12843 -2.11511 0.402306
2209 1 -24.0128 23.0419 21.9915 -5.54998 3.99323 -1.48256
2210 1 20.9614 -16.8839 -0.879631 5.05303 0.801783 6.74869
2211 1 -17.5817 6.43068 -20.1072 4.50679 -4.3908 -0.450647
2212 1 -17.4404 -5.23248 -5.59346 1.28669 -0.252819 -1.0152
2213 1 19.3859 8.01957 -5.1398 0.261849 -2.82308 -3.99452
2214 1 9.60448 9.49514 21.0319 -0.224706 -3.30721 1.25332
2215 1 9.14401 18.3798 -2.07474 1.41921 0.697066 -4.35402
2216 1 3.08362 -2.26593 -12.7009 2.11047 0.973707 1.86947
2217 1 12.946 -14.369 21.4993 -0.130131 -3.64221 -2.2126
2218 1 -17.1617 -6.42296 20.3499 -4.24984 -1.62675 3.50523
2219 1 -10.1714 -24.1319 16.1492 -0.253878 0.309723 -0.0868611
2220 1 0.477056 16.0637 -13.4998 2.15031 -1.49604 4.57986
2221 1 18.8054 5.22718 18.7138 5.84074 1.95144 -2.84915
2222 1 2.37796 6.96894 4.13297 1.65099 6.36055 -1.72779
2223 1 -20.5838 12.6165 -21.6238 -0.218603 0.295128 2.78273
2224 1 -15.0147 14.5874 -4.29485 -0.981417 2.1018 4.47963
2225 1 1.16744 -17.8256 -23.7183 -4.79976 4.91574 -3.05416
2226 1 20.3647 0.579807 16.8989 -1.579 0.417533 0.524593
2227 1 9.95721 2.7417 -6.77395 5.81171 1.20542 3.1938
2228 1 -7.8307 -5.26712 23.9104 3.93271 2.19314 2.60873
2229 1 17.2476 7.00409 16.9598 -3.1603 3.77055 1.70783
2230 1 1.62444 21.8554 -4.93097 -3.7561 2.22818 -0.411634
2231 1 -13.3883 23.0345 9.51213 -2.12802 1.86226 -2.30545
2232 1 -21.941 24.1759 -15.563 4.34613 0.474598 -8.38584
2233 1 -11.8005 2.61194 -19.4514 -0.474072 4.27091 1.44229
2234 1 -4.84638 -0.0132557 -2.04951 -5.22302 -1.1514 2.59937
2235 1 8.11774 -22.9756 11.9036 -0.656741 -0.154894 -4.01171
2236 1 21.6332 4.16044 -18.0099 -5.33777 -1.99013 -4.7959
2237 1 -0.463543 -21.8265 -20.6169 0.218654 2.3779 -1.29889
2238 1 15.2789 14.1884 -14.985 -4.54706 -3.81896 3.64125
2239 1 -13.6504 -10.824 22.5876 0.930161 1.80291 -1.75015
2240 1 13.8406 16.6469 15.4061 -3.47103 -0.151632 -1.13105
2241 1 -22.6446 -1.69086 -16.7758 -2.10973 -0.959627 0.063277
2242 1 -13.7155 -13.8569 23.3702 -4.12032 -1.80186 7.28352
2243 1 9.15799 23.3046 -10.556 1.07288 0.236973 -3.9595
2244 1 -24.2099 21.6798 -13.0136 -3.53654 -5.99008 -0.687037
2245 1 21.1233 -18.4946 10.1678 0.823987 -1.35784 1.70505
2246 1 1.20101 18.6184 -14.7048 -2.86156 0.976198 -1.46722
2247 1 -24.1784 -13.0163 10.3051 -4.12773 4.81294 1.68986
2248 1 -2.96282 -5.78509 -12.7185 3.65621 -6.44655 1.88683
2249 1 -14.5978 12.1264 -16.7265 -2.93591 0.0695269 1.43694
2250 1 1.40015 -1.512 6.88732 1.22277 0.461992 -0.361143
2251 1 -11.3123 -7.54236 -12.406 0.391693 -1.37963 2.91025
2252 1 23.2977 -12.8785 -1.20642 -0.312228 3.63416 4.31392
2253 1 3.83754 -16.838 -4.9795 -3.62114 3.59144 2.74877
2254 1 5.63573 18.3416 13.8883 -2.57386 -0.488415 2.81248
2255 1 3.97196 -2.63802 -17.6046 -3.61527 -2.96658 -2.45381
2256 1 13.813 20.0109 -21.7283 1.17752 -1.73821 -0.641145
2257 1 -1.29367 3.52262 -7.49434 0.302955 0.422252 2.56931
2258 1 -11.4714 16.3813 -22.3685 2.83325 -1.12112 0.772184
2259 1 -20.4315 -10.0319 22.9009 -1.07907 0.90318 5.03178
2260 1 21.017 17.9168 -16.1632 -1.36969 -3.50616 -3.27102
2261 1 14.7172 -5.32026 -9.24657 -3.39866 -8.22089 0.394308
2262 1 18.7264 -23.8852 -1.80021 -6.81823 -0.180328 -1.84187
2263 1 0.179159 -14.3085 -3.34277 1.55591 2.69062 0.952423
2264 1 -5.8636 18.5496 3.75427 1.32949 4.36227 -0.813244
2265 1 -1.03321 1.53076 17.7581 0.147681 -1.53656 -2.18532
2266 1 -23.7658 9.4755 11.5435 -0.691587 -4.83909 -1.66058
2267 1 -11.0451 -15.2154 -1.02722 1.12432 -2.52558 -0.331165
2268 1 14.4908 -0.925372 -6.63809 4.53312 -4.84871 2.49824
2269 1 16.9245 8.93218 -20.2123 -2.54754 6.01803 1.40896
2270 1 -7.87868 19.2176 1.38475 -2.26091 -1.83137 -1.42717
2271 1 21.261 -18.5518 -7.92506 1.43351 1.36624 -0.112879
2272 1 -0.767994 12.6827 13.1933 1.17942 -4.39707 0.886715
2273 1 -22.3022 -20.2122 15.8808 4.4752 -4.32522 1.6965
2274 1 -6.32021 -0.139776 17.6606 2.66631 2.99215 2.11328
2275 1 -11.8665 25.1953 -14.0322 -2.53049 -1.23967 -1.67633
2276 1 -1.67308 11.1514 2.95507 -0.108817 -0.402984 1.28469
2277 1 -12.9724 4.56021 19.5823 1.4452 -0.326712 0.879618
2278 1 -14.5372 -12.8883 -5.11901 2.85664 -1.85548 5.06768
2279 1 -13.0501 1.15392 6.34186 1.67863 1.56377 -1.53887
2280 1 9.81203 -12.6558 -4.63249 2.21026 -0.880254 -0.906439
2281 1 18.8086 12.124 21.1994 -0.710461 0.467293 3.19862
2282 1 -6.58751 24.1442 7.07284 0.348783 -1.06168 5.31666
2283 1 20.5152 -11.7588 7.41982 1.85081 -1.10665 -7.11912
2284 1 -20.844 25.3901 -22.5284 0.388342 0.55295 -3.01419
2285 1 -23.9766 17.6894 2.09786 -3.07884 3.31948 -2.86637
2286 1 5.01875 -10.2909 5.34654 5.06978 0.0993582 1.09559
2287 1 21.5647 16.0952 15.3517 -2.13008 -6.58301 -3.54899
2288 1 22.0968 -9.5189 -5.78963 0.666307 -1.18701 -1.39022
2289 1 -3.66145 13.8432 -22.0382 -1.04607 -1.78819 -0.527949
2290 1 15.3211 -7.74168 22.193 0.23887 -2.19567 2.06384
2291 1 -0.0176046 20.4726 20.0036 0.584303 6.74546 -3.78882
2292 1 -13.3597 -11.0701 -3.17108 2.15723 3.87075 -0.0243314
2293 1 3.27349 6.84978 11.6761 1.39001 -1.04659 2.68467
2294 1 -18.6449 9.24767 -18.0523 -3.46249 3.55874 0.398858
2295 1 -14.4075 12.4012 21.2661 0.726512 -0.758504 1.86173
2296 1 -21.4185 -8.56467 -15.892 4.31418 1.36222 -4.58977
2297 1 9.89152 7.03477 -20.9242 -2.10713 4.34446 -4.30289
2298 1 -2.57084 -20.6409 -5.99081 0.870876 1.44934 -0.0220714
2299 1 7.08536 -12.5219 -3.51878 -0.547697 3.63251 -2.90808
2300 1 6.54364 13.3024 2.90983 -0.230618 -3.02281 2.34106
2301 1 5.33891 -24.2687 21.7276 4.30827 -2.08641 -3.74415
2302 1 15.7157 11.1567 -15.642 -0.28467 2.76498 -0.817226
2303 1 -11.1345 18.6498 -12.8053 -0.603263 4.20454 5.5333
2304 1 6.17833 17.028 10.976 0.0888942 -2.7492 3.21891
2305 1 -15.0343 16.8562 15.2273 1.21252 1.70506 1.95896
2306 1 3.76386 -2.21028 20.6012 -1.08971 -0.0881571 -4.15726
2307 1 -16.154 14.4753 22.8067 -2.88921 5.70671 -3.41654
2308 1 8.49856 2.82223 -17.7527 2.12403 -2.73107 2.26689
2309 1 20.2747 17.6494 21.4638 4.21451 2.12343 -0.0438809
2310 1 6.43474 -16.4877 8.14488 1.44062 -2.64885 -1.36673
2311 1 6.45049 2.09787 1.8742 2.44374 4.81076 4.23697
2312 1 -21.088 -22.5045 8.37284 -1.90972 -0.907672 1.95042
2313 1 -7.91811 14.0958 -19.856 1.62394 -5.90235 -2.02821
2314 1 -17.5648 6.85294 8.74547 -1.95523 1.85301 -4.08889
2315 1 -12.2229 11.5834 15.5678 0.176435 -4.87975 -3.71891
2316 1 -17.7622 -11.1108 2.19255 4.5907 -0.186964 7.32364
2317 1 -3.71076 -12.6957 -9.69387 1.41088 -5.44387 1.58273
2318 1 18.9697 -7.61448 -6.17753 5.09485 -0.487506 -1.05334
2319 1 7.07753 -10.1338 9.08273 -0.233849 2.73015 1.41798
2320 1 -23.9813 2.46354 -18.8823 -3.32198 2.69779 2.48373
2321 1 -2.24328 24.82 -23.9137 -1.19498 -0.926228 0.00583345
2322 1 -4.42771 21.8842 19.9648 4.2117 -1.16633 6.75499
2323 1 7.0965 -3.51336 -3.41115 6.77299 2.68975 -0.860081
2324 1 9.06219 -18.5214 -17.0573 3.59856 0.509173 -0.565689
2325 1 14.8363 -22.9135 -17.0336 -0.486035 -0.847063 1.7849
2326 1 20.9105 -11.3103 -12.3766 2.24258 4.69439 -1.0384
2327 1 11.4776 -0.20002 -16.6622 -4.30509 -0.733294 -0.332045
2328 1 -8.58366 -8.00396 -3.42128 -6.20135 -2.61973 1.83684
2329 1 7.67183 6.02168 12.6163 2.64133 -1.31035 -3.28914
2330 1 13.3238 -22.8193 17.0838 -4.67664 -1.22084 -0.907431
2331 1 -17.6741 -15.9982 12.9056 1.45733 -3.48058 -2.30135
2332 1 18.5401 -17.7928 11.8132 1.85252 1.19753 -0.952979
2333 1 12.2835 -19.0701 -14.6517 -2.32479 5.17722 2.39075
2334 1 -11.7652 20.4079 14.7952 1.8517 -2.27922 -2.8247
2335 1 -4.1387 18.9913 23.6267 0.532341 0.482648 3.46026
2336 1 16.0711 -10.6679 -18.237 5.31857 6.42351 -1.33884
2337 1 9.73224 7.19617 1.05697 1.8271 -2.55626 0.242497
2338 1 2.47876 -3.27314 -23.9386 -9.56859 -3.04336 1.76827
2339 1 10.9763 9.90432 -4.09993 1.40757 -2.25544 -4.07537
2340 1 8.28321 9.2941 15.2318 3.68052 -0.853026 -2.55879
2341 1 7.37487 -19.5966 -21.4264 2.03898 3.21061 3.94736
2342 1 10.4663 -13.3392 0.721755 -0.574201 -3.90947 -2.30396
2343 1 8.85355 21.4571 2.67834 -4.21126 3.01555 1.60928
2344 1 13.4937 24.2042 5.32488 -8.13246 -1.67988 -2.33249
2345 1 7.1362 14.9758 -14.878 0.161465 -2.41556 3.96896
2346 1 -4.08569 -20.4694 8.28846 -0.189983 1.044 2.18622
2347 1 -13.0956 10.1 -15.1141 -2.69836 -0.251045 -0.561119
2348 1 9.02591 -2.54108 2.55661 -0.354444 -3.03527 -1.12335
2349 1 -9.95196 23.2248 16.6526 -0.862095 3.03539 -0.564869
2350 1 14.9722 7.06688 -9.31241 -0.486329 -1.96613 0.511761
2351 1 17.3625 10.546 -13.2744 1.7593 -3.35251 -0.559981
2352 1 -0.353852 19.9491 -21.7096 -4.19978 -0.851289 -1.20862
2353 1 13.2034 -1.66004 6.08375 -3.53958 -0.644039 1.26245
2354 1 18.7438 -18.3094 -22.3842 1.68989 3.83626 -2.49446
2355 1 -6.88632 3.43183 1.36463 -3.65501 -0.713581 -3.56195
2356 1 15.5757 -23.4366 -9.60958 -1.65452 -2.15211 -2.25369
2357 1 0.134019 -3.82582 1.21335 0.957 -1.05002 -4.56816
2358 1 2.47365 -10.8755 -12.1848 0.0862769 3.14034 3.39083
2359 1 8.93236 9.81466 8.82785 1.01658 -0.950795 4.60116
2360 1 11.8063 17.5557 1.94437 -0.728802 1.35278 -0.844686
2361 1 -22.0166 8.97671 -12.8131 2.33428 2.49258 -3.45301
2362 1 -21.9257 11.1879 13.1699 0.898323 -0.836696 1.20786
2363 1 17.4025 -10.6123 -2.22568 -3.7822 -7.48222 4.25999
2364 1 5.12457 0.533893 -1.74692 1.12269 -1.41597 1.40803
2365 1 -24.2377 -9.72035 -3.35617 -0.608032 0.0770134 1.91232
2366 1 11.688 5.19443 1.2336 2.33736 -0.599498 1.06547
2367 1 3.84626 19.7866 12.0549 3.52192 -4.76613 1.30477
2368 1 -8.03253 -19.4514 -7.87175 -2.5255 1.51706 2.52172
2369 1 17.4375 3.15004 17.2179 6.17279 -1.39185 -1.66855
2370 1 -20.6497 -9.68756 -5.1539 0.59415 -5.07808 -0.910362
2371 1 15.5441 -20.441 0.835061 -0.946097 -4.06578 -2.50329
2372 1 22.6438 5.61637 -0.614877 -5.75741 2.34314 3.51808
2373 1 11.2569 11.2879 17.8009 -0.522581 2.76663 -1.71984
2374 1 -5.12079 6.86705 -1.63311 2.66605 1.58494 5.32909
2375 1 10.0336 22.9222 14.0183 -0.742633 3.90283 -6.34344
2376 1 -14.985 0.120874 22.7174 0.646746 -4.53755 2.45408
2377 1 -3.83841 -9.08139 -5.60952 3.99832 -0.882118 3.31335
2378 1 5.65906 -0.734061 18.8406 1.34091 0.920399 -1.12391
2379 1 -23.4047 13.2604 8.75575 -4.75145 2.3172 -4.86927
2380 1 10.6832 -14.7557 23.613 4.38965 -1.62967 1.36804
2381 1 12.2642 -11.3828 -3.65438 0.132165 -3.99082 0.65881
2382 1 -15.4609 16.8535 -16.8061 -1.31299 -0.132877 -5.82564
2383 1 23.4638 -19.1476 6.61801 3.7406 -6.31976 -1.45959
2384 1 7.84922 -13.5974 -23.9434 0.00974709 1.40911 -5.84921
2385 1 -1.42449 8.64657 -0.725383 -0.933606 -1.70521 -0.636368
2386 1 3.11516 -4.04292 7.37898 -0.606639 5.72708 1.86329
2387 1 -14.424 -6.8939 10.0408 -1.96386 1.10479 3.90592
2388 1 8.87444 24.1524 21.1586 0.292363 3.8031 0.815977
2389 1 6.83956 -8.75863 13.3562 -1.05059 -4.50388 3.95773
2390 1 -21.3772 -7.493 -7.13866 -3.2547 2.42228 0.32476
2391 1 -6.75771 -3.91103 6.28418 1.03422 -2.75881 5.97057
2392 1 7.59864 -20.9985 -10.5532 -3.42451 -3.61239 -3.97268
2393 1 4.60106 -17.1898 21.3295 3.70985 -1.42336 0.787035
2394 1 15.683 15.1416 -4.98818 -2.75422 2.33255 0.185186
2395 1 3.90224 19.043 19.6344 2.23666 -3.18806 -0.860139
2396 1 -15.9848 -20.5579 -0.858634 1.12951 -1.44256 -5.5995
2397 1 -15.421 -8.17446 18.8734 -5.47327 0.835569 0.30875
2398 1 -8.18764 -2.75182 11.7145 -4.45992 -0.0469184 -1.55406
2399 1 -12.6437 -10.3939 9.03887 -0.786678 0.631271 -0.824354
2400 1 12.8428 -7.68578 16.0191 -2.25636 2.44427 -3.63631
2401 1 -19.0211 20.1158 -3.747 8.29882 4.60435 2.77141
2402 1 15.2187 13.2607 -19.4238 2.01968 -0.0868409 -1.90762
2403 1 -10.864 -0.978069 23.2343 0.757689 1.22619 0.413261
2404 1 -21.5783 -5.56884 -21.3867 -3.76571 -0.858868 -1.68643
2405 1 -4.0693 -9.7552 -21.4519 -1.72625 -3.42506 1.56438
2406 1 22.3891 6.89904 -10.2583 0.509285 0.697916 -4.52969
2407 1 -13.9005 -12.6794 14.025 1.52817 -2.09254 -2.15653
2408 1 -21.8881 -4.60081 -12.8297 -0.872621 -0.507488 -1.79341
2409 1 6.47623 10.3142 12.8795 -1.93395 4.63464 0.355378
2410 1 6.58645 -23.5571 -23.5918 4.71363 3.67451 0.948129
2411 1 9.25458 11.4909 -17.9123 1.20422 -0.762148 -1.3845
2412 1 8.20925 17.6706 18.146 2.07057 3.52831 -2.21838
2413 1 -6.81079 22.7183 4.73518 -1.66622 -4.79152 2.00195
2414 1 10.9557 -7.70578 -7.72012 -11.5848 -0.219193 2.16917
2415 1 22.5114 -22.8285 23.5397 5.58413 -2.72812 0.431893
2416 1 6.3509 13.1038 5.92703 6.57892 2.76091 1.0179
2417 1 -4.53771 -4.89518 0.585853 4.6215 -0.222709 -3.27608
2418 1 15.1892 1.88119 -7.31058 -1.54559 1.03179 -3.61336
2419 1 22.721 6.98968 -16.9949 -4.59645 -0.940547 1.40294
2420 1 -2.99615 -7.70753 -8.01052 0.947483 -3.20692 1.98368
2421 1 -22.3851 15.6971 -9.3182 1.5353 2.01559 1.8222
2422 1 -14.8923 2.99376 14.7571 -1.05309 4.41341 1.31922
2423 1 12.719 20.1303 6.95882 1.69406 0.908478 -1.88254
2424 1 23.4218 14.9143 6.70954 -4.21764 4.52858 1.6182
2425 1 -15.1284 10.783 -24.0277 6.75755 1.17388 0.452793
2426 1 -0.694168 16.1638 20.1571 1.98245 -0.881802 -1.18299
2427 1 14.7122 1.73856 4.51272 2.75269 2.36722 1.74425
2428 1 14.2862 -15.6471 14.6646 0.499829 -2.6299 0.0865392
2429 1 -9.08954 -7.13554 -14.3367 -2.46925 -3.66459 4.29717
2430 1 -13.6701 -7.97864 14.4651 -2.70942 1.13013 -1.62516
2431 1 -18.6641 17.1248 -9.64726 -0.415314 1.37602 -0.713577
2432 1 19.1045 15.2778 -17.3197 -0.96679 -3.45803 -1.10313
2433 1 21.176 47.0058 19.0658 -0.372399 1.13123 -1.26149
2434 1 1.03219 -21.9012 -0.462827 3.777 2.5685 1.44323
2435 1 -14.5057 23.0494 12.0923 -2.2013 1.97644 -2.65416
2436 1 -6.10618 10.3692 17.5551 5.40786 -2.38566 -1.6067
2437 1 -11.6751 -6.51612 7.58613 6.99209 1.20953 1.42706
2438 1 -2.99319 47.3933 -23.313 -3.81394 5.03621 -6.18248
2439 1 -15.5194 18.8391 11.6927 2.462 1.39972 1.42324
2440 1 6.46086 -2.35917 -16.2137 3.69177 4.87715 -0.628683
2441 1 -24.0986 14.702 20.4731 1.98306 4.40956 -3.15222
2442 1 -1.43155 -9.21045 -20.3358 3.83279 -0.367575 1.14954
2443 1 8.18868 11.021 -20.6493 1.95202 1.65072 -0.470158
2444 1 10.0221 20.6487 18.6669 5.20542 -0.176166 -3.82782
2445 1 3.7741 3.83939 21.2817 -3.65249 1.26361 1.82215
2446 1 -3.0628 -6.3467 15.5462 -2.22371 3.83492 -1.37685
2447 1 -0.0371286 -13.1144 17.2696 -0.932029 -4.63515 1.41257
2448 1 1.12236 -12.629 -7.28014 -1.89521 -1.2707 0.295503
2449 1 18.1129 -23.3944 12.9731 2.19139 1.09228 -2.79732
2450 1 5.10899 10.5794 21.3386 -3.6629 2.2575 3.93125
2451 1 8.25552 -22.0136 5.13879 -0.556227 0.911295 -1.8635
2452 1 13.6373 16.2931 -12.7262 2.58793 3.04027 -1.28409
2453 1 -2.58609 11.0768 9.88617 0.140292 2.03889 -0.775972
2454 1 -3.67328 9.53385 -17.31 -1.47578 2.90784 0.496437
2455 1 11.2986 8.52725 14.3716 2.24091 -0.351383 0.860361
2456 1 18.1709 19.1468 20.2468 -2.44079 -1.29869 -4.77787
2457 1 -4.34992 3.49971 10.6976 -3.80728 1.09789 0.499041
2458 1 -21.8362 20.8382 -3.87513 -4.50034 -1.98378 0.235106
2459 1 -16.5591 15.4977 -8.66086 -1.91105 -4.18146 -4.17575
2460 1 9.60239 11.7648 -14.375 -0.150554 -2.4226 3.31272
2461 1 -20.5359 16.437 -3.13788 -3.16638 -2.61317 -2.77626
2462 1 -13.0548 25.2926 3.30565 -3.03536 -2.50549 0.809898
2463 1 -14.0555 -19.7974 19.8846 1.21049 -1.88599 -5.46661
2464 1 8.12403 20.2595 -12.7351 0.612466 -0.994371 -1.68028
2465 1 -9.70088 -14.0257 -11.8867 4.66603 -1.39707 0.93716
2466 1 1.4702 4.47868 -2.70781 -6.54943 3.24986 -1.65786
2467 1 0.207128 -17.8911 10.2623 -0.903085 -2.25772 -4.74948
2468 1 -19.1819 46.3459 -6.19845 3.35502 -1.04067 -4.20688
2469 1 12.5057 -23.7118 -22.3142 -9.26377 0.976057 -1.30707
2470 1 12.28 -19.5252 -8.88162 -1.23137 4.13254 0.439348
2471 1 -1.19077 26.0286 -21.5866 -3.85716 1.60543 4.60008
2472 1 -18.6555 -1.36125 15.0221 1.6666 0.758766 5.003
2473 1 13.9803 9.95504 -8.48523 0.395335 2.66244 3.97244
2474 1 -7.51141 -8.95507 -17.4942 1.78652 -3.10654 -3.51261
2475 1 -17.6395 10.8869 9.35024 -0.793679 -1.98955 4.01476
2476 1 -7.59914 -17.9462 -18.5781 1.9776 -4.51756 6.33472
2477 1 9.69236 11.6071 -0.245516 -3.42908 0.485207 -1.96266
2478 1 -2.7385 -22.4562 -3.10122 0.501373 -5.55359 4.23723
2479 1 -22.2864 -4.67554 2.49467 4.22001 2.50874 1.30958
2480 1 -0.182657 18.5768 -6.87124 1.49111 2.75416 -0.0214602
2481 1 -14.7712 -7.91502 -9.86629 0.382922 1.78477 -0.223363
2482 1 7.34671 -3.09455 -0.689167 -1.5185 5.54018 7.17279
2483 1 0.545106 8.71234 -11.0286 -1.79184 -0.684878 -0.00899504
2484 1 0.869831 -15.8995 -7.50846 0.810729 0.0602467 -3.56895
2485 1 0.0140898 -18.541 4.66297 2.76222 0.355131 -0.193723
2486 1 -3.48648 -19.276 5.85868 -5.04608 6.74561 3.93237
2487 1 0.836775 21.2691 -0.248037 -3.27392 2.12342 -0.092553
2488 1 -10.0461 20.5158 20.2908 3.71934 3.59928 -4.19426
2489 1 4.81101 20.3367 -9.70176 -0.839248 0.756795 -0.803668
2490 1 -14.0453 24.5496 18.121 -0.184853 -2.46713 -4.00651
2491 1 13.6762 -22.7858 -1.54502 0.525848 2.99352 0.345266
2492 1 22.4023 13.0605 0.371015 -3.81912 6.18973 -3.42923
2493 1 19.9157 22.4833 -19.2463 4.64109 -2.03618 -1.15789
2494 1 -15.5788 -15.3189 -23.2692 2.54257 -3.73563 -0.44456
2495 1 13.746 -10.8515 -12.8038 0.384817 1.42262 -2.79344
2496 1 4.36391 2.60727 -20.3399 -2.3968 2.33772 -0.862952
2497 1 5.14786 7.49634 21.2629 3.05812 1.90007 -3.3295
2498 1 -5.1569 7.04989 5.2603 -0.259545 -2.66409 4.15372
2499 1 -23.3966 -15.2255 8.82011 1.18952 2.90366 -1.08791
2500 1 8.11053 22.8563 8.39123 1.44161 -1.90058 2.41165
2501 1 2.64176 14.4638 4.00555 0.517654 -0.00945077 -2.96412
2502 1 -6.03086 -11.6468 9.18653 0.316747 0.941766 5.47181
2503 1 14.1558 15.8506 -2.46713 -0.119694 5.48931 0.590173
2504 1 8.75906 12.5721 10.0486 0.687606 0.38946 1.46047
2505 1 -12.2401 19.7115 23.1473 -0.760052 -0.00412035 -0.902986
2506 1 -23.5006 11.3571 -11.8175 -0.8556 3.36192 0.835734
2507 1 7.94519 0.0326794 -17.9026 -2.69488 2.34963 1.90311
2508 1 12.8445 23.2346 -5.80893 -2.51375 2.56121 2.64141
2509 1 -0.843166 -7.43651 3.31423 0.053471 5.20167 3.87029
2510 1 -23.3089 2.60864 -2.99937 0.185146 0.166427 -4.57267
2511 1 4.45239 5.68527 19.0323 0.154698 -1.84568 -0.110726
2512 1 -9.4443 11.2745 14.2769 -1.93848 8.33541 -2.46583
2513 1 21.5797 5.0492 6.88928 2.14742 2.86653 2.12738
2514 1 20.8875 11.9573 -23.1361 4.11603 -0.155647 -1.84931
2515 1 2.12201 -21.598 2.99458 -5.01432 3.16591 -0.0837969
2516 1 5.18967 10.7598 -19.9174 -2.90973 -0.747344 1.7092
2517 1 -11.3365 -14.3413 14.2727 -2.93126 -2.44436 3.99565
2518 1 -1.718 -4.95878 -0.787954 3.50057 -0.928549 3.17228
2519 1 -22.8974 20.7693 14.46 -2.66706 6.76518 -0.834675
2520 1 -23.1659 -0.898231 -6.12214 1.08355 0.656795 -4.26021
2521 1 9.49579 6.3474 18.0356 0.565263 -1.49417 -3.5029
2522 1 -5.44513 8.8395 1.58009 -0.198663 3.45236 -8.08395
2523 1 -17.0586 -24.5248 -20.8986 0.55459 -0.451424 -0.573851
2524 1 11.4014 23.6335 -20.0187 -0.524587 5.98945 1.83211
2525 1 -13.8163 -14.4851 -9.64892 1.20972 1.6715 1.97634
2526 1 -9.57546 -2.91033 -16.194 -0.688226 -0.353303 -1.0903
2527 1 6.48838 5.08208 8.61237 -1.55328 -4.44667 -6.45057
2528 1 -8.82019 13.3869 9.8877 1.77901 -5.40963 -0.45108
2529 1 -20.3993 -7.55821 -2.92757 -1.23272 -0.575661 6.20592
2530 1 3.63492 -13.9373 -16.7469 0.429318 0.240254 -1.57573
2531 1 -18.6712 -8.71815 -16.0923 -1.94867 2.05938 0.478091
2532 1 -13.8788 -15.9541 0.16373 2.84326 0.88036 -1.30562
2533 1 -14.418 22.9995 -0.746886 -5.07972 -2.40762 1.54538
2534 1 -19.2633 -10.0306 -2.24715 1.02561 -1.25207 -4.54062
2535 1 16.3805 -4.95897 14.8344 0.969798 -2.42856 5.15141
2536 1 -24.137 -20.5733 23.8037 0.769353 -2.48913 3.54654
2537 1 -1.43312 -24.4986 14.6854 7.2798 -6.165 1.14566
2538 1 -7.56852 6.28303 23.7939 2.07123 -2.05564 1.43943
2539 1 14.3286 -9.94104 17.0346 -3.40406 6.28089 -2.63805
2540 1 22.7366 -8.36351 16.1569 0.917607 -2.37471 -0.635934
2541 1 6.28349 7.21702 14.7438 -1.01738 0.842828 1.47625
2542 1 -10.9614 -6.03967 -20.9712 5.01247 0.76483 -0.68548
2543 1 -16.6455 -7.10185 -7.6639 -0.556004 2.69925 1.86279
2544 1 12.6329 2.90063 7.9026 -0.947854 -1.299 3.39138
2545 1 -13.0068 12.3627 -21.3987 0.329541 0.447101 0.379523
2546 1 -12.3107 1.29465 11.6344 3.15332 -8.03175 -0.648633
2547 1 -13.1068 -3.02946 4.94073 3.01427 -4.34396 2.60214
2548 1 16.2338 -7.54346 -7.96323 1.24699 -0.465797 2.82412
2549 1 6.99395 12.2178 -16.0318 -6.66233 5.14416 0.656378
2550 1 -19.9674 -16.6595 -18.2633 3.92596 0.740161 -1.03293
2551 1 -6.17087 13.8188 -16.1364 -4.099 1.36618 -6.57143
2552 1 -0.252112 -14.6143 8.1613 -0.889065 5.65177 -3.02594
2553 1 0.944147 25.9894 16.7273 -0.138251 0.816731 2.42627
2554 1 19.8264 24.8482 -6.71093 -2.97778 -3.8126 -3.14665
2555 1 5.0357 14.8891 -5.49374 5.50916 4.0719 0.275662
2556 1 -10.5142 -14.6061 8.10835 1.80157 1.54171 6.10086
2557 1 18.1681 -23.1799 -13.6571 -3.09798 2.46454 5.021
2558 1 -19.419 9.03401 -21.1319 -0.520229 -0.115554 9.89462
2559 1 -15.5695 7.93464 4.3669 -1.4873 3.18776 2.61946
2560 1 20.6154 -21.3408 9.5378 -3.802 0.642426 -1.71872
2561 1 -9.83214 -4.18971 9.76401 2.30169 0.595258 -0.216435
2562 1 -20.0587 -4.82461 -9.346 6.2688 -5.50289 -4.45102
2563 1 20.1626 -3.13665 -22.8256 -5.65135 2.70323 0.610366
2564 1 -12.3693 -15.5666 -11.9804 -2.62137 2.97604 1.78744
2565 1 12.1684 17.2752 13.2563 -5.08554 1.64193 5.01644
2566 1 -23.2152 -12.3498 14.352 0.127317 -3.67608 -2.95841
2567 1 -14.8874 1.2096 -17.8229 1.26455 0.807539 -3.109
2568 1 19.6302 -10.8759 -18.7278 4.14317 -2.77293 -3.90846
2569 1 -24.194 -17.4909 -14.128 -1.47574 -1.4352 -2.0268
2570 1 -21.9073 17.3287 -16.1942 0.212102 -2.72802 -0.704271
2571 1 13.1212 -1.21207 21.1215 -2.39526 -0.268819 -1.75917
2572 1 -22.5835 -18.7602 -4.8859 0.0812222 0.42592 1.34472
2573 1 19.6559 -24.2423 -4.57301 2.15738 1.16689 4.1785
2574 1 -20.4358 -24.1404 -9.00015 -2.82222 1.61796 1.89752
2575 1 1.15913 17.0399 4.24596 -0.02196 2.51483 2.0974
2576 1 22.4174 20.7948 15.1156 -4.09853 -1.82026 -3.0655
2577 1 13.7024 21.4535 -3.82398 -3.24864 -0.278125 -0.264863
2578 1 -19.6078 -14.8534 -3.24458 2.59693 3.07999 -2.01729
2579 1 -9.26169 8.77806 1.24702 1.06205 -0.635105 -0.353779
2580 1 22.9149 15.2396 -21.6666 -2.48449 -1.86627 2.22207
2581 1 -7.1152 16.3774 21.0767 -3.6121 -1.01313 -0.546276
2582 1 12.5433 23.0702 9.47059 0.61935 1.9946 2.76535
2583 1 4.99602 20.5323 0.0384901 -5.81351 -1.49314 2.48636
2584 1 -12.0002 -21.5934 -11.0453 -9.11981 3.85706 5.90261
2585 1 17.079 -15.037 21.3155 0.475314 0.545114 1.79314
2586 1 -15.6436 13.5394 12.928 1.85931 -2.878 -4.3191
2587 1 16.7191 -18.2714 8.44945 2.4396 2.99583 1.45347
2588 1 18.2384 -0.262322 -15.9103 1.34868 1.88904 0.743327
2589 1 -0.187583 -8.41306 5.88961 0.518417 -5.70416 1.2452
2590 1 15.4305 2.63155 -10.193 0.674635 4.39446 -0.175167
2591 1 -2.78902 -23.4609 12.1827 2.19081 -1.08658 2.42771
2592 1 0.255326 -18.2786 7.54352 1.36659 0.471279 0.0872781
2593 1 -23.1334 -6.45949 22.4078 0.186288 0.889871 0.230983
2594 1 -22.7563 -7.8819 16.4849 -0.243179 0.119182 -2.37382
2595 1 -1.16438 -17.2918 -19.8057 -1.09522 3.02397 -1.62526
2596 1 -15.9527 11.9075 -21.4514 1.42271 1.87465 -4.18301
2597 1 -18.2352 -2.60324 -15.9827 0.798598 0.88983 0.603161
2598 1 17.4717 -0.485406 -3.72995 -2.52297 -6.68462 -1.75846
2599 1 -6.09678 2.14747 8.85134 5.7504 -3.31351 3.74582
2600 1 2.65511 23.4034 0.438067 -2.49404 2.15255 1.43425
2601 1 -0.0412572 6.09672 3.07568 -1.80815 -0.275826 2.52387
2602 1 -3.65134 -11.7822 -2.45533 -0.330772 -1.71432 1.30854
2603 1 22.7964 18.7566 -6.69899 -1.23174 4.06513 0.566313
2604 1 14.2484 -12.1906 -5.5922 4.56493 3.13882 1.86976
2605 1 -17.7444 6.63352 -4.55907 -1.80761 -3.64444 -3.30623
2606 1 16.1768 16.9988 19.7552 4.07342 1.12105 5.47661
2607 1 14.1861 2.16678 -22.8986 -3.90604 -1.10001 3.4543
2608 1 12.9662 -18.9848 -21.0807 -2.34227 3.21919 5.91145
2609 1 -13.2021 -3.15521 -17.7031 -0.750553 -0.0410188 -0.0953642
2610 1 3.14665 2.37778 -15.6906 0.290061 -2.42678 1.05175
2611 1 -21.9165 25.6497 -19.9722 -2.233 1.97827 -3.31241
2612 1 -13.319 -17.8627 17.665 -3.01401 0.134454 -3.90256
2613 1 -23.7108 4.67955 14.2349 3.27299 -1.77195 0.193487
2614 1 -12.588 13.3405 -18.6045 3.03712 4.34454 1.09743
2615 1 -2.62248 2.52255 15.3538 -0.673046 2.43046 -2.52658
2616 1 -23.726 -1.8413 -11.1112 -0.588458 -5.94469 -4.45783
2617 1 -4.02842 12.387 -17.5211 1.06096 -1.93761 4.28439
2618 1 -8.0659 -16.1516 -11.1878 2.32045 -2.87568 0.294306
2619 1 -3.27089 10.9019 -21.8852 1.12021 -3.5903 1.62991
2620 1 -10.5422 14.4809 7.73383 -7.11492 1.1253 -1.22906
2621 1 4.70469 -23.229 6.31396 7.23608 -2.50588 -0.571853
2622 1 -3.60902 -15.7784 23.7976 -0.559527 1.06331 -0.0341531
2623 1 -17.7033 20.037 -19.5445 -0.222575 0.34998 -1.65363
2624 1 -17.2595 19.4047 -6.2009 -2.04768 -1.80545 5.12087
2625 1 -6.73717 -4.48561 21.263 -6.4136 1.61405 -1.96634
2626 1 -3.58727 4.38382 21.4461 0.209524 -3.19422 0.387815
2627 1 14.4475 22.3161 7.4849 -1.29057 3.13725 1.48622
2628 1 12.5073 -8.39474 -20.8899 -1.85054 -0.997834 -1.61578
2629 1 -21.918 -1.6217 6.82782 8.4259 1.85885 1.38192
2630 1 -13.9087 -9.92446 16.9854 -4.74052 -3.47015 2.33366
2631 1 16.2789 14.6106 1.2573 -1.15853 0.0950852 -3.53827
2632 1 20.082 -1.4352 -17.8198 6.52052 4.44115 1.66397
2633 1 -5.23964 -16.6477 -11.9123 3.60752 0.435622 -1.41115
2634 1 -6.47955 12.4938 -24.2404 -2.17987 -3.25871 -3.73598
2635 1 1.03892 11.2594 22.0731 -3.46737 -0.359461 -0.293053
2636 1 -13.4442 -19.9663 13.9992 1.07804 5.21322 2.42509
2637 1 10.9028 -16.0249 -17.4176 -1.75548 -0.266384 -2.19549
2638 1 13.7072 5.34041 -5.00905 -2.57479 2.29217 -0.588028
2639 1 -1.93538 -6.78222 19.5196 0.881278 2.2912 2.77252
2640 1 4.66169 12.9957 -17.9663 -0.729021 -1.08881 0.635281
2641 1 -23.9512 7.06947 -13.8587 0.954182 -1.119 1.32391
2642 1 -5.29355 -19.7617 1.58351 -3.16303 -0.139402 3.0925
2643 1 -3.52244 -13.8797 -21.7658 -3.25587 0.731891 3.94441
2644 1 17.5258 -20.5635 -12.8019 1.95402 0.791603 2.30399
2645 1 5.32454 -21.7451 15.488 0.619949 2.22562 -1.19494
2646 1 -6.68932 8.73863 -3.34 0.759834 1.04206 -1.03325
2647 1 -11.5202 6.06141 4.34433 1.27085 3.97869 -2.90752
2648 1 20.08 -0.970436 0.402898 -2.81793 -2.78307 -1.02757
2649 1 -18.2323 20.6824 -10.972 -1.41236 0.79306 -4.7341
2650 1 -2.26341 7.46429 14.0241 -2.06327 -0.806731 0.161181
2651 1 -16.0521 -19.1132 15.0436 0.997627 3.38499 1.6524
2652 1 -17.7644 -5.82048 -13.5674 -1.14176 2.3396 5.13146
2653 1 -8.92316 9.13746 -1.60755 -1.93088 4.36082 -3.60095
2654 1 19.6 -9.42106 -3.97127 -1.02756 -2.0553 -1.87609
2655 1 -7.27376 -9.43893 0.81626 1.25648 -4.34057 -2.21781
2656 1 -4.03778 8.75776 -19.9651 -1.96056 0.543296 -1.88216
2657 1 -7.68845 -6.87125 5.87765 -0.166236 -3.22433 0.172352
2658 1 -6.11824 2.97222 15.5602 0.847027 0.324541 0.0531556
2659 1 17.1161 -5.29816 -22.568 -0.327432 0.60323 -3.04278
2660 1 -13.2217 24.6008 13.9548 -0.0243352 -4.34216 -2.53469
2661 1 6.57589 5.54893 22.7904 2.99922 4.97496 -4.27088
2662 1 -22.3624 -24.342 10.0816 -3.25314 -1.9394 0.307813
2663 1 -9.64512 9.74806 21.8409 5.16963 -5.19569 1.77265
2664 1 -16.7492 18.4061 22.6056 -0.658125 0.123046 -0.598861
2665 1 -23.8425 3.42764 -0.0322003 1.5367 -0.581239 -3.99931
2666 1 19.0991 -22.8954 1.00005 -0.578223 -0.71616 -2.03079
2667 1 -6.95765 -6.26412 -5.20577 -1.23663 0.677728 -1.88251
2668 1 -9.58751 -17.8554 -22.7087 0.986619 -3.43223 4.72002
2669 1 -0.0699841 -8.81057 20.2694 2.6165 0.716186 -1.38765
2670 1 23.4557 24.2601 -14.4112 7.97154 0.720288 -1.9644
2671 1 10.7859 19.9583 22.8703 0.531233 -2.12676 -4.82967
2672 1 7.28566 -5.64102 9.62082 -1.49379 -1.37583 -1.20005
2673 1 -13.7361 -22.2263 -2.41454 1.32853 2.69221 -2.48849
2674 1 -8.7031 -20.5655 -3.18214 0.747647 2.36366 1.42943
2675 1 19.8927 2.42672 -10.4348 0.741613 1.75509 -3.54037
2676 1 23.0176 23.0379 -17.113 -0.743636 -0.735495 -3.37135
2677 1 -2.3052 -23.5812 1.8792 -6.3002 1.50357 3.47072
2678 1 3.54914 -20.0447 -15.3472 -1.49703 1.5759 -3.71939
2679 1 10.0326 -0.0949849 -2.54409 0.30123 -0.52201 1.56067
2680 1 10.0309 -3.00768 -8.56322 -4.94607 1.135 -0.408357
2681 1 -15.286 -6.92792 -19.6561 0.345637 -3.96515 2.08697
2682 1 -18.8668 0.214903 12.5351 5.29952 -5.06563 -8.97437
2683 1 -16.7726 7.29693 -17.3016 1.18 2.6306 -2.44751
2684 1 22.5646 -12.1829 3.21567 -2.55664 -0.103219 -1.34858
2685 1 2.05134 -9.77411 4.46316 0.695119 -0.0391887 -1.79502
2686 1 6.39842 -22.9118 -17.1641 -1.79895 3.98333 1.00933
2687 1 18.6388 -16.6625 -11.3546 1.15804 4.9278 6.20248
2688 1 -17.4524 -3.81243 -0.807465 0.809836 3.83262 -2.11193
2689 1 -7.4201 -2.56616 -7.38922 4.47687 -9.18939 -1.63955
2690 1 -13.822 -13.3587 -18.6646 -2.01202 0.918659 1.45995
2691 1 -20.4504 46.6422 20.0798 -0.515026 0.531672 4.64727
2692 1 4.81224 0.0442478 -9.45304 0.186892 0.612678 0.0623496
2693 1 11.218 19.1175 -18.8986 -0.71494 -2.37698 2.98454
2694 1 -4.40221 -12.979 20.1085 -1.61352 3.55468 -0.331464
2695 1 15.5205 7.6456 12.3331 6.31165 -3.56317 4.32441
2696 1 23.1466 -18.6293 -22.1892 0.49828 0.0837916 -3.36242
2697 1 6.26464 2.46309 -4.69646 3.95736 2.83036 -0.953205
2698 1 14.8564 -12.0894 21.6175 3.13338 -4.91093 1.43485
2699 1 -16.9543 15.1469 -2.42527 -0.0532031 -0.924036 4.12376
2700 1 -7.97705 -19.8123 0.682652 1.06855 3.26714 -0.091454
2701 1 -21.4434 22.4511 0.227249 -0.783197 3.97358 2.21862
2702 1 -7.00962 19.2397 -17.8879 4.9584 -0.576207 1.14289
2703 1 14.419 -4.29248 -11.9045 -2.06676 1.42916 1.58984
2704 1 3.22392 -23.2681 1.18547 0.72241 -1.85704 -2.71158
2705 1 -2.8774 -4.77747 6.07404 4.59279 1.46408 0.552728
2706 1 2.73828 -23.4436 22.3777 3.39998 -4.27069 4.37147
2707 1 -9.48431 -13.0543 2.71779 1.95812 -2.4563 -5.51449
2708 1 -11.2455 1.48778 21.5304 -1.2129 -1.19645 3.09411
2709 1 19.2932 -4.88157 21.4921 1.89763 1.90619 2.94097
2710 1 -3.50935 15.0927 19.4863 -2.36969 5.85832 1.06284
2711 1 -13.7278 -5.93824 23.6877 -1.22497 1.58185 4.66034
2712 1 14.8415 12.9224 4.97836 3.16994 -2.93689 -3.32536
2713 1 -22.1719 1.69478 -5.66566 -2.40378 -1.81105 1.12647
2714 1 -19.5453 5.48393 -10.7586 -2.64509 -2.23066 5.85812
2715 1 -10.7594 11.7447 17.9538 2.72633 5.46854 -0.690813
2716 1 14.8324 12.1291 2.07765 4.60004 0.722719 0.150976
2717 1 8.4776 20.8423 10.2992 1.07475 -1.63314 -1.52028
2718 1 11.5576 -14.8867 -21.7475 1.47466 0.682501 1.35759
2719 1 18.4953 -10.7478 4.47636 -2.94685 -7.72233 -4.47828
2720 1 -13.9119 -9.28431 -19.1099 -0.385686 -1.0624 -1.71356
2721 1 4.07684 -11.5425 11.7589 -2.29608 -1.89261 -3.67556
2722 1 -12.0849 19.6195 -6.09945 1.14441 -0.306713 -5.02888
2723 1 -4.95351 18.775 15.2317 -0.569081 0.618524 2.46413
2724 1 -3.62687 4.81691 5.77649 3.6897 1.91702 0.195527
2725 1 -0.880952 9.01158 -16.9775 -1.99885 -3.15043 0.768215
2726 1 -10.698 -6.29012 -23.9827 -0.137415 -3.59969 -0.805813
2727 1 -14.0567 -19.3027 -2.95028 5.60627 -0.371008 1.61268
2728 1 21.6292 -4.05411 10.9708 5.09074 2.4079 1.9825
2729 1 -3.23806 -21.2836 -19.9864 3.3412 0.959545 0.431795
2730 1 -8.47673 -16.4387 8.76803 -5.26234 3.0001 1.48692
2731 1 -23.1287 24.9419 -5.8672 4.76395 1.68038 2.73782
2732 1 1.86761 3.04419 3.79707 2.21813 0.138453 -4.18146
2733 1 -8.03794 10.3076 -19.7473 -0.615356 0.881449 -1.69094
2734 1 17.8721 -9.59779 22.5177 -0.859603 -1.70425 3.71895
2735 1 -4.18711 7.22072 -15.4278 4.29404 -1.26593 -4.01128
2736 1 17.0845 15.5628 22.2478 -0.461456 3.42065 3.24457
2737 1 -20.2736 -18.4842 -0.037278 -0.769259 -1.04708 2.11866
2738 1 -5.74204 9.44283 13.3863 0.972431 0.344662 -1.3027
2739 1 -12.5731 -7.21539 19.7522 -4.37122 0.199244 -0.204216
2740 1 -14.9914 -15.4367 -20.5355 -2.3588 4.48583 4.48618
2741 1 -9.0251 6.44586 2.90222 2.82886 -0.803848 -1.88247
2742 1 -14.3419 13.683 6.91885 1.88765 1.27409 2.58626
2743 1 2.32177 -18.4666 -7.03086 -1.41566 1.13403 4.66398
2744 1 -16.8539 -20.0794 -23.1875 -0.00148241 -5.50239 -2.82281
2745 1 -10.9744 21.8061 2.27155 -3.00401 -2.09721 2.12952
2746 1 4.22169 -12.7875 -4.53428 -0.242248 -1.386 1.58651
2747 1 1.19376 1.55705 15.9386 0.104487 3.73455 -4.76517
2748 1 -4.68496 -0.291956 -8.28801 -3.4437 3.0232 1.24658
2749 1 -13.058 -8.19266 22.1643 -4.27648 0.685328 0.0731242
2750 1 -13.7069 24.7817 -20.5307 -3.53953 -1.8684 -0.105664
2751 1 7.42378 -24.7217 8.21307 1.8955 -1.72508 3.60267
2752 1 -8.3047 17.579 -10.1817 2.42572 1.83388 -0.203157
2753 1 -1.4534 -6.86168 11.29 2.54643 0.49474 2.76893
2754 1 -12.2866 23.9606 0.855647 5.35481 -3.26155 -1.34144
2755 1 2.75386 -13.8436 17.5557 -3.97628 3.64258 -4.79657
2756 1 -22.5526 9.56654 20.2661 1.76096 -3.46035 1.71206
2757 1 19.9874 -15.9064 20.9514 -0.636255 -1.19889 0.543137
2758 1 23.4096 -18.0682 -9.80151 1.39218 -2.6195 -2.1253
2759 1 -18.1109 -16.5324 8.28449 2.06401 -1.3423 2.98503
2760 1 0.295418 14.2436 -18.3096 2.51651 -1.3629 -2.89053
2761 1 -5.17206 -15.1856 18.6593 1.19282 2.70708 1.56315
2762 1 -10.3039 11.1285 10.6572 1.32512 -0.412827 -4.21653
2763 1 -5.54758 -12.1394 17.495 2.68738 -2.36928 -2.94538
2764 1 8.42241 22.9634 -13.1695 0.523174 -2.77075 1.56523
2765 1 8.61977 -17.5247 -19.8235 -2.58196 1.57295 -3.33626
2766 1 8.69509 11.7772 19.1004 -1.26345 1.81224 2.73381
2767 1 -11.6988 -18.0707 -19.5724 3.51652 1.02299 -1.67301
2768 1 -5.76222 23.8447 -0.251735 5.23133 -0.320463 1.85154
2769 1 -16.6056 15.3695 17.0341 1.80701 2.86679 4.58554
2770 1 20.7051 9.45811 2.0072 -0.0166073 -2.77599 2.64053
2771 1 -18.402 -13.3898 -17.802 1.58471 0.571157 3.08704
2772 1 -14.4799 18.1088 -19.3933 0.434233 2.91512 -3.92591
2773 1 8.70464 22.041 5.73801 0.123512 7.31213 1.95471
2774 1 -24.2973 -0.0624327 -15.0861 0.254804 -3.39552 0.846431
2775 1 -4.10794 -18.4956 13.5296 0.0621873 4.7814 0.688326
2776 1 11.1202 7.10461 -4.38927 0.921832 1.38095 -0.677219
2777 1 -13.2209 14.665 4.42092 5.21061 -2.55336 -2.97231
2778 1 -22.5737 17.5023 21.2102 3.36972 1.16284 6.59883
2779 1 22.7312 12.8423 18.9115 -1.76603 2.74929 -2.67642
2780 1 -12.68 0.34562 -5.89128 -1.76581 0.147032 6.91718
2781 1 13.6837 24.4971 11.6034 1.40161 2.77258 -2.32487
2782 1 8.84953 -7.34157 15.029 -0.0630308 0.968094 -0.524588
2783 1 11.5752 -8.07991 -13.5627 0.746278 -0.274411 -2.95914
2784 1 -10.564 2.21294 -2.39519 4.20512 -2.49228 -7.16562
2785 1 22.9847 -2.51126 -13.7259 3.2218 3.42436 4.04334
2786 1 5.55507 -5.01902 3.41253 -2.42784 3.54219 -0.405925
2787 1 -14.9545 14.6239 -0.416762 -3.86317 -0.638875 -6.33752
2788 1 -19.9317 14.4462 11.1923 -4.24881 -1.73182 -1.25203
2789 1 10.3589 -6.76481 -3.95307 -2.57931 3.15635 1.99214
2790 1 -6.90041 -3.53466 -15.3944 -1.63416 0.253659 1.85752
2791 1 21.1391 13.6598 -5.32745 -2.15797 -4.13393 1.60107
2792 1 -7.57395 -5.61029 3.16238 -0.943001 -1.05456 1.89018
2793 1 -4.52658 2.25563 6.33775 4.97187 1.08123 -3.90015
2794 1 7.06318 16.9921 -8.3684 -0.192473 -3.44352 0.0626767
2795 1 17.7802 17.4887 -18.6878 0.863886 -2.96531 -0.722234
2796 1 16.8845 -15.3271 12.476 -3.16323 -5.14611 0.908643
2797 1 18.597 -9.64928 -21.2137 2.0773 -5.97264 0.0741766
2798 1 -19.7152 -1.13309 -3.86525 2.06605 3.70377 4.0575
2799 1 -1.10292 -15.911 -5.30146 1.16326 2.25423 0.833221
2800 1 -11.2653 -12.5128 -17.8029 -3.56322 -4.44996 2.27526
2801 1 0.5407 16.3942 7.22405 -2.46625 0.166724 -2.11795
2802 1 9.45313 10.0913 -10.0152 -1.32542 -4.3963 -0.86636
2803 1 22.1462 -5.0951 -14.5994 -1.48082 -3.177 -0.599606
2804 1 -16.7768 13.1864 -10.4279 1.84985 -1.31208 -4.37063
2805 1 -15.0267 6.67824 -10.1074 -1.21897 1.70293 -4.31462
2806 1 -5.03764 19.4122 -15.6706 -1.68879 -4.03043 -2.45936
2807 1 -21.8961 18.7679 -1.95637 -1.59639 1.52607 0.433076
2808 1 3.45277 -24.2572 -10.7448 -5.11762 -1.18588 2.51246
2809 1 -12.7081 18.2791 16.0599 4.62969 -2.88813 4.33684
2810 1 6.04852 23.3376 -14.5418 -2.93483 -1.27906 5.22002
2811 1 -13.4021 12.5164 2.58835 -0.0673317 -2.67122 1.21266
2812 1 -9.69348 -1.01821 20.5667 -0.411469 0.860589 -1.37744
2813 1 -2.01675 -9.14208 -17.4835 -0.588272 -0.113951 -1.82276
2814 1 22.8178 -5.19333 -6.41967 0.25638 2.13485 -4.2361
2815 1 19.8873 8.54223 8.70305 6.11869 5.32118 -1.7518
2816 1 2.69593 -15.863 19.5952 -0.770442 -3.4256 0.954978
2817 1 7.23522 -17.869 -23.5982 0.438239 -1.12287 -0.593703
2818 1 3.98687 -1.2113 0.320012 2.93855 -0.0323313 -3.49892
2819 1 17.4759 13.3347 15.7381 1.20203 -3.36875 1.7928
2820 1 -17.1176 22.0524 10.9118 -1.61895 5.07507 -0.136221
2821 1 17.0174 -13.5941 -13.0051 1.44247 -0.103149 -0.395508
2822 1 -15.0825 -2.7772 3.13615 0.356155 -3.2946 -1.35808
2823 1 12.2482 -14.8352 5.20772 2.3606 0.297524 3.58612
2824 1 7.92497 12.2366 15.5216 -1.04608 1.75532 0.528762
2825 1 16.0849 19.5988 -10.3305 1.20072 -4.89884 -4.8966
2826 1 9.69385 -19.4481 -1.3676 5.26486 2.14105 -6.18694
2827 1 4.50454 -10.0709 -23.0165 -0.742982 -3.12535 -0.157212
2828 1 3.68931 -3.60253 -21.1906 0.585651 -1.9561 -0.303776
2829 1 18.0007 -21.9032 10.1584 0.602173 2.54751 4.46078
2830 1 -23.8081 7.6626 0.509307 2.80172 1.20594 -6.19684
2831 1 17.7726 4.15336 -11.4431 -4.53145 4.04277 -5.36499
2832 1 23.1123 -19.6822 -6.31922 -0.575207 1.86092 -4.69033
2833 1 -24.1009 1.37438 6.52641 -6.49685 1.6702 3.29887
2834 1 -10.0157 -17.2806 22.6168 4.38369 -2.27029 -1.22279
2835 1 -1.50483 5.77891 -0.623384 -0.110906 1.1424 -0.219234
2836 1 -14.2775 20.8447 -4.89429 -0.0557955 -0.457234 0.083097
2837 1 -16.5253 11.5644 -7.99759 1.59687 -0.604197 1.91097
2838 1 19.8794 -11.5012 22.9682 3.00308 1.51012 0.894699
2839 1 -16.9798 -2.81199 -21.9309 -2.0576 -5.9284 0.718635
2840 1 4.03912 -20.465 -22.446 5.73771 1.57977 1.02038
2841 1 17.2637 -18.882 -4.62932 -1.79193 5.49232 -0.93346
2842 1 -4.19851 -11.5894 -12.2987 -4.35427 -3.73282 4.55041
2843 1 16.6613 3.07431 -21.6131 1.3342 0.37764 -1.02793
2844 1 20.5557 15.9387 6.64365 -4.76896 -0.892931 0.774936
2845 1 22.8014 4.13406 -20.979 0.165555 -1.07364 -0.0772616
2846 1 -22.4954 1.33659 4.06479 0.774402 1.65353 1.63916
2847 1 6.33064 15.187 -0.616345 3.87354 -0.0803368 1.05422
2848 1 -18.6321 47.1463 -11.6444 3.3819 0.918609 -0.271911
2849 1 -21.1151 -22.9301 12.3069 7.46415 2.41639 0.446829
2850 1 1.05358 4.27784 -8.82414 -2.20124 -0.933403 6.97562
2851 1 -6.14244 24.0251 18.7185 2.10333 -1.71033 2.0816
2852 1 5.10858 -3.83629 0.690704 -1.63617 -2.19846 1.30762
2853 1 -0.619766 24.5092 21.7585 0.640751 0.991547 4.61235
2854 1 6.73194 -5.70235 -4.99862 -1.27408 0.462377 -1.1841
2855 1 -18.044 -8.17904 -20.4167 1.85753 -0.257241 -0.544799
2856 1 17.3512 -16.0491 1.19784 1.25578 3.39325 -2.70133
2857 1 17.6024 10.7391 10.1846 5.6065 5.78975 3.4405
2858 1 12.253 -2.7036 -22.0069 0.521838 2.69908 -1.93639
2859 1 -23.8001 -23.8243 -19.3683 -2.1077 1.6285 2.11419
2860 1 -20.8341 6.94313 17.6662 -0.217928 -1.00459 -3.26504
2861 1 13.6545 12.1388 21.3576 -0.243078 2.00102 3.37685
2862 1 12.4455 -2.78825 -17.3562 -3.27309 4.99943 2.55643
2863 1 -24.3582 -18.6356 -17.1157 0.624311 2.62667 -1.91372
2864 1 -15.2412 12.0181 18.0102 1.03352 -2.7411 -2.58634
2865 1 4.10426 12.3293 2.03449 1.19332 1.19383 5.33124
2866 1 -18.515 23.7387 -5.90599 1.04523 -0.654049 -1.25722
2867 1 -18.526 18.294 -14.2847 -4.90369 -0.254314 -5.30737
2868 1 1.08317 -24.1493 20.3804 -1.49327 -4.14046 0.225892
2869 1 -19.9071 -15.2652 18.3358 1.37222 2.62827 2.12003
2870 1 -11.9002 14.3712 -9.98866 0.606879 1.97373 2.57449
2871 1 -16.578 20.6787 -23.6843 -2.18238 2.11448 -1.78798
2872 1 6.01767 9.54577 8.88947 -0.34037 3.07225 0.222138
2873 1 -11.3737 -0.891447 4.60451 -1.29322 -1.34709 1.25981
2874 1 0.130911 -9.52175 -11.3405 1.96103 -0.016195 -0.821167
2875 1 21.8396 -4.27471 -8.98228 0.466615 -2.5831 0.0919673
2876 1 21.2417 -22.2083 -21.7148 -2.08943 0.131869 -1.32933
2877 1 11.415 -5.90207 4.85067 2.72167 0.583387 0.803363
2878 1 -17.9563 22.6 -12.9826 -3.76599 -0.0593727 1.13986
2879 1 -1.94393 18.0998 4.27267 -1.37417 1.93482 -0.789642
2880 1 0.34521 -0.974017 14.6882 1.67798 -3.24985 0.188603
2881 1 -16.1228 14.4521 -18.2959 -1.87243 0.947032 -1.36449
2882 1 -22.4061 -16.5367 19.2642 -5.4506 4.10215 -0.481833
2883 1 13.1836 -13.9502 -0.112818 2.19499 0.703301 2.57068
2884 1 10.2624 -7.49755 -23.7498 -1.40086 5.18835 1.47412
2885 1 -5.70882 3.21776 -4.81611 -1.94564 -0.328459 -3.41049
2886 1 11.0344 23.7534 2.21021 2.26911 3.10943 2.85572
2887 1 21.7033 17.8467 19.0369 -2.02237 1.46538 5.49005
2888 1 -12.2742 4.42922 23.8265 2.71575 2.82377 4.95479
2889 1 6.16607 -3.78075 7.86001 0.90522 -1.8516 1.63799
2890 1 -2.75089 -4.42159 -23.3799 -4.21197 -1.86474 -0.249249
2891 1 9.64828 -5.51478 17.385 -2.06973 5.43705 1.27621
2892 1 20.851 21.5394 -9.97106 0.771333 1.18769 5.98151
2893 1 -11.2232 -14.9856 23.9183 -2.24399 3.58163 -4.25535
2894 1 -8.04929 6.74072 16.4888 7.11983 -1.02814 7.2536
2895 1 -17.9058 17.7212 18.3267 4.64077 1.76892 3.15719
2896 1 -12.2834 3.8198 15.1158 -3.01021 3.32265 -0.944881
2897 1 -3.90467 14.6359 -3.19482 -2.22548 0.143825 -3.26819
2898 1 -7.80269 -6.6427 -21.4327 -2.00716 -10.4847 -0.324305
2899 1 -4.88848 -21.5605 18.0957 1.92806 -0.799712 -0.597726
2900 1 18.5335 3.65275 24.217 -1.99872 -1.95419 2.38706
2901 1 -13.0949 -17.6311 -16.096 1.11819 5.13061 3.00253
2902 1 -21.0669 0.921315 -21.8688 1.25088 2.24073 -1.10671
2903 1 -14.915 -13.7249 3.83514 0.91761 -2.36895 -0.477951
2904 1 -7.41296 12.8855 -2.19879 -5.54474 1.63021 0.273545
2905 1 -18.2284 22.4144 21.6016 -5.04488 1.95792 1.617
2906 1 12.0267 4.75113 18.0108 2.02789 0.181948 -2.23904
2907 1 -16.187 25.2463 -5.24622 -1.19334 1.78102 -0.766219
2908 1 -3.49394 11.1123 12.4962 -0.663567 -2.69601 2.35935
2909 1 -7.99985 -2.17379 24.2368 -6.70423 -6.33297 3.4931
2910 1 -11.4894 8.12268 16.4187 2.87342 0.799452 -1.24394
2911 1 0.204741 3.78465 -19.3302 -1.7584 -0.244588 -0.559549
2912 1 9.84796 -16.4058 -7.9527 3.41404 1.26835 -2.12235
2913 1 15.2999 6.45647 -2.89281 4.95891 -5.26734 1.82957
2914 1 1.26802 1.43065 10.7001 7.14124 -1.52639 1.21702
2915 1 -13.1179 -11.7765 -22.6468 -2.09099 -1.4876 1.64934
2916 1 22.3442 21.6288 -5.33965 -4.33798 2.25029 1.45321
2917 1 -8.14387 6.13557 5.59941 -3.08614 0.423391 0.545052
2918 1 20.7808 8.26067 -7.71625 -2.73705 -5.18753 6.47047
2919 1 21.1825 -15.6147 -3.44936 3.77508 -0.461718 0.471921
2920 1 23.3297 13.4791 4.41745 -0.873934 0.785749 -4.3623
2921 1 -19.333 21.8153 9.26154 -1.57465 -0.333071 0.315673
2922 1 -17.3117 -22.518 -24.1535 -1.19838 1.79976 -7.82525
2923 1 -13.0151 0.00198725 18.2859 -0.791649 -0.38408 0.0401616
2924 1 -0.735211 -15.8502 23.4282 1.86991 3.28489 2.39117
2925 1 19.6039 -9.22052 11.9842 5.67388 -1.19698 -3.37864
2926 1 -8.7891 8.78576 -15.5989 3.16977 -1.34945 4.57669
2927 1 12.5422 6.08697 3.71397 -0.0976683 2.91024 -2.28469
2928 1 -23.6504 45.8168 -9.21718 2.65144 -2.61779 -1.66644
2929 1 7.74144 -13.9132 8.84895 -0.182643 1.56059 -2.57545
2930 1 -20.7643 4.28405 -3.08785 -2.5932 4.03065 -1.24857
2931 1 1.98425 -8.81026 -23.6763 -0.336876 0.12556 -0.126768
2932 1 8.7619 18.8699 20.9158 2.72703 -0.295381 1.96762
2933 1 22.7247 -5.14174 13.2926 -2.41306 7.47771 1.71028
2934 1 11.1536 2.60105 -22.6958 2.26001 -0.0125131 -0.396225
2935 1 7.19399 23.0413 0.964021 -0.685626 -0.572884 0.160886
2936 1 -23.2807 8.20601 -5.80267 0.71649 -0.58318 0.110762
2937 1 -18.1074 3.39715 -14.4624 2.17301 0.513881 1.40828
2938 1 -7.13307 -5.84796 -2.27631 -1.39617 0.085165 -2.25583
2939 1 -12.5828 18.8633 5.38646 1.68105 -4.62066 -1.60268
2940 1 14.5708 18.1982 -0.641901 -0.124106 -4.65088 -1.42509
2941 1 -4.64001 2.18302 -9.7068 -0.467242 -1.83029 2.23794
2942 1 -21.0707 11.0575 22.153 3.66335 0.246609 -0.697973
2943 1 22.4061 6.71689 9.09504 2.17607 4.58333 1.89146
2944 1 7.83895 -21.4364 14.2218 -0.508702 3.51924 0.168867
2945 1 -6.93316 10.5226 -10.513 1.26994 -3.75565 -3.0239
2946 1 11.4304 -0.323315 12.261 -1.99884 0.344336 -2.23776
2947 1 16.4701 -16.3242 -21.8011 0.589188 1.01229 -1.32005
2948 1 2.1573 -19.294 -0.704954 -0.13905 0.403639 -1.06815
2949 1 -10.0372 -20.0076 23.5606 1.73501 -2.97036 0.443721
2950 1 -21.1151 13.1405 2.79174 -2.0003 -1.59364 0.442909
2951 1 11.6674 -13.928 -11.9622 3.08794 -1.31834 0.545655
2952 1 -12.9068 22.8751 -22.2392 1.38811 -0.724361 -5.89548
2953 1 16.0818 4.19537 2.27979 -0.333786 -3.24724 -0.688945
2954 1 -16.2316 -1.71828 9.46339 0.284994 2.95482 0.0286379
2955 1 10.57 -9.54352 15.8593 4.29479 5.36107 1.65348
2956 1 -15.1054 18.888 -0.893343 4.6961 3.42298 -0.579862
2957 1 0.210947 -19.4538 14.3662 1.66686 1.67181 1.89575
2958 1 7.30364 -10.3467 -10.3239 3.63968 -2.92284 -0.586294
2959 1 -17.0481 17.4776 -20.8158 2.34205 0.514275 -3.2989
2960 1 -13.2023 -2.01139 -23.0601 1.26688 2.17188 -0.904044
2961 1 -10.7783 -10.2794 -22.6848 -5.21201 6.63617 -1.00169
2962 1 -6.92754 1.45529 -14.8617 2.14151 3.8048 0.244227
2963 1 -24.1473 10.4827 -4.62275 -3.38566 4.652 1.99563
2964 1 1.43787 -19.7287 -21.5589 -2.03679 3.19738 -5.5964
2965 1 20.2118 -1.58195 -13.2579 -6.58753 1.86263 0.249981
2966 1 -1.75158 -21.1492 18.5281 3.12723 -1.66257 -0.222462
2967 1 -0.0415746 12.5632 10.1848 -1.62266 1.47559 1.3762
2968 1 -0.761515 -12.3028 1.85581 2.1772 -3.61458 3.62747
2969 1 -5.41325 0.0594788 14.8538 -1.39121 -2.78741 -0.60623
2970 1 22.884 -15.0053 -13.4126 1.64547 -0.662157 1.60651
2971 1 -4.57584 20.1471 9.93835 -2.06737 3.05755 0.950203
2972 1 -8.75208 8.68574 -11.1531 0.23368 0.492557 2.3589
2973 1 -12.5069 16.04 20.5674 -3.68176 -0.923026 1.18368
2974 1 21.5429 -0.532339 19.2763 4.13987 -2.02469 -2.34101
2975 1 15.3965 10.3396 -1.41562 -3.37533 -3.36016 0.639859
2976 1 -21.7556 20.4614 -14.1676 2.56192 -2.03555 -4.46023
2977 1 3.70604 -9.4791 -1.62471 -2.87718 -0.539151 -1.70765
2978 1 12.2324 17.874 -14.6321 3.55211 -3.60066 -1.21097
2979 1 6.79572 6.04297 17.1152 0.757945 2.60105 -0.838128
2980 1 -5.2772 9.96967 -0.976738 2.09275 1.08515 -7.09764
2981 1 -14.5268 6.00573 14.7552 1.15221 -5.75032 0.715739
2982 1 -12.0788 -7.36294 4.8554 -1.59487 -1.02858 3.79679
2983 1 -9.53986 14.769 -23.831 -3.19328 4.88914 -1.84071
2984 1 -0.300451 1.30818 21.8339 1.81963 -1.41885 -1.35868
2985 1 -13.3161 -13.8283 10.688 2.49038 -1.15087 0.0258961
2986 1 -5.42314 18.3338 -21.0066 -1.1004 0.947356 -0.589125
2987 1 -22.2225 46.5885 -6.76986 4.41044 2.67921 6.65282
2988 1 1.77648 -21.9407 -4.2407 -2.87647 -2.42787 1.66187
2989 1 22.7135 16.8841 -13.7646 -1.88899 2.57858 -3.21383
2990 1 11.357 -18.0601 17.2496 8.05247 -4.04751 -2.95875
2991 1 4.81576 1.66391 12.8787 1.65086 -2.13312 -1.64037
2992 1 21.6288 11.3126 -11.4514 -0.712034 1.47426 1.21438
2993 1 22.7958 15.6399 17.9159 6.7318 0.920193 -0.307698
2994 1 18.241 0.323126 12.3331 2.92273 -2.38512 -1.58983
2995 1 -2.34941 12.8576 -4.6824 1.34858 2.14944 -5.92227
2996 1 8.66763 3.38236 5.50167 2.1094 1.27849 -2.02052
2997 1 -5.74503 -18.8395 4.38005 0.98281 1.72234 3.34803
2998 1 2.40585 -15.6256 14.9484 -0.636279 -0.186436 3.00355
2999 1 12.9761 -19.5654 1.62098 0.37646 -2.20296 -0.823704
3000 1 -1.21296 12.8853 15.9274 -5.85184 1.13162 -1.4611
3001 1 10.1464 14.6874 8.63832 7.11165 -0.30158 -5.79303
3002 1 -20.2228 17.6077 16.8846 1.05116 3.65625 2.53328
3003 1 15.1116 11.9873 11.1846 0.65258 -3.78798 0.790617
3004 1 18.1662 18.5191 -15.9556 1.55922 5.56787 1.74593
3005 1 2.50356 3.08972 -6.65964 5.21457 -0.984067 5.24531
3006 1 20.302 11.8551 -20.2313 1.99127 -3.17194 -1.06245
3007 1 -7.69247 -21.9728 -21.7951 1.98822 -0.17885 -1.71018
3008 1 -3.77006 -20.0362 -23.7066 1.23059 -1.98326 2.38092
3009 1 -14.0529 -22.9767 8.47011 -6.66757 -1.71263 3.59358
3010 1 -17.8716 -18.7917 -15.557 0.957684 0.392629 10.3478
3011 1 -5.52563 -0.971857 -12.2214 0.410064 3.92902 -0.323972
3012 1 1.57114 -22.6884 -18.6093 2.85787 0.472575 -1.68103
3013 1 12.9893 -18.0992 22.5854 -5.7675 -1.36176 -0.502457
3014 1 -24.2602 11.5889 -23.3374 -2.26135 4.17131 1.0623
3015 1 -4.43657 10.9433 7.10702 -3.72489 2.82463 -5.71018
3016 1 18.9753 -14.7432 -19.8458 2.52177 -2.10413 1.93058
3017 1 -15.9711 4.20981 18.8218 -0.788876 0.402298 0.563587
3018 1 -20.8377 -2.58375 -10.8462 -3.33891 3.02744 0.845135
3019 1 -20.042 -20.1895 11.92 -2.62278 -2.24967 2.47247
3020 1 -15.2121 -10.2999 7.33661 -0.0282857 -2.53924 -0.470031
3021 1 -18.3438 22.8721 -3.0412 1.91551 2.76225 2.28093
3022 1 15.5021 -12.4917 -1.23318 2.85751 -1.41143 -1.21676
3023 1 2.44678 17.5797 -1.4289 2.21655 0.937311 -1.80476
3024 1 -23.9251 7.40539 3.61606 -2.84016 1.50804 -0.917922
3025 1 4.85899 -23.2474 9.12015 1.99253 -5.46998 0.587661
3026 1 4.51111 -20.1334 5.61705 5.35642 -1.46992 1.47756
3027 1 14.0728 1.00775 11.4554 0.941601 -3.68889 0.256045
3028 1 -13.577 10.2623 19.6724 -1.13798 1.12645 -0.462728
3029 1 7.3196 3.35992 12.2805 -3.98728 5.10188 0.464687
3030 1 -16.4134 18.5309 -10.6789 0.376312 -1.67976 2.62966
3031 1 -23.9257 -6.1244 -19.5272 0.19906 1.91942 -0.690076
3032 1 17.1454 -11.5477 -6.36949 0.661755 -3.97814 4.82251
3033 1 -12.3549 3.23227 4.62274 -2.31488 4.68927 -3.80216
3034 1 -14.8811 -5.33036 -17.3903 -2.28932 -0.641379 -1.59648
3035 1 18.3887 16.072 4.65695 2.53489 3.36046 -5.22398
3036 1 14.4394 17.9237 22.2225 -1.3158 1.22138 -1.56138
3037 1 -1.65814 -9.97913 7.66342 -1.65268 -0.69218 4.25797
3038 1 -17.3406 -23.8234 -16.3313 -0.158321 -3.18041 -0.145958
3039 1 16.4591 -19.6838 20.028 -3.15107 2.70377 -2.52994
3040 1 4.38313 -19.1161 15.465 -1.3678 -1.9226 -0.921967
3041 1 -21.6143 19.637 1.05298 -0.891323 -3.79601 4.67186
3042 1 -9.53305 20.5695 16.7353 -2.12163 -0.689563 1.03558
3043 1 5.53228 -11.8444 -17.9174 0.365343 3.86708 11.6702
3044 1 -5.84625 15.9081 -4.6503 3.93837 2.81848 -3.40915
3045 1 1.20919 -5.57841 4.22445 0.0983021 -0.194822 0.759802
3046 1 15.3763 -8.07587 -16.024 0.836377 1.59968 -2.08239
3047 1 4.33601 19.3382 7.07613 -4.02384 0.714622 -4.02439
3048 1 7.86701 -10.7864 23.3137 -5.15789 -2.76479 -5.12266
3049 1 -9.9732 -20.402 -15.2411 1.53065 1.069 0.0360825
3050 1 2.41373 -24.3458 17.7167 -0.414049 1.52756 2.08193
3051 1 -16.7346 0.3548 -10.9358 -4.72289 -1.95755 -1.16792
3052 1 -20.5329 13.4384 -14.4871 -5.42958 -5.57071 -2.50404
3053 1 21.8174 -23.2566 -0.249246 5.212 1.60856 1.09176
3054 1 21.666 -3.35687 22.6277 1.06953 -3.00124 3.43735
3055 1 20.7661 1.1666 2.1005 -0.492278 1.26511 -0.358459
3056 1 -23.6486 11.8632 15.2499 5.29381 -1.13621 -1.23558
3057 1 17.3275 7.61137 22.4984 0.186702 0.586351 4.49785
3058 1 11.4978 -5.79442 9.81291 -0.724394 -1.34255 0.774858
3059 1 -10.5901 -23.8603 -6.24508 0.599548 0.302106 -0.649369
3060 1 -21.1768 23.0093 -6.11859 0.611157 -1.24453 1.99561
3061 1 -10.6394 24.8775 -16.3563 0.492666 -1.36597 1.58464
3062 1 -8.16382 15.9103 -17.3313 3.09561 1.98768 -4.79288
3063 1 10.3557 23.0365 -15.4105 -1.62912 -1.55591 3.59181
3064 1 -1.3643 15.4262 -21.5483 -3.46942 -3.41265 3.55032
3065 1 6.85707 -13.909 -12.8656 1.12011 -4.82139 -0.0407429
3066 1 22.9382 -0.613978 -0.271905 2.97857 0.693282 0.981564
3067 1 17.4499 20.9327 -12.7901 0.252572 -1.18614 -0.192566
3068 1 18.3942 17.1714 -2.22345 1.24328 3.98271 -4.60546
3069 1 7.90938 -8.11851 -4.25749 -4.69454 -0.333793 -1.78399
3070 1 21.2228 -9.21431 0.98113 4.11906 3.3832 3.24943
3071 1 -3.7815 -3.29647 -4.9877 -3.43285 2.30357 -1.27848
3072 1 -0.578763 8.68302 19.4679 2.97638 1.17094 -5.41446
3073 1 2.43659 20.2255 -2.39513 -4.81101 -0.841344 5.17981
3074 1 -8.51087 -8.46882 8.36696 -1.41878 2.66866 1.29315
3075 1 18.7359 10.1862 -22.0698 -1.42262 -2.18407 5.43699
3076 1 -11.7106 20.7381 10.3324 1.20443 -4.50099 -0.584913
3077 1 -14.9096 46.8975 -8.73047 3.4226 2.98173 -1.96912
3078 1 -20.7371 7.21455 -17.5559 -2.49635 -0.980181 1.21345
3079 1 12.7036 -5.58642 -5.07787 -1.31886 -1.11178 1.11035
3080 1 -21.0164 11.6491 -8.14827 3.62658 4.81523 -0.996572
3081 1 -18.9032 6.90874 6.05842 1.04118 2.42613 -4.06173
3082 1 -4.45596 3.4067 23.9721 -1.34173 0.768364 3.29053
3083 1 4.19771 -15.3817 -9.61927 2.69941 -0.92552 3.03198
3084 1 -15.9508 -24.2076 6.77525 -4.46736 -0.42899 -1.19283
3085 1 -15.4779 -3.4161 -6.03472 1.58614 -2.50556 -0.730857
3086 1 14.1127 21.5153 2.47783 -0.166714 1.63714 2.11694
3087 1 -10.0357 -23.9723 10.9159 3.21333 0.811154 1.72757
3088 1 10.1415 3.76176 16.1703 -1.77464 -3.63673 -1.78888
3089 1 6.73044 -18.8747 13.8451 -0.132276 -3.7487 0.218529
3090 1 19.0285 -2.78278 -3.67844 -3.05091 0.469249 -0.791175
3091 1 -2.675 1.98676 20.4844 0.62873 -4.91486 -0.61838
3092 1 -8.45891 -7.16226 19.0362 4.00777 -2.92601 1.53087
3093 1 -14.0035 6.01459 -22.8976 2.76734 6.86498 -5.57745
3094 1 13.0598 6.84082 21.2413 -0.59967 3.74938 0.791494
3095 1 -15.6493 -12.8548 -2.65126 -3.55058 -1.14248 2.28468
3096 1 3.10965 4.4945 -22.3129 -0.132643 -0.824793 1.5267
3097 1 -8.50261 -9.54808 -21.0717 0.647686 2.30004 1.2356
3098 1 -10.8232 -18.6352 3.73275 -5.04106 1.34737 -1.8756
3099 1 -20.7794 7.46287 21.5148 0.0706414 1.40574 -0.535005
3100 1 17.2389 -8.06288 -19.0541 2.91088 3.98398 1.29408
3101 1 23.4041 -15.4731 -21.1896 -0.471625 -4.58796 -1.96392
3102 1 3.78419 6.03265 23.3731 1.71321 0.00328442 0.865966
3103 1 -6.55724 -10.8908 -22.6066 0.678407 4.59884 1.59494
3104 1 -21.4541 -7.46261 7.29478 -0.61067 1.4858 7.40044
3105 1 -24.2194 -7.19428 19.8574 0.78522 -2.29034 5.24477
3106 1 0.376849 -10.8846 -5.26825 -2.19817 -0.969847 -5.92017
3107 1 20.5057 -14.2373 23.3021 -0.395685 3.0758 0.0539284
3108 1 10.0713 -17.5736 -5.22425 -0.894421 -0.204929 5.32494
3109 1 4.25587 2.75492 0.388524 3.35927 -5.29679 4.71058
3110 1 4.44562 9.37459 1.43255 -0.78914 -0.924995 4.94048
3111 1 8.82882 -21.8854 -13.2492 -1.06075 -0.337542 -0.937444
3112 1 -0.80776 -13.86 -22.6377 -0.423495 3.04477 1.26926
3113 1 7.92142 -12.0285 -16.2254 -4.97867 1.78719 2.28958
3114 1 2.58234 4.39419 -17.5385 1.89328 -1.07689 4.36719
3115 1 -20.0732 19.4768 -16.4318 0.260743 -2.5168 3.61106
3116 1 -9.85938 16.2092 -0.312425 1.0745 1.40497 3.14336
3117 1 12.5676 -13.6898 -7.63871 -1.00673 0.873974 -2.61427
3118 1 4.72846 5.28394 6.50845 -4.56651 1.81953 1.99316
3119 1 -9.49391 -8.3722 4.28898 3.85761 -1.40086 -2.80712
3120 1 -10.8175 -4.50376 -18.6725 -0.159419 -1.55061 -0.721201
3121 1 -2.82638 -22.4794 16.078 4.40569 1.26734 -3.09314
3122 1 -15.022 24.2297 22.3537 -4.95711 -1.80709 4.15387
3123 1 14.3934 14.2908 12.6382 -0.449429 -1.0943 3.34471
3124 1 -13.7653 11.5862 -7.20095 1.04883 1.11069 2.01769
3125 1 -3.53136 -15.611 -0.858643 5.84596 3.65915 -3.22041
3126 1 3.31675 7.94908 -8.09601 1.91868 0.58882 1.83699
3127 1 14.815 4.57146 4.75528 1.15646 2.05033 -3.91256
3128 1 2.91737 10.9075 -16.1816 -1.96244 -2.80178 4.34688
3129 1 -0.282696 -11.2704 11.1952 1.37354 0.62493 -0.177387
3130 1 23.7191 -9.91594 12.6777 -2.85646 -2.7197 3.94083
3131 1 -9.17522 15.137 2.20476 -3.84775 -1.94487 -3.30107
3132 1 0.39699 11.1622 4.93526 0.778659 -2.23834 2.79307
3133 1 -1.22906 13.2674 -11.8338 1.6767 0.0902671 -3.88365
3134 1 19.7275 7.92825 -2.26093 -2.1621 -5.50277 -0.64883
3135 1 -18.2447 -12.2374 -3.94257 -1.95055 1.07446 -3.62696
3136 1 -17.8744 -22.2776 5.91358 1.98543 1.16105 -0.813107
3137 1 6.47176 -5.83798 -17.8312 -0.386336 -3.20052 -2.60264
3138 1 17.9451 -3.26908 23.6022 -7.24417 -5.27692 1.50056
3139 1 6.93529 10.6351 -11.5879 -1.53383 -1.15199 1.36408
3140 1 0.909102 18.5974 -18.556 0.715659 -1.88284 -3.98499
3141 1 13.5094 -2.74419 -9.50606 -4.70003 3.36343 -1.18169
3142 1 5.87349 24.5426 -19.9438 3.63413 0.913578 5.84287
3143 1 21.9251 23.1895 -21.3876 0.931946 1.72509 -0.763632
3144 1 -3.68817 14.2497 -0.265941 -0.018947 3.69142 -0.765127
3145 1 16.4933 -19.5825 11.0605 -1.47925 1.88738 -2.35695
3146 1 -2.25439 7.89573 -10.393 1.87953 3.16132 -0.450349
3147 1 -0.273052 -18.5083 0.577058 -5.82118 4.42816 5.36421
3148 1 7.76004 -8.41004 6.92745 -5.05886 2.09003 4.53972
3149 1 9.31548 6.70646 -17.9701 -9.52679 -0.596239 -0.951855
3150 1 -23.0359 14.3473 0.606546 -1.17672 0.564365 -0.293965
3151 1 -10.242 -23.1326 -16.1687 5.3255 -2.37471 -3.49977
3152 1 -13.0325 15.8407 -19.8815 0.42079 -3.24064 -3.18074
3153 1 16.5902 6.36902 -21.5201 0.0972337 2.07382 1.38196
3154 1 4.59564 20.5213 4.51814 -6.86116 -1.67514 5.82604
3155 1 -3.72816 -11.9377 2.3869 -5.98561 -0.788949 -1.14083
3156 1 19.5316 -4.04006 8.05806 0.510818 1.08608 -0.116038
3157 1 10.2064 3.38571 2.74581 4.11978 0.490407 2.44054
3158 1 20.9275 -23.1635 -8.63598 -0.283038 1.43442 -1.17103
3159 1 21.3668 5.71731 -7.00739 -0.795925 -3.68875 6.53598
3160 1 -12.7557 -23.1869 -23.2113 5.26084 5.06173 1.79523
3161 1 -10.4601 -18.3228 -6.80145 -2.97863 -1.01105 0.177175
3162 1 -15.0791 -12.4161 -12.652 -0.737928 -0.721125 3.24539
3163 1 22.6084 -0.576893 15.1918 -1.34681 -1.75419 9.43891
3164 1 -20.3491 1.33836 21.2142 -3.01029 -3.07015 2.67582
3165 1 -6.41284 24.0188 -15.0147 -2.88371 4.92551 2.86197
3166 1 16.7601 -8.1956 17.7286 -2.41094 3.20284 -4.24569
3167 1 20.8793 -16.9355 -20.7172 0.0750226 -0.606873 0.986468
3168 1 -16.3051 -21.1006 17.0247 0.874801 -1.29638 -1.34912
3169 1 11.9311 -21.1882 -19.1714 -3.01098 -2.16267 -3.39205
3170 1 5.36581 23.9515 23.3628 -3.03308 2.34793 -4.53124
3171 1 -6.98736 14.9085 -22.8417 -1.57891 2.20259 -2.24138
3172 1 -7.47127 1.59159 6.40262 1.68692 -5.01249 1.48385
3173 1 8.94598 18.1323 11.2027 -0.682795 -3.35556 -2.13597
3174 1 23.2317 14.1625 -9.65331 -1.90996 -2.54352 1.72346
3175 1 21.8483 3.75522 -4.66055 2.90201 0.0972256 -5.106
3176 1 21.0651 3.28265 17.6966 -0.519153 -2.06673 2.49319
3177 1 0.799037 -11.7948 -23.8953 1.66929 0.968544 0.49326
3178 1 17.0672 18.662 13.6104 2.45804 1.42501 -2.22544
3179 1 0.560563 -0.505504 19.7068 -0.122519 0.44956 -0.959611
3180 1 -3.31266 12.5196 4.9153 0.761991 -4.38666 1.71254
3181 1 -19.6229 -15.7428 21.2319 -2.12466 0.183304 0.282841
3182 1 -18.018 46.2805 21.3522 -7.72421 -2.95648 -0.580798
3183 1 22.048 16.4449 -4.69241 -3.60531 -0.270042 -1.32669
3184 1 13.6529 -2.61333 3.29218 -1.80395 -0.44625 -1.14701
3185 1 -15.9565 21.3055 -21.114 3.94187 -2.23343 1.01888
3186 1 -5.05872 20.5116 5.94862 -1.62276 -0.160235 -5.11504
3187 1 -22.1556 -14.2338 1.93015 -1.57198 -1.7152 2.76923
3188 1 -18.242 15.1398 -11.7592 -1.27222 1.88493 -0.153981
3189 1 13.3864 12.0467 8.86741 -1.50212 3.23444 -0.785701
3190 1 -23.9168 19.1553 -15.0312 -1.88358 -3.01641 -2.7842
3191 1 7.63526 -6.10248 -7.60323 -0.495461 -0.204678 -0.550802
3192 1 23.0045 10.3369 0.201292 4.01704 2.81748 -5.45333
3193 1 -18.5136 22.3107 -0.222703 3.50032 1.55661 -1.91893
3194 1 -18.745 -8.12088 1.56267 -3.61239 0.755184 -3.41863
3195 1 -18.0148 -0.337513 2.79021 4.80951 -2.16345 1.7889
3196 1 0.25616 -3.38486 -4.93215 6.05466 0.090356 1.58157
3197 1 -3.86423 9.2734 3.97325 -0.969714 4.2153 0.499844
3198 1 11.9098 4.14371 -15.516 2.55901 -5.8147 0.353918
3199 1 14.0516 -23.8121 7.62566 -2.74142 -4.86424 -3.64059
3200 1 -23.9803 -3.20913 -4.94428 2.8785 -3.92006 1.67744
3201 1 -14.7357 -4.43193 20.2819 -1.59833 -0.393083 -0.926519
3202 1 -20.3104 -12.927 -9.06858 -1.618 4.11598 2.41161
3203 1 19.4615 8.54989 20.1793 4.9308 0.892143 1.6634
3204 1 -16.3854 -9.05889 9.37033 -4.83531 2.74393 4.52086
3205 1 -11.3456 3.17339 -6.04766 -1.69249 4.25151 9.79211
3206 1 15.6883 12.3711 -4.85553 0.550608 0.0655394 -1.6698
3207 1 0.284917 -4.69229 -22.6775 4.20281 3.74148 3.12921
3208 1 7.18 -7.20229 2.08133 -0.333068 -0.224643 -1.99628
3209 1 14.8813 -15.8919 22.9006 -0.850276 1.22154 -1.07688
3210 1 -12.4993 10.4766 -2.08614 -1.99507 0.6029 4.22118
3211 1 -3.08875 20.6915 12.423 4.42172 0.847139 3.0237
3212 1 -12.8876 7.40863 -20.6914 1.09826 0.391991 -0.837679
3213 1 -0.101811 1.30212 -13.392 0.893403 -2.27472 -0.122729
3214 1 -5.12471 16.8476 17.6439 -0.699162 -3.22028 -2.70797
3215 1 10.074 2.22363 12.1846 -3.29522 1.34172 1.74711
3216 1 23.7411 -2.30576 9.82028 0.673197 -0.525323 2.21818
3217 1 9.8901 3.20391 9.43175 -2.42544 2.49931 -4.08445
3218 1 -6.10589 21.4363 -7.67223 3.34341 -7.35875 -0.531038
3219 1 -7.21033 -19.2897 -16.0492 1.77515 -0.577693 4.68689
3220 1 -3.39355 -10.0361 17.7516 -4.43029 2.11859 0.253626
3221 1 -4.56999 -7.56822 -1.53721 -4.0254 1.29448 -1.47277
3222 1 -15.5195 -18.5779 1.39139 -1.1087 3.86594 2.54655
3223 1 23.108 6.7423 18.5649 2.39917 0.0700017 -1.47105
3224 1 -3.29192 -7.68664 0.90733 0.128034 -0.729189 0.844952
3225 1 -9.07091 -6.39418 13.3378 -2.22185 3.61587 0.391785
3226 1 -22.4411 25.8137 -8.4537 -3.06982 1.95111 -0.447394
3227 1 6.43471 22.2715 -3.20371 -2.52526 -0.12268 -0.551673
3228 1 -10.8076 10.7834 -10.38 5.55461 -4.95223 -5.7775
3229 1 -7.63288 1.04013 -5.27968 4.46427 0.460655 3.03952
3230 1 -23.5417 15.5611 -24.0405 -3.06149 0.259238 -0.918959
3231 1 -18.2798 -16.7227 -1.38816 2.37616 1.71912 -5.87593
3232 1 -22.6001 11.7087 5.10497 -2.3126 0.0542654 -0.949214
3233 1 -3.56455 18.0689 8.32187 -1.6917 -3.43892 0.640603
3234 1 8.15362 -7.1897 -14.4311 2.08341 -2.96933 0.164616
3235 1 -6.18088 10.269 -13.23 -2.70733 2.38861 0.406841
3236 1 17.2892 18.5514 8.90363 -1.44067 -2.98611 4.53518
3237 1 -3.99658 -11.8328 24.1457 -1.58923 0.379466 8.56005
3238 1 20.6114 19.7342 -3.94821 4.45998 -3.00805 8.42011
3239 1 -15.306 -20.2403 8.54488 -3.5896 0.211017 5.12235
3240 1 -15.0909 -19.4229 -15.214 1.44952 1.79978 -2.44207
3241 1 0.399931 -20.855 16.8422 5.1324 2.06316 4.02605
3242 1 20.9246 -10.6002 -15.2463 -0.742924 0.746482 -0.808075
3243 1 7.14101 16.878 22.642 -0.243254 3.51147 -0.264654
3244 1 19.7505 14.5421 -13.7353 7.00092 -2.87292 -0.214055
3245 1 -9.07517 22.0219 10.1687 7.85753 1.64571 -2.68387
3246 1 18.2058 2.73844 5.80472 3.68266 4.82378 -0.911463
3247 1 -6.21335 7.48535 -13.3819 -1.73414 -5.00546 1.59862
3248 1 8.41257 4.17394 -1.75094 0.974207 -2.10383 -0.827786
3249 1 9.143 -4.24298 11.0744 -2.59721 -2.80609 -2.16136
3250 1 14.8689 6.7354 -15.8374 -2.8247 -5.84263 3.04655
3251 1 -0.581145 19.5595 13.6872 -2.0207 5.10527 0.0658057
3252 1 17.0417 -22.5265 15.3903 -3.33625 1.28842 0.899169
3253 1 8.56443 16.166 3.40299 4.10633 4.87195 -0.852829
3254 1 22.1632 3.94741 -9.2654 0.0460059 -2.1553 -0.893732
3255 1 -18.8281 13.5843 -18.1456 1.52221 -1.78689 3.80845
3256 1 -5.66892 18.8553 -9.15375 1.91075 -0.428652 1.11877
3257 1 -11.2409 5.2884 17.3492 -1.98056 -1.66318 2.47587
3258 1 -19.3537 -7.70923 18.9498 5.4649 -1.83198 4.1138
3259 1 16.1088 19.4532 3.11171 2.74611 1.757 -5.65225
3260 1 18.7642 45.4931 -6.38711 3.72201 5.10196 -2.54427
3261 1 -13.3377 -0.541292 -16.4665 0.0861705 1.62923 3.03896
3262 1 10.2567 7.107 12.2119 -5.81854 0.761126 -1.84514
3263 1 22.5809 3.63631 20.3741 -0.531053 0.599949 -1.05757
3264 1 8.44942 9.61465 23.749 1.25572 2.85889 0.798613
3265 1 6.0535 -8.85304 -17.6045 0.0850378 -2.03351 -0.49857
3266 1 10.4293 -1.41873 22.0362 -3.0914 2.17989 -4.26764
3267 1 -17.6646 8.3972 -0.832511 -2.79853 -5.57887 -1.75647
3268 1 6.98796 -21.5799 9.97865 0.376073 -0.349965 8.91087
3269 1 5.29871 19.6785 -2.45006 3.29251 -0.695455 1.7248
3270 1 17.0348 -14.8093 15.1723 -1.36386 0.103524 -3.39594
3271 1 9.6698 -10.7491 19.9253 1.36358 -1.57069 0.922182
3272 1 3.20533 10.0978 -5.76675 -3.63791 2.15178 3.67221
3273 1 -15.4875 9.57676 -13.8202 -3.25428 -4.57164 0.90356
3274 1 11.4364 -20.532 6.75941 0.973715 -2.37324 1.94715
3275 1 20.0964 6.75692 11.1989 3.97217 -0.452224 -2.98448
3276 1 8.60051 1.64565 14.4042 1.00984 -0.49937 7.44093
3277 1 -1.20702 -16.81 2.55235 -0.515949 -2.0032 -0.940412
3278 1 -2.49319 -5.51324 22.1681 -0.349573 5.84905 1.56435
3279 1 7.88805 -1.84757 20.0824 -0.105114 -0.531037 5.53683
3280 1 9.20311 17.4892 13.9512 0.465279 -3.40908 0.861089
3281 1 -4.48042 -13.8047 10.2582 1.14622 6.51034 -0.798767
3282 1 5.53651 -1.22632 -13.7409 2.25291 -1.13517 -1.75736
3283 1 -2.52226 -0.0876565 14.1003 -2.33302 -0.586659 -2.13953
3284 1 15.7094 24.7019 -19.0939 -1.02728 -1.49973 5.30958
3285 1 0.0839172 19.4109 -12.2023 1.72331 -1.87396 6.68783
3286 1 -17.3068 17.5378 2.93254 0.264443 -0.00128879 -1.57538
3287 1 -3.34825 -16.884 16.5986 1.99099 -0.745436 1.19709
3288 1 1.73045 7.85089 -17.9468 -2.49882 0.575874 -1.71087
3289 1 -17.1533 -23.6985 10.1168 2.84981 -5.89645 2.92169
3290 1 -14.592 20.7985 16.8835 -0.0760777 1.17646 2.86494
3291 1 22.1572 23.6975 -11.6714 4.13549 -1.65045 -0.0805369
3292 1 -22.042 22.9093 3.06943 0.079369 0.184081 -2.88322
3293 1 -10.5375 12.4024 22.763 -2.60297 -0.380899 -1.54148
3294 1 -21.0168 3.10099 -15.6904 -1.46009 -5.15138 -0.145964
3295 1 5.84629 -24.1109 -0.287842 -4.15909 5.35864 -0.248256
3296 1 -15.5549 -13.0947 18.4613 -0.553999 -0.779235 -0.731396
3297 1 -19.2639 22.0398 -23.6627 2.03901 -2.55752 -1.65293
3298 1 5.33114 -8.8835 -20.4616 0.506898 -2.24183 -5.96867
3299 1 -13.6313 23.8865 -5.77573 -4.39642 1.62485 4.44527
3300 1 -2.5018 5.20942 -9.57972 -5.37685 -4.6365 0.779662
3301 1 -24.4657 8.53024 -8.33874 3.56441 2.32265 -5.12809
3302 1 -18.0764 -11.4776 23.8948 -1.55936 1.7401 -1.68151
3303 1 22.6006 -24.3175 -14.9393 2.05456 -1.81817 -0.922722
3304 1 -0.617959 16.8466 14.9638 -3.66079 0.153366 1.04016
3305 1 1.47027 6.68201 -4.64576 0.312341 3.31579 3.78511
3306 1 -8.65819 11.5947 -22.2987 -1.8706 -4.51782 0.443856
3307 1 -17.328 11.8506 22.1307 3.57246 -1.46742 2.64468
3308 1 -15.4263 18.7214 -3.66683 -0.879166 -1.65511 -3.33279
3309 1 3.3059 -0.319156 11.4563 2.84107 1.77057 3.2271
3310 1 17.1993 22.9207 6.26651 -5.79945 2.37467 2.9346
3311 1 8.85698 1.70934 -10.1556 1.98384 0.608759 -0.831038
3312 1 -23.9959 7.62713 13.3827 -4.4256 1.98788 -4.31627
3313 1 14.2808 10.0029 13.0203 -1.02111 -2.053 -1.34665
3314 1 0.471847 -3.07132 10.6424 -0.961618 -2.46337 0.469992
3315 1 21.1913 -13.3186 -18.7653 -5.37057 -1.87828 -0.706962
3316 1 2.62925 -6.25659 -9.18548 1.13861 7.97638 -3.92876
3317 1 2.68535 0.363846 4.72862 -2.74038 -0.864636 2.00978
3318 1 -12.0968 -0.807497 14.8115 3.59001 5.93439 -0.381209
3319 1 1.17027 0.450515 -15.7979 -2.40867 -0.548848 -1.06402
3320 1 5.57597 2.5587 -13.2714 0.146992 0.223988 1.49964
3321 1 -9.4792 -17.5621 19.7291 -2.27919 1.12175 -2.07427
3322 1 15.6761 -11.9661 -22.5839 0.647738 0.535322 -0.290957
3323 1 -2.55253 18.2743 16.9107 -1.53438 -1.87259 -2.91696
3324 1 9.27552 -18.7322 -9.61104 1.09296 1.93888 1.13149
3325 1 -10.5632 15.0542 4.82352 -4.41638 -0.29605 0.303666
3326 1 23.3132 7.3729 -20.933 -1.52025 -2.0631 1.58939
3327 1 8.71789 -23.5388 -7.42344 2.50773 1.21799 -5.98548
3328 1 -1.0161 -16.6046 -10.9967 -2.1311 -2.75488 2.87741
3329 1 12.4655 7.89441 -14.6288 3.1621 -1.54549 -7.25684
3330 1 -8.79271 18.1546 -15.2223 -5.1061 2.083 -0.131267
3331 1 -20.0914 -3.25095 -2.07228 -0.710525 4.36577 2.98022
3332 1 -4.86763 7.24589 21.2047 -4.77353 2.62002 2.66079
3333 1 5.60194 -8.66952 22.9702 -1.63931 -0.68397 -5.24872
3334 1 -21.1692 20.4682 16.513 -3.09351 1.67276 -3.3009
3335 1 20.4122 1.55844 -3.72655 5.90008 0.820329 -0.925884
3336 1 13.2179 -15.8964 2.67595 -2.75561 -1.86171 1.83749
3337 1 -13.2073 10.9976 10.205 -2.93456 3.04547 3.39797
3338 1 10.5015 19.113 16.4835 -1.29338 1.58845 1.45621
3339 1 11.2623 16.7731 -20.773 0.505267 3.09659 -3.26202
3340 1 18.6767 0.846123 -20.9378 2.39484 1.00157 8.50342
3341 1 21.5232 20.5913 -14.7213 0.829035 2.13098 -1.47225
3342 1 -1.08266 1.98212 3.58703 -3.56709 -0.470087 1.28085
3343 1 -23.1621 -3.98357 -15.1024 -0.389222 1.455 1.03144
3344 1 15.0139 -18.7126 17.7201 1.24222 -3.85178 -2.51803
3345 1 12.8336 22.3175 -23.1879 -4.27379 -5.44773 0.314392
3346 1 10.4776 -23.931 1.29386 5.927 1.36576 4.41399
3347 1 -23.6953 12.7444 -14.4751 -4.30929 5.01066 -0.630203
3348 1 -10.6559 -19.4341 1.14697 2.26827 1.95958 -6.52806
3349 1 15.4659 18.5918 -12.9098 4.44676 -1.21143 4.38955
3350 1 -4.97357 -6.18794 13.279 -0.480783 -0.35979 -2.21491
3351 1 -21.2877 -10.2408 15.2955 -1.24547 3.5625 5.43521
3352 1 4.91802 15.5707 5.3662 2.84081 0.427058 -2.33115
3353 1 -22.5131 5.00605 19.1148 -4.47773 2.82812 0.535674
3354 1 -14.7744 7.60091 -0.936303 2.40795 0.813654 0.777149
3355 1 -17.8323 -21.0402 -6.52019 2.15556 -0.0877607 -5.55827
3356 1 -10.246 22.2609 7.30533 2.98123 -1.38695 -4.69838
3357 1 7.99198 -6.65804 22.7829 2.0356 -1.90476 1.10663
3358 1 -2.82767 20.7371 15.4701 2.19018 -4.49132 -2.06279
3359 1 -5.32243 22.4227 13.3332 1.78501 1.54753 -3.6769
3360 1 -6.50295 -15.296 15.9034 0.990587 1.64795 2.58039
3361 1 -5.46201 23.7033 10.7092 -2.12036 -9.32519 1.71814
3362 1 -5.94023 3.86778 -15.8016 -3.21458 1.68704 3.08115
3363 1 12.3384 -3.16983 -13.5076 -2.705 -1.57687 1.16277
3364 1 -21.067 -7.41315 0.0706419 3.08826 2.16392 3.15062
3365 1 1.92938 -9.74053 11.9122 -2.32321 -1.68638 -2.39861
3366 1 -21.0122 -23.2637 -19.1257 -0.432084 2.62348 2.10727
3367 1 1.19018 -18.5675 -18.895 -0.0473872 -1.89568 -1.21548
3368 1 20.3976 -20.5007 18.0747 -0.0494635 1.24211 -5.52475
3369 1 -4.19139 -2.53107 -10.198 -2.92364 -0.196768 -1.30769
3370 1 -18.8211 -15.248 -13.721 -1.26186 -3.93685 1.10774
3371 1 -6.5832 4.35135 12.2643 0.492259 -0.000881049 2.88855
3372 1 5.78737 -4.17354 -8.60913 -1.16416 -2.1978 1.66078
3373 1 16.6978 -5.91349 20.4163 1.5328 -2.04716 -5.20719
3374 1 22.5006 -12.6751 -21.2725 0.390352 -1.691 -2.24814
3375 1 17.3455 -11.2185 1.59098 3.46404 0.513975 -3.07771
3376 1 -16.109 7.2903 11.2751 -1.74218 -1.61561 -4.23422
3377 1 4.65112 -10.4964 14.3857 4.74679 1.23948 4.95319
3378 1 -7.84918 -18.1849 -1.53083 3.53984 0.681054 7.36002
3379 1 9.3717 -6.19533 7.84735 1.77838 -2.49182 -5.16364
3380 1 -0.376552 19.5784 22.8379 3.06868 1.75796 -3.56092
3381 1 -4.6298 -16.756 -21.7431 -1.11542 -2.85036 2.52952
3382 1 -20.6557 13.2915 17.7607 1.90304 -0.37402 -1.84757
3383 1 -20.0996 25.4967 -17.8086 -2.10198 0.346095 3.24496
3384 1 14.802 -20.2104 -13.1895 3.03073 0.426411 -3.45184
3385 1 -5.27563 -19.3386 -5.28429 -5.14027 -1.51568 0.789577
3386 1 12.9937 -11.0576 -21.9279 -2.90423 0.902772 -4.39242
3387 1 -19.8981 -3.10512 1.06829 2.51521 -3.09172 1.64348
3388 1 -18.739 -2.99231 17.649 -1.89748 1.92303 4.69253
3389 1 -11.5754 -11.0247 -12.8053 1.30904 -1.02906 -1.50713
3390 1 -23.199 -22.2601 14.2126 -0.548268 5.73174 -1.41068
3391 1 -7.92235 -10.8146 3.57894 2.87847 1.91832 1.3575
3392 1 -6.92129 3.34148 -18.3755 -2.86347 -1.71608 -0.986973
3393 1 -9.97988 16.3368 -19.7751 -1.55061 -0.678746 -3.11202
3394 1 -12.253 -2.87107 10.3044 4.4959 3.16822 -1.74089
3395 1 12.3707 -15.8907 10.3131 -0.0253768 -1.22148 3.24129
3396 1 -19.634 5.66416 -6.74832 -2.62473 1.99165 0.416323
3397 1 -4.15498 1.86681 17.6995 2.47786 1.80624 -0.790786
3398 1 -7.28827 -21.1196 -5.709 2.25272 -0.849927 2.56887
3399 1 1.53106 -2.78602 3.38235 -4.30744 -4.62839 0.230649
3400 1 16.7004 -22.0884 -20.4675 -1.76417 -0.939158 -0.621239
3401 1 -21.6315 -23.4793 -12.9617 -4.33192 0.337212 1.65191
3402 1 13.2162 -17.9307 -17.3146 2.30646 4.51858 0.422389
3403 1 -14.0779 -22.4214 0.326356 0.0361271 -6.41171 -0.72354
3404 1 -16.9469 -9.1344 -0.789718 6.88295 2.00486 -2.55085
3405 1 15.0818 4.83637 12.1113 -0.316755 -5.55942 6.15923
3406 1 4.07937 -3.14937 4.93087 4.03669 -3.25067 -3.16933
3407 1 9.95406 0.626959 -12.584 0.484918 2.08929 1.64048
3408 1 -17.7484 14.4129 -23.0746 -2.37942 -4.21813 -0.290505
3409 1 -5.48299 -18.9795 18.9743 -7.15867 1.49027 -0.542208
3410 1 -20.4947 -9.24587 12.7584 0.130871 -1.43117 2.57686
3411 1 -5.41509 -4.3349 18.653 -3.09284 0.729148 -2.72221
3412 1 5.71466 -5.21884 -11.3399 0.251517 0.375607 0.984907
3413 1 -2.83381 -16.4613 -17.7904 3.48443 0.149857 0.342652
3414 1 -16.0811 4.15306 -8.88366 0.453219 2.58129 2.07641
3415 1 -17.2497 0.458286 -14.0169 -0.49787 -2.55746 -4.83331
3416 1 22.013 -23.132 -6.00848 1.32573 0.310037 1.90757
3417 1 -22.1688 -11.262 9.74269 0.482161 0.458292 -0.459653
3418 1 22.028 18.2043 13.6519 -2.35823 3.76214 5.5889
3419 1 -11.0035 -11.0983 0.945506 -2.05374 0.980006 1.50856
3420 1 -19.5464 10.257 7.49839 -6.07051 -0.185468 1.67371
3421 1 10.4294 16.6601 -12.9271 2.53393 -1.88043 -0.112818
3422 1 7.40203 -15.2067 -2.63174 -5.27314 -0.348464 0.273509
3423 1 -11.9003 2.90436 0.267344 -0.509438 -3.43055 0.120972
3424 1 1.85615 -5.94111 0.433596 2.75785 -1.40718 2.03476
3425 1 21.9488 -10.8802 17.7035 -1.91221 1.74837 0.878404
3426 1 -20.6296 -5.92676 4.5559 -0.288982 4.86999 2.06398
3427 1 23.5352 13.0223 -17.0083 6.97609 1.97329 0.118031
3428 1 -6.01978 14.8551 15.6606 -0.136124 2.20984 4.37667
3429 1 3.75478 -16.781 17.0496 -0.869602 -4.46505 0.323597
3430 1 -12.1198 -16.0211 19.5735 3.46623 1.72142 2.52378
3431 1 -8.83065 -3.70777 -1.406 -2.20857 0.477699 -0.598725
3432 1 0.0787158 9.72043 9.86 -2.90521 1.74421 -4.31196
3433 1 -7.49143 0.37904 -22.2581 1.11105 0.11099 0.460375
3434 1 14.5719 19.8778 -7.80232 -3.6778 2.5265 -0.229695
3435 1 -4.38901 21.8719 -14.5692 2.10229 3.83803 -1.67738
3436 1 -4.05549 9.15633 15.7686 0.267039 1.53982 -0.801578
3437 1 13.3873 16.1766 -6.74009 -2.26471 -4.66531 4.92422
3438 1 -21.0579 7.20739 0.212112 -8.0012 4.20419 -1.73959
3439 1 2.2651 -13.8736 12.8622 2.20654 -1.40623 0.658561
3440 1 2.38553 21.5336 -8.05576 0.379261 -2.85391 -2.23952
3441 1 6.79335 -16.06 -5.28468 1.67581 3.91808 1.58369
3442 1 -8.12202 0.811024 2.03709 -0.509442 -0.0909345 0.282873
3443 1 20.528 3.43201 0.161475 1.91505 -2.66229 2.7539
3444 1 -17.5782 13.6179 2.66265 -0.66341 -2.69149 -2.14177
3445 1 -10.4327 2.64059 -12.8434 0.868975 -4.92703 -1.28173
3446 1 -3.92537 -20.2877 -17.3786 1.31185 -1.94958 3.06029
3447 1 -5.50755 4.8054 -8.91911 1.47612 2.73724 -0.815145
3448 1 -19.8134 2.86095 12.1796 1.73781 -1.58461 -3.26497
3449 1 6.90108 24.1246 -17.4811 -5.297 0.908928 5.36374
3450 1 -4.13838 -13.3689 -14.5609 2.4253 -2.77649 -4.7599
3451 1 6.55888 -13.2228 -20.4589 0.21 4.41318 -0.465075
3452 1 -9.04899 -1.0723 -11.1348 0.860884 0.369747 -4.89856
3453 1 14.5486 10.449 -20.6136 1.36081 -1.91514 -1.40858
3454 1 -22.2668 19.642 10.6602 -2.66189 2.55681 0.787246
3455 1 -19.5088 15.3858 20.8059 2.4188 -1.92499 -0.695636
3456 1 9.54236 23.4143 -18.0902 1.16422 2.3237 0.715573
3457 1 22.4236 16.3618 22.3269 -0.140954 2.98449 4.399
3458 1 13.7973 6.5921 -21.9905 0.722876 -1.39123 -0.730463
3459 1 -2.56538 19.6023 19.4385 0.971361 -1.44969 -1.14542
3460 1 -1.28886 21.622 17.7732 -4.09688 -2.59122 3.77274
3461 1 -12.3972 -23.9239 19.767 -1.60908 0.934025 -0.791143
3462 1 -10.7271 21.3788 -8.09971 -6.38167 0.364303 2.25391
3463 1 20.5342 8.05909 -21.8257 -0.277831 0.256599 1.18237
3464 1 -14.6636 -19.7284 11.3698 2.43536 1.48682 -4.21727
3465 1 0.92751 -5.79476 9.92557 1.62626 4.8732 -1.11411
3466 1 -7.39524 4.4563 -6.84111 -4.72267 -1.44207 -1.28509
3467 1 10.864 12.2636 15.2698 1.75051 1.9156 -5.57216
3468 1 -7.69736 -7.34507 21.7674 -2.76265 -3.13194 -0.342419
3469 1 -0.634903 -7.54661 0.122055 4.21909 2.00804 3.511
3470 1 -16.7298 -21.2005 -9.40819 8.28453 0.807782 1.44197
3471 1 -16.8141 -18.9417 -18.3995 5.33087 0.467257 1.56541
3472 1 -12.3536 8.0219 -17.0323 0.82026 -0.797376 0.894543
3473 1 -23.9932 23.6501 -19.6137 2.48617 0.0814176 7.34759
3474 1 18.4481 -5.0953 12.5161 -0.265556 0.797931 3.3522
3475 1 -23.6452 -12.3985 18.3592 -7.27745 2.19156 0.846377
3476 1 3.54722 13.5865 14.7789 2.93426 0.800527 -0.204637
3477 1 -19.1355 -3.16359 -13.3572 -1.29471 -0.457876 -0.412584
3478 1 10.4702 -13.0046 3.5658 -4.36551 -2.80069 0.411469
3479 1 16.0941 -8.04859 9.4244 -1.94436 -1.53105 -1.93965
3480 1 -22.8555 25.66 -3.36288 3.83223 -3.53731 2.33819
3481 1 2.02461 -24.2025 -23.1507 -4.43157 -2.22928 -0.478345
3482 1 16.9306 19.531 -1.43892 -0.226073 1.58436 -1.51388
3483 1 12.8657 23.0163 0.00654424 2.00023 -0.816946 0.647083
3484 1 2.55309 13.0559 9.31541 -2.74385 0.731016 -1.39455
3485 1 1.00498 9.47512 -4.17084 -2.76024 0.352856 1.78326
3486 1 16.0681 22.7042 16.3123 2.42191 -3.37639 -0.214042
3487 1 10.1368 -11.3047 -11.1644 -0.931963 0.674116 -4.21018
3488 1 17.2746 16.5643 -12.298 3.4276 0.953877 0.20102
3489 1 19.2382 -0.640581 -7.04427 3.05122 2.29989 -5.11317
3490 1 -18.3291 4.37416 4.9035 2.93047 2.13526 6.04587
3491 1 -10.48 9.5879 -23.5317 -4.62812 -1.14025 -0.238427
3492 1 19.1978 -2.10084 2.95143 -1.02234 -0.587227 -2.52926
3493 1 2.46079 14.0475 17.2535 2.63421 -4.68076 0.370286
3494 1 -14.0548 2.61659 21.8591 -2.5667 0.303459 0.824681
3495 1 -21.8806 -5.12887 17.1256 1.73082 3.89483 0.27317
3496 1 -10.1883 9.49205 -18.0821 -1.59679 1.0663 -0.808926
3497 1 -17.5625 10.7923 19.1403 4.32891 1.95728 3.41811
3498 1 -16.4111 12.9242 5.33934 4.53401 -0.50929 -3.06202
3499 1 -22.6509 21.1865 -19.7682 -1.38873 3.29422 2.39236
3500 1 19.592 15.7693 -7.77979 -2.33224 0.706123 -1.81145
3501 1 -15.5972 18.2262 -7.90685 0.877534 -4.43754 4.42532
3502 1 -6.99114 23.1374 -4.07148 3.95905 3.5492 0.720453
3503 1 17.4493 -23.6856 3.25334 0.376647 -2.33754 -2.08131
3504 1 15.9989 -0.36544 0.833479 1.85545 -2.86744 2.36556
3505 1 3.26114 -13.8329 4.15959 -0.398038 -1.88926 -0.950994
3506 1 -23.1217 15.7784 -4.74819 -11.2521 0.173622 2.94594
3507 1 8.22321 7.42333 -9.3159 3.36668 -0.289337 1.50786
3508 1 0.311011 -11.8034 -20.804 -3.88132 -0.365032 -0.819304
3509 1 -21.5791 -21.5647 -23.7223 3.39335 4.33169 -5.7771
3510 1 -10.3974 5.53204 13.5738 0.453567 2.78257 6.35616
3511 1 13.4306 11.5812 -3.27921 -3.05278 -5.13169 -4.70411
3512 1 -20.9551 3.55113 5.24859 2.74936 -3.59584 -5.32071
3513 1 -21.5824 -21.5229 -17.1402 1.14957 1.69602 -2.1816
3514 1 -3.76582 18.7891 -11.686 -0.417993 -2.49921 -2.33865
3515 1 13.7933 -18.6248 10.6817 3.95446 2.83919 -0.781964
3516 1 -19.594 5.11009 -19.0045 8.50547 0.968727 -1.47551
3517 1 -7.19224 20.7341 19.6249 1.4356 -3.02752 -1.4737
3518 1 -0.861363 -1.2827 0.21955 0.242614 -0.246418 -0.573377
3519 1 -5.32608 5.84183 17.3437 -0.933356 0.220767 1.0752
3520 1 -5.27968 -13.9067 22.5573 1.72735 -1.31225 -1.37198
3521 1 2.64164 14.6251 -14.3393 2.25042 1.39259 3.3128
3522 1 20.7304 19.5079 23.5857 1.01716 2.79445 -4.62212
3523 1 -13.1152 -19.3772 7.21789 -1.50179 5.20435 -2.33213
3524 1 0.751034 24.7928 -1.15529 2.68039 -1.68744 1.11962
3525 1 -15.7203 15.046 -21.0283 -1.79996 0.215769 -2.816
3526 1 10.8597 18.6238 -6.37911 1.33646 4.9954 2.60692
3527 1 -1.85786 13.5179 7.19995 2.64445 2.64302 -2.70736
3528 1 -22.3897 -23.698 -1.82814 0.10217 5.45455 3.9904
3529 1 -18.595 8.77103 17.2922 -3.66661 -0.885801 -8.44441
3530 1 -10.9843 11.0065 5.90392 -2.26396 5.52281 1.58852
3531 1 2.59143 9.06904 20.9318 0.6367 -3.07052 0.673534
3532 1 -8.39124 13.2615 -7.4606 -6.41405 -4.78423 -0.715009
3533 1 14.5928 10.0141 4.16686 -3.86178 -2.49258 -2.28774
3534 1 5.42026 -4.43229 20.2847 -0.866823 -1.48799 5.3826
3535 1 10.4324 -22.9331 -15.4081 -1.08675 4.81597 4.06426
3536 1 22.2677 -16.8712 8.06544 0.230371 -2.92628 -1.7195
3537 1 20.6483 23.0498 18.5779 4.6194 -3.23702 -1.15737
3538 1 4.92251 -6.19016 16.7794 3.87915 2.95888 0.743987
3539 1 13.9188 23.3681 -11.7963 -2.60907 -0.332848 0.995087
3540 1 0.27591 13.4101 -3.60051 0.142924 5.71242 3.56285
3541 1 15.1604 -0.581515 -23.3694 -2.72113 4.47285 -2.38871
3542 1 21.5521 -0.855646 3.86958 2.32741 -2.55458 -1.13366
3543 1 -17.0369 13.9372 -6.37361 -2.57018 -5.03439 6.2128
3544 1 -9.88281 18.9171 -4.40436 -0.0570533 -2.37534 3.46372
3545 1 1.99786 20.3501 14.517 3.13676 -0.942659 1.47613
3546 1 18.396 13.8799 -9.63599 -4.84231 -2.11552 1.13875
3547 1 5.39401 -17.9087 -8.99851 3.87999 -3.75066 -6.62872
3548 1 9.37735 -14.4315 -19.5975 3.36309 -2.21941 -1.5
3549 1 -11.6779 8.1196 6.03929 -2.188 -2.65582 4.27965
3550 1 -15.5548 15.2842 8.99494 6.1413 -0.204852 -2.17417
3551 1 12.9669 2.66665 -19.9981 0.594947 1.04819 -1.31934
3552 1 15.0843 18.5701 7.04804 -2.13862 7.28555 -0.653619
3553 1 -10.3304 16.0846 -4.09507 2.32439 -2.60009 -2.87022
3554 1 14.7723 13.7695 -12.0329 -2.5182 0.573588 1.8555
3555 1 -24.6136 -19.9208 1.74793 -1.4673 -0.706283 0.234842
3556 1 -7.98828 -15.1121 19.1638 -0.0836428 4.76818 -2.89191
3557 1 8.06799 4.79736 -19.7807 -1.91023 -1.1454 -1.0422
3558 1 -18.8684 -13.8338 -0.418916 2.61685 -2.04195 -2.06844
3559 1 12.2786 -5.54104 12.3934 1.64736 0.628923 4.19094
3560 1 -17.975 17.7292 -17.8843 3.17127 0.544831 3.59239
3561 1 -20.4431 19.0587 5.69217 1.88153 0.981868 4.24136
3562 1 17.2276 11.3659 0.581662 0.379423 8.36511 2.13384
3563 1 3.09069 -23.5711 -6.20936 -1.88722 -0.0508674 -0.911819
3564 1 19.7662 11.872 -13.5092 1.57066 2.73159 1.63547
3565 1 15.9022 -21.014 -6.61298 0.545604 -1.11359 -0.976246
3566 1 -11.847 -16.1027 4.37948 1.37897 2.21437 -2.81137
3567 1 2.93325 -9.90365 7.46609 -4.99616 1.11599 -3.01187
3568 1 18.2179 1.28696 14.9726 -2.15008 -0.21863 -0.424183
3569 1 -3.98381 3.4344 -13.5004 -2.14874 1.12565 2.23613
3570 1 13.4689 20.9159 22.2999 0.157043 -3.8799 4.66344
3571 1 2.99914 25.5187 12.6575 5.94121 0.0982641 1.51668
3572 1 -14.4941 -17.2468 -18.4272 -1.50005 -0.474358 -3.34711
3573 1 17.2769 -4.58439 -1.63243 0.88483 -0.576689 0.858612
3574 1 -14.3745 -3.19052 -12.9398 -2.84002 -4.16842 1.53013
3575 1 -11.7922 -12.3676 -9.9701 -3.02882 -1.37952 -5.20427
3576 1 14.7588 3.21918 18.2737 2.27202 -2.05909 5.10507
3577 1 -8.73603 6.76246 -5.74177 -1.23021 0.508353 2.61952
3578 1 21.0926 6.25921 20.4205 2.86624 -2.5835 -1.25803
3579 1 -18.5114 -13.3667 -6.84941 0.0133812 0.649369 3.37693
3580 1 -1.00295 -12.6769 6.28899 2.03811 -4.99154 -5.55924
3581 1 -13.4692 10.2199 4.65431 -0.713836 0.362052 3.17151
3582 1 -15.1937 -23.5232 15.6138 -0.491075 -1.35268 1.97137
3583 1 -16.6 17.2429 7.28432 0.773615 6.22793 -1.46893
3584 1 9.22751 6.89658 22.439 -1.19548 1.28276 -0.615462
3585 1 10.5831 -2.00441 9.89027 -2.34555 -3.50831 -4.43389
3586 1 16.4175 -1.97907 -8.75275 4.39539 1.2105 -0.49364
3587 1 -24.2708 -12.8513 -17.0064 1.22762 0.382161 3.89457
3588 1 -22.3642 -6.76596 -9.82999 -0.354269 2.16089 1.30379
3589 1 -12.3566 2.46092 -10.6896 -4.50219 -3.57603 -0.242225
3590 1 12.1721 3.05178 -4.09013 -7.86865 0.709052 -1.45227
3591 1 -7.71367 -10.1961 22.9967 -5.01245 -0.872234 -0.562118
3592 1 -8.45879 -16.0469 -5.50006 -2.67623 1.58326 4.97686
3593 1 14.2031 -6.78231 -13.6453 2.39136 -3.78848 -0.554379
3594 1 12.1606 0.978398 5.66206 1.82642 -1.59455 -2.78429
3595 1 -2.14412 -16.9152 7.04614 -4.51668 2.85123 2.12203
3596 1 -5.96978 -11.3851 -8.69661 -5.09931 0.284522 -1.26399
3597 1 -4.68514 15.0541 5.46337 1.29149 -0.533041 3.8165
3598 1 -16.0041 -11.714 -7.30105 -2.30698 -3.57478 -0.492918
3599 1 14.9796 13.9064 -7.55884 -0.00323823 -3.69295 0.328339
3600 1 -18.3609 22.0376 -8.26258 -2.60475 1.02228 -0.0272073
3601 1 -21.0654 -12.7771 -5.0007 -3.70715 0.108188 1.37558
3602 1 2.70605 25.2046 23.8791 0.955794 -3.5918 4.45943
3603 1 -4.7155 -2.24882 8.82028 4.15784 -0.69767 0.990021
3604 1 10.2899 12.4091 -21.9358 -1.95435 0.418017 -0.638298
3605 1 19.6034 19.7887 13.0488 -6.53326 -1.88704 -0.400288
3606 1 4.6161 6.75837 -12.1553 -0.827453 0.421424 4.24187
3607 1 -18.8449 4.91971 17.6315 1.87969 3.77992 0.707276
3608 1 20.3201 22.4229 -16.4177 3.50047 -3.40113 -2.48165
3609 1 10.1219 -12.7857 7.64222 -1.23113 -0.707449 -0.107503
3610 1 14.2133 10.6676 -23.4549 -0.195461 1.59105 -1.57413
3611 1 -16.9375 20.8043 -14.8275 -1.16865 -0.505812 -5.26424
3612 1 0.731992 16.2117 -3.19063 2.81125 1.11867 -0.949884
3613 1 1.10916 24.3321 14.566 3.00825 3.29705 0.0431613
3614 1 -0.675406 -5.82881 -5.49742 1.79509 -0.600627 -0.938751
3615 1 2.69322 19.3373 1.10125 -4.85968 1.38292 -0.749426
3616 1 -10.8845 -10.9518 21.0237 -4.0689 2.57213 -1.23351
3617 1 14.5695 0.474213 -18.7329 5.30806 -0.473723 0.0413843
3618 1 0.569455 -8.43008 -8.49725 0.892824 -3.09465 1.38506
3619 1 -0.555716 18.8396 8.15871 2.63699 5.43687 0.329053
3620 1 -2.93809 14.6075 -9.98657 -4.26327 4.80621 2.00519
3621 1 -11.23 13.1248 12.6188 6.65891 0.61252 4.51163
3622 1 7.03462 -12.0223 11.2571 2.01869 -4.03585 -1.432
3623 1 10.7299 -1.21706 17.6626 3.43979 0.361839 1.5922
3624 1 20.4754 -8.61239 3.57464 -2.4315 -1.76336 -4.82708
3625 1 9.71321 -17.3035 20.9046 -3.32176 0.533007 -1.95492
3626 1 -13.5718 4.45878 -7.2933 -4.34828 -1.89078 -1.2808
3627 1 -7.53119 19.6704 9.75225 -2.39183 -3.47862 1.71269
3628 1 9.63995 0.393038 8.88319 -1.43178 1.62486 0.638371
3629 1 -2.68266 -0.228282 2.24011 3.22117 -2.59609 3.21459
3630 1 4.21548 -12.0612 -0.0138326 -3.33046 1.367 1.70298
3631 1 4.41772 10.7145 18.4015 0.925681 -5.02312 1.93015
3632 1 -14.6541 -15.2597 12.8809 0.501322 -1.6262 5.5124
3633 1 8.43332 6.99804 -5.12056 -1.11091 3.6313 3.86698
3634 1 -0.959693 4.64451 8.24093 3.14124 -0.370384 -2.43492
3635 1 0.631831 -15.0005 -20.2121 1.60194 3.23498 0.892324
3636 1 2.02128 -18.8401 -13.3663 1.57163 -6.28056 3.93423
3637 1 -3.62269 12.7746 23.2699 1.24385 -1.08641 1.80632
3638 1 21.6886 -8.87079 19.7836 1.26115 0.705841 0.462877
3639 1 7.68215 -17.8333 5.93138 -1.4178 1.15015 -1.04816
3640 1 17.6435 -19.1749 -10.2922 0.818593 1.68262 -2.41463
3641 1 3.42488 12.985 21.8398 -1.57497 -1.583 4.78209
3642 1 -3.07733 -15.4721 4.53843 0.0208867 0.457978 6.43233
3643 1 -0.243056 3.5998 5.71971 1.76865 -1.95927 -3.8281
3644 1 20.2541 24.7199 -1.45109 3.48646 2.00259 -2.69915
3645 1 -17.6919 -15.9698 -7.07175 -1.72042 -4.41864 -0.88975
3646 1 16.8003 1.86143 -17.1667 -4.14537 5.90034 -1.75332
3647 1 16.3759 -20.5908 6.48318 1.25226 -4.77645 -1.37157
3648 1 22.8785 -21.1332 -2.10191 5.69483 -3.02477 -3.66284
3649 1 -17.5764 0.138605 -17.0168 7.11535 0.455346 0.172957
3650 1 8.6916 -9.69327 -17.8546 -3.13833 0.94514 4.29084
3651 1 -9.07454 7.14193 9.63876 1.12926 7.49332 -3.01147
3652 1 22.2113 -12.7681 15.3837 1.18271 4.42317 -5.80606
3653 1 -0.371084 16.2835 -0.513477 -0.515619 -4.34531 0.390468
3654 1 -18.0506 19.8391 12.5559 -4.33362 3.32987 -4.23428
3655 1 -7.02232 25.1774 -12.3999 -1.66256 6.5889 -0.757324
3656 1 -10.6082 -19.8689 18.2893 -2.43984 1.29834 3.04078
3657 1 -24.2426 24.0121 -9.49824 3.90464 -6.22233 -0.327392
3658 1 23.3694 14.275 13.8943 0.0132266 2.43842 3.02405
3659 1 20.6603 6.72198 -19.2999 0.611945 3.38804 -2.15319
3660 1 15.3463 9.92107 8.76092 -0.384803 -0.684647 0.134977
3661 1 22.9488 11.4437 -19.3027 3.6328 0.480486 -2.38737
3662 1 -1.07903 -0.137087 -22.7523 3.52255 -1.25345 4.00975
3663 1 -20.1532 -14.9239 -10.9439 1.65494 -1.2312 -2.19702
3664 1 6.89964 15.7653 13.4516 5.27771 -2.61772 -3.67128
3665 1 11.1967 -10.3894 -16.5579 -3.30553 0.43062 -0.6694
3666 1 5.25107 -19.585 23.2834 -3.38584 1.6363 3.74106
3667 1 13.7069 16.086 -16.5545 -3.51772 -0.00666012 2.19435
3668 1 -13.7071 -3.28734 22.5873 2.57055 2.92645 2.69973
3669 1 0.264906 21.9286 2.76207 1.0554 0.188658 2.79961
3670 1 15.1291 7.21253 -6.47526 2.05487 1.7544 -4.43676
3671 1 -0.714882 9.68789 -13.3746 -1.23082 -4.13475 -5.03955
3672 1 -13.9563 8.36301 13.0663 -5.39096 -4.49571 -2.68303
3673 1 -6.23329 -23.3793 22.2471 -3.04372 5.33412 0.419712
3674 1 -1.06417 -1.75928 -6.92382 -6.11098 -2.33816 -3.09656
3675 1 -14.4313 20.3923 -9.58682 -0.892153 -6.70862 1.13798
3676 1 16.0445 15.3049 -10.0726 -0.32513 3.7942 0.624903
3677 1 -8.48269 16.3372 15.7796 0.857824 1.86248 -1.35317
3678 1 -17.6151 8.4981 13.4958 0.134323 -2.87985 -0.950697
3679 1 11.728 -19.4559 -6.21021 -6.81893 1.79292 -2.49642
3680 1 12.6523 5.27724 23.7061 2.24164 -0.186537 -0.172735
3681 1 -7.12332 -0.203071 12.4625 2.25601 3.37151 -0.854722
3682 1 -22.8953 -24.4574 16.0721 -0.371527 -4.24143 1.7647
3683 1 3.91509 11.9824 5.08552 -5.61991 1.24048 -0.472687
3684 1 14.2538 14.9844 -22.8409 3.05757 -1.15207 3.85871
3685 1 7.87504 -0.267831 -0.733602 0.211475 0.36704 -1.81517
3686 1 -22.623 11.541 0.93103 -2.59346 2.607 2.70169
3687 1 8.93646 -14.2878 11.7866 -4.72084 1.95063 3.52865
3688 1 -9.71059 -23.5403 -1.44294 1.82015 0.994413 1.57043
3689 1 21.5775 14.9001 -15.9988 -4.19909 -2.69536 -3.27778
3690 1 -9.17437 5.60794 -9.02089 1.61111 -1.27296 0.678104
3691 1 21.3124 44.9068 -6.80074 -0.439548 1.89591 -0.860084
3692 1 9.09477 2.16224 -20.7426 2.54538 4.10253 0.732647
3693 1 5.14899 23.3936 -0.953019 -2.12017 -4.47598 3.07316
3694 1 -19.4537 2.89554 -5.66647 4.08618 -3.80678 -2.14306
3695 1 -7.01993 -6.54601 0.551073 -1.0356 -2.75664 -9.72375
3696 1 8.24081 2.03606 -14.6817 -0.12228 0.168236 -1.48831
3697 1 8.45168 6.3436 5.13267 1.65291 -1.32054 0.260506
3698 1 -21.9009 2.57917 14.1823 2.14111 -0.572063 2.25475
3699 1 -9.12062 -6.72544 10.6149 -1.26039 -2.52583 2.42698
3700 1 -4.37982 -17.8716 -15.7061 0.988242 5.0836 -1.98411
3701 1 15.955 -3.79566 11.6578 -3.13444 -1.85305 -0.101319
3702 1 -7.31012 -3.25287 -12.5244 -3.06794 1.55178 -3.06784
3703 1 20.8147 14.7016 -23.6599 2.60789 -0.73421 -3.31908
3704 1 19.7038 -2.29218 11.9334 -2.64208 0.45914 -2.02684
3705 1 6.67039 -0.694112 2.11587 3.20328 3.45041 3.97451
3706 1 -12.8949 5.23931 -16.1135 -1.42422 4.22215 -0.0743745
3707 1 19.0295 7.12763 -15.1956 -0.595357 4.90714 -2.95478
3708 1 6.39174 1.76574 4.8933 -10.0137 0.104907 1.14773
3709 1 -20.8251 14.9312 5.24897 -1.35435 -3.61044 -0.926123
3710 1 -6.64548 -8.98787 17.7971 -1.18164 -1.29456 -1.85045
3711 1 -14.0737 9.53926 16.6963 -1.10783 1.46122 4.1415
3712 1 16.9779 24.3511 -5.81627 -0.0938385 -2.26609 -1.92021
3713 1 0.271148 21.467 5.75778 -2.12577 -4.00751 0.354883
3714 1 -12.8793 -0.93138 20.9113 -3.34481 0.505578 0.750973
3715 1 18.7142 19.0949 17.5302 -1.4524 6.15279 1.34964
3716 1 6.98669 5.91275 0.21757 2.96842 -0.645494 -1.99752
3717 1 -3.11672 16.1178 -17.1438 -3.90802 2.54677 -0.822823
3718 1 -17.4756 7.32526 2.06102 3.59935 3.33812 2.77489
3719 1 -1.22743 15.4263 -6.84678 -0.814486 3.65784 -3.52733
3720 1 16.1933 15.7357 17.2073 -0.47406 3.23613 -0.532631
3721 1 -1.27043 18.3158 -9.93425 0.816331 5.0721 -4.45063
3722 1 19.3979 -7.59464 6.48169 1.50203 -1.70641 1.94568
3723 1 9.04454 4.87701 -15.4823 1.66254 -2.8603 -0.388516
3724 1 -3.24657 -2.32546 -1.35582 -0.450264 -0.937127 2.67331
3725 1 -12.7513 21.7354 -2.67255 1.39249 0.685454 0.155796
3726 1 -8.39813 -12.8664 -14.278 1.76546 -2.1873 0.96753
3727 1 7.3636 -10.5705 -21.8092 0.344865 1.0031 -1.21324
3728 1 16.2732 -9.15471 -23.211 5.78409 -2.97575 -2.9852
3729 1 -23.0599 -9.42557 -11.2748 2.5591 0.0286489 -3.76467
3730 1 13.1543 -2.81736 11.6048 -1.28939 -1.00768 6.57625
3731 1 5.04259 -20.1268 -19.9538 -0.146943 2.93406 -2.94302
3732 1 17.0916 20.2067 5.71508 -2.48382 -2.81519 -0.678516
3733 1 5.13539 -14.6641 -1.1507 -4.2711 0.881207 1.32046
3734 1 14.4269 17.3979 -9.167 -3.04155 1.33775 -8.42949
3735 1 -4.95696 18.9067 -1.22092 -2.28991 3.89634 0.846369
3736 1 -21.4325 13.3065 -10.5532 1.76551 -1.22602 -2.56839
3737 1 1.47097 5.89234 -0.221993 7.31385 4.8101 -2.19084
3738 1 -7.20882 -7.82344 14.959 3.54277 1.1933 -0.252835
3739 1 -0.188687 -3.96165 6.21515 3.66242 -1.59547 -1.16997
3740 1 6.56468 -0.716799 -21.0864 1.40079 6.17381 -1.34513
3741 1 -18.9011 9.37782 -5.0964 1.4175 -0.852682 -0.234461
3742 1 -2.10105 -18.0192 -13.9708 -3.85208 -2.47448 1.73949
3743 1 4.37547 -13.5151 15.1822 -0.623114 3.55671 2.67927
3744 1 -17.5862 17.3832 -0.705624 -0.156037 -1.51377 5.20699
3745 1 3.10767 -7.39433 10.8017 -3.39094 -0.405579 -2.94827
3746 1 6.96874 -20.0151 -2.74884 0.523587 0.808557 0.228161
3747 1 -17.5539 24.4525 -18.2879 1.15524 3.38698 3.86279
3748 1 -15.3018 -0.240676 -20.3178 -0.218842 -0.111685 -0.736578
3749 1 -21.4943 -1.15945 14.7686 0.278247 2.63258 -0.536798
3750 1 12.8677 23.7775 -14.3625 0.590354 -5.38068 2.43397
3751 1 -4.77191 -2.01702 1.20274 -1.03331 1.12115 -0.901238
3752 1 -19.298 15.6222 -16.0059 -4.23635 3.29352 -1.84263
3753 1 5.24074 -4.44134 23.4549 -1.00367 -0.880995 6.81155
3754 1 -9.04702 8.23917 6.96742 4.99279 -0.275055 0.203762
3755 1 18.3986 5.10339 -7.59118 0.323894 2.92966 5.80143
3756 1 -11.0338 -20.9552 -19.9232 -6.29355 4.65002 -1.94923
3757 1 -1.33575 22.5305 -1.67983 -2.98809 -1.36492 -1.72345
3758 1 23.1261 -7.29229 -15.643 1.0213 1.48956 -2.12793
3759 1 -12.989 9.48666 -22.3908 -1.63028 7.20639 0.0245257
3760 1 15.0755 24.2512 2.53227 4.67074 -2.81982 -4.98621
3761 1 18.169 -11.1068 -15.8741 -1.2108 -3.1274 -2.50203
3762 1 9.92693 -10.5123 9.35656 3.98249 -5.73677 -0.433618
3763 1 11.5565 10.1046 7.79219 1.68421 1.64029 3.075
3764 1 15.7642 -11.2527 19.1889 -3.07489 -4.8739 6.1567
3765 1 -23.9513 45.9451 -2.99656 1.24624 1.71331 1.67625
3766 1 -13.4676 20.4935 12.6048 1.36858 -0.513645 2.82617
3767 1 -11.2571 -21.9242 0.311265 5.00046 -0.601758 -0.995167
3768 1 -0.722329 6.6701 -15.5802 4.19922 -1.76357 1.00267
3769 1 -22.1657 -17.7315 7.93255 3.47308 4.23892 3.32814
3770 1 -9.46872 -4.59665 6.95118 2.36769 1.08415 0.266886
3771 1 -17.8367 19.885 20.5235 -0.784108 -2.351 2.74927
3772 1 17.0359 -16.2668 -3.1329 -0.849355 -2.8234 0.556133
3773 1 0.0214719 -3.98376 14.1923 -2.7383 -1.6432 2.0754
3774 1 -6.91443 13.8922 4.18027 -3.30181 -4.8683 0.382077
3775 1 2.80569 -5.03501 -12.1591 -3.57781 -3.09674 -1.16463
3776 1 12.3936 -4.82556 16.9559 -2.09698 -1.09033 6.76525
3777 1 11.6556 -7.5458 -1.35096 5.64692 4.55903 0.382341
3778 1 5.22021 13.0277 -10.8527 1.10354 -4.90524 -1.49297
3779 1 -9.33383 -0.521639 6.8416 -1.72213 -0.170252 -2.89324
3780 1 -24.5397 20.1846 -17.5771 -1.54344 0.982071 3.21839
3781 1 -4.91636 -5.16335 8.12882 1.78748 -0.731556 -4.70968
3782 1 2.45396 -11.9307 -18.7872 -1.17424 -2.40653 -1.55022
3783 1 21.3957 19.667 4.65576 2.36196 -1.69917 2.82
3784 1 11.7012 0.970047 2.90142 0.197634 0.837647 -4.13417
3785 1 -3.51002 -24.3038 22.0277 2.60083 -1.26522 -1.98895
3786 1 21.1131 7.76427 16.7036 2.45022 -2.22509 1.84356
3787 1 10.2998 20.3118 -14.8167 0.474575 1.02069 0.290297
3788 1 4.16005 15.2773 10.1577 5.25419 -3.38837 2.91626
3789 1 19.456 24.5684 -12.012 -3.69483 1.63544 -2.80777
3790 1 6.26923 -18.5181 -0.358723 -2.88218 -7.2588 -2.61897
3791 1 -9.52906 15.8442 -13.1321 2.92691 3.47647 0.230783
3792 1 -11.6893 -7.9764 10.3071 5.68561 -5.69206 -0.40033
3793 1 -13.3994 20.6256 3.33444 0.808236 0.61966 -2.59365
3794 1 -2.90962 -19.0059 -8.51407 4.01335 0.688576 4.75035
3795 1 12.9361 20.7854 19.5709 -4.68327 0.118624 -1.37644
3796 1 -13.6854 -10.4228 -8.6927 -0.434021 1.8945 1.54497
3797 1 -15.2954 -16.6448 7.89546 -0.200561 4.10221 3.72825
3798 1 4.13885 6.55472 -5.49567 -0.139028 -1.94959 -1.82433
3799 1 22.499 24.0711 -6.97168 -1.81805 4.22039 5.50926
3800 1 14.0486 1.45415 -2.97786 0.621522 -4.92114 1.20606
3801 1 4.42842 15.5949 -8.47828 -5.52306 -1.05829 0.100076
3802 1 6.58835 1.8022 -21.9787 4.37662 -2.20161 0.252457
3803 1 -18.6664 -5.33422 23.5881 1.75791 -1.30255 3.6025
3804 1 12.6898 15.9031 10.9206 -2.99824 0.47889 2.37076
3805 1 -5.57998 16.5535 -18.4447 2.20627 -1.83625 -3.97888
3806 1 1.49899 1.49002 -3.04936 0.596445 -1.67242 -1.62226
3807 1 -8.70238 21.4133 -18.5543 0.387156 2.32121 -6.6829
3808 1 9.79303 -12.5115 -21.8875 2.06675 -6.78341 2.28153
3809 1 4.40187 -22.8537 -19.2019 -1.17129 3.79659 -2.0228
3810 1 -18.8552 -4.21722 14.0397 -8.11164 -0.443796 -2.43434
3811 1 14.3904 -14.6505 -22.6807 1.99886 -4.19988 1.30284
3812 1 -5.00196 -13.1423 0.231296 1.77616 3.18122 -3.76336
3813 1 15.7816 3.74843 -1.81308 2.7043 3.80791 -1.23619
3814 1 2.43469 9.73868 11.6126 -1.14391 5.31551 2.64772
3815 1 -1.30284 22.1811 23.4313 2.16468 6.49402 -4.27505
3816 1 -15.3272 -9.74906 2.9578 3.05777 3.82056 -0.686184
3817 1 7.35666 9.4158 -4.02413 -0.85792 -0.969101 -4.2666
3818 1 12.5121 16.8213 23.9422 -1.02567 -1.73508 3.12688
3819 1 1.0994 22.1377 16.2885 -3.02114 -4.27797 -7.77506
3820 1 22.8233 12.021 -6.78587 -3.44563 1.42661 1.38292
3821 1 10.1361 -11.7644 14.351 3.11702 -2.21037 1.86466
3822 1 10.1392 7.22076 9.27976 -3.49221 0.763708 -1.47489
3823 1 -5.5919 -18.3219 -7.89816 -0.347949 -1.23226 -0.664697
3824 1 -9.31281 -21.8944 -7.77289 1.98246 0.919921 2.38171
3825 1 20.9193 -13.5692 9.42719 0.370132 -0.955795 -3.9091
3826 1 -2.05274 14.6824 -14.0796 -2.41673 1.3651 1.82782
3827 1 -0.483321 5.87122 19.2301 -0.265808 1.44437 -0.465583
3828 1 -18.3905 21.508 -17.4453 2.08397 1.85036 2.25558
3829 1 -13.262 -15.477 -5.69422 1.43014 -0.125669 -0.645036
3830 1 14.8416 -12.825 -14.883 -3.75082 2.11739 5.27965
3831 1 -4.19635 21.7756 -1.12267 2.61237 -2.2476 -5.43037
3832 1 -24.0104 -0.438488 2.34412 1.74175 -1.21578 1.39616
3833 1 19.9523 -2.92827 -10.482 -0.0655299 -6.2368 2.90401
3834 1 6.57585 8.66264 4.9229 4.21582 2.79402 -2.36812
3835 1 21.4141 46.5734 -2.17427 -0.582041 -1.46537 -1.52064
3836 1 19.9051 12.2478 1.23513 0.0879009 -2.03853 1.94012
3837 1 10.7098 14.1469 2.74414 -2.36065 -5.24018 2.1641
3838 1 -4.3203 4.1792 -2.58934 1.32726 -2.16887 -1.24863
3839 1 19.7535 5.62956 2.25436 4.55562 1.50619 -3.1885
3840 1 -10.4067 -23.1773 13.6292 1.67605 2.3726 -2.6279
3841 1 22.3885 3.53915 11.4733 6.36365 -4.64885 -0.870004
3842 1 -21.5571 0.298602 23.5251 -1.70589 -0.19075 0.295639
3843 1 -1.60205 -17.2844 14.3937 -2.04112 -3.62705 -1.07103
3844 1 -22.1743 -13.9991 6.747 2.41434 1.20435 -2.74525
3845 1 -2.5085 5.44829 -23.3716 -1.54679 5.11883 2.16552
3846 1 23.4464 20.055 19.587 -0.9923 -2.51883 -1.15608
3847 1 -17.0532 -17.2314 -12.8435 -3.87719 -0.96227 1.17238
3848 1 6.9187 -15.4569 4.63231 2.83943 1.29301 0.588206
3849 1 16.834 11.7769 -23.4279 -3.1258 -3.39247 -1.27473
3850 1 19.0186 -21.229 -23.3503 1.05835 -2.45978 2.44975
3851 1 -3.15139 6.59339 -3.74139 -3.06263 -3.42136 2.73452
3852 1 -6.7114 20.6585 16.6816 -2.36112 -0.937907 1.23378
3853 1 17.249 -13.7001 2.85346 -3.90149 -1.817 0.0263335
3854 1 17.5006 12.4111 -2.29902 -4.76103 -0.0768924 2.78219
3855 1 -5.04016 -6.86283 20.9815 -3.87877 -2.0428 -1.67403
3856 1 13.8487 -17.9421 -2.15194 -0.888782 0.677108 -1.69235
3857 1 -13.9065 46.5443 -12.3906 4.19974 -3.26863 -1.68093
3858 1 16.8594 4.89156 6.65887 4.87342 -0.941972 -0.790394
3859 1 21.4033 18.3007 8.737 3.83265 0.718344 -1.3045
3860 1 12.1169 -14.0144 -14.8547 -0.527718 0.216374 -3.6072
3861 1 -18.007 -13.5297 21.9992 -1.1659 1.55172 5.3378
3862 1 -3.9322 3.76174 -19.0299 2.47207 -1.00426 -0.316234
3863 1 -13.6495 -4.77013 11.663 1.9372 -2.36905 -2.21731
3864 1 -2.56702 -3.03611 -16.0554 1.22235 2.94763 6.96829
3865 1 1.09289 -23.2299 15.4728 4.01848 -1.6185 1.17008
3866 1 10.7324 -15.4239 7.82267 2.52473 -4.35452 -1.05305
3867 1 23.5489 2.5997 2.57021 -2.35211 -1.5064 1.19724
3868 1 3.87969 7.48656 -2.64447 0.0654773 1.16252 -0.872805
3869 1 -6.31869 6.20765 7.87477 -0.376376 -2.65926 -0.160014
3870 1 14.4986 -18.6829 -10.4924 -0.409521 4.24764 -1.28504
3871 1 19.4008 -0.84262 21.1341 1.43772 -0.316781 2.40945
3872 1 -24.3217 -23.1063 -9.12969 -1.31885 -2.24909 3.44353
3873 1 -4.13591 5.21749 14.7718 2.70998 3.72208 -4.21689
3874 1 -18.8914 -22.808 -14.0284 -1.03922 -0.06196 -0.770221
3875 1 21.5353 0.424924 6.31431 -3.21399 -1.25927 3.78428
3876 1 -21.8341 -11.0384 20.6884 0.0749636 3.07437 3.65051
3877 1 -22.4478 -0.0761933 -3.32718 2.43267 -1.84041 2.79699
3878 1 9.0881 -17.3846 9.37004 7.35205 -2.0329 0.248284
3879 1 17.1717 -12.7032 23.2523 -4.60392 -5.32732 -1.84103
3880 1 -8.8413 20.2227 -23.0732 7.70988 -1.76389 -3.96058
3881 1 -14.6578 1.41387 -13.0125 -2.20937 4.26113 0.991835
3882 1 22.712 19.2518 -1.88296 0.97545 -0.891887 -1.9189
3883 1 21.6724 16.5387 -9.64837 0.105552 -1.03159 -0.209098
3884 1 14.1968 -19.0671 -4.73298 -1.06388 -7.38946 3.20642
3885 1 11.9046 25.1382 13.5675 -2.12523 -2.39369 1.58908
3886 1 -11.5129 -14.3475 -7.62689 1.97656 1.0863 0.0710647
3887 1 3.58835 -13.7134 -20.9575 1.44427 1.50721 1.09598
3888 1 -6.67034 8.25481 -21.1765 4.74832 2.47471 -5.69913
3889 1 -16.9804 16.2724 20.6056 0.539463 -5.79496 1.71681
3890 1 3.49291 18.0792 15.506 2.78436 0.989757 -3.23982
3891 1 4.90278 -11.693 17.9274 1.30289 2.56917 2.328
3892 1 -13.0112 21.71 6.8427 1.85058 0.0638956 -4.3019
3893 1 -5.98604 12.6501 11.9181 2.23854 -0.734999 -0.00994156
3894 1 11.3536 10.9591 -12.1847 0.257778 -1.17582 0.161406
3895 1 14.7263 -5.59167 -0.784084 -6.1555 1.63389 -2.84194
3896 1 -6.69099 -9.65855 -2.16071 3.15308 -2.39536 -0.000308565
3897 1 5.91942 14.1631 22.729 3.43073 -2.27848 3.92777
3898 1 19.7435 -3.70229 16.7919 1.38021 1.32904 -1.98394
3899 1 5.0606 11.2545 15.5244 -4.06918 -2.83665 2.7376
3900 1 10.7368 -16.8 -11.3293 -2.42828 -0.0325094 -6.6449
3901 1 -14.1334 13.4378 -11.8397 2.20839 4.33724 0.304074
3902 1 12.2803 12.3985 -8.00798 1.19786 -1.85168 3.15413
3903 1 -17.8084 -13.4725 4.07964 2.21327 -0.966807 3.24177
3904 1 10.1837 -5.09173 -6.55929 1.56973 0.462253 2.49398
3905 1 0.849291 -12.3248 4.25728 -0.163935 -0.646787 -3.34234
3906 1 -16.697 9.05121 -7.00911 1.07673 1.7777 -2.82251
3907 1 -20.8087 -0.758695 10.3594 -2.91788 0.32426 0.143482
3908 1 20.855 -15.3174 14.6068 -2.24819 3.22313 0.970618
3909 1 2.35257 -9.6505 21.7805 -2.03295 -2.0731 1.39184
3910 1 -7.1951 17.2433 -7.21204 -4.28961 3.87161 0.0362923
3911 1 20.4447 19.3286 1.76339 1.44158 -1.92445 -0.722871
3912 1 -9.99383 -8.58849 1.36836 -4.16173 -4.1567 3.83275
3913 1 -10.6348 5.1974 0.731579 4.68237 -0.499642 -0.483461
3914 1 10.2274 -11.5324 -7.23067 1.75565 3.59612 -4.78973
3915 1 6.7847 -0.918147 7.25341 -5.02693 -0.192488 2.88699
3916 1 -23.9734 -10.9886 22.3739 -1.31373 3.70504 0.851854
3917 1 -0.841388 -5.77464 -8.16283 3.08873 0.148764 -0.808471
3918 1 11.7273 11.4939 -16.6573 -0.225235 -3.44167 -1.02334
3919 1 7.55128 -12.5062 18.9816 -3.84495 -0.515001 2.03961
3920 1 -10.9705 8.69863 13.6456 -0.739103 -2.05261 1.63057
3921 1 18.3037 7.83665 -17.8296 4.53436 -1.14295 -1.08858
3922 1 -14.9012 -15.123 -16.5845 2.12046 -0.761606 1.12134
3923 1 -18.5153 2.30208 -8.50351 8.7783 2.71618 0.914178
3924 1 -10.8908 -9.4595 6.86598 2.22526 0.517017 -1.98048
3925 1 -19.0764 5.11312 2.31717 1.4765 -3.74069 -4.7214
3926 1 8.31065 -1.63803 23.8716 -4.21392 -0.132413 1.05612
3927 1 11.15 16.3557 -2.56838 -3.55932 -0.668597 1.04175
3928 1 -18.4686 17.2538 -23.5961 0.357326 -1.00152 -5.99121
3929 1 -1.82116 10.9918 -7.95772 -4.72413 0.761982 0.957859
3930 1 12.4361 19.973 0.428358 2.01355 -1.51615 0.895567
3931 1 -1.58404 8.33696 2.18283 4.83828 -3.87175 -1.71011
3932 1 22.0075 5.76278 13.0603 -4.56092 -0.50896 -0.52085
3933 1 -2.52459 -10.4808 20.3344 -3.29223 -1.85708 -0.852162
3934 1 19.9259 3.04273 -16.2042 -2.0746 -5.84951 3.83185
3935 1 14.9891 -17.7391 -19.571 1.82282 1.89426 -2.37716
3936 1 -1.41839 -21.0709 23.2807 -0.60441 2.49697 -1.63649
3937 1 16.9333 -15.6346 -16.549 3.06261 0.568061 3.11044
3938 1 18.4158 12.5242 18.1375 1.74562 0.98255 0.156037
3939 1 23.7172 -3.3582 15.4729 5.08866 2.14638 -2.42214
3940 1 -3.40404 21.127 -6.77974 0.938504 1.40147 -2.74718
3941 1 -17.7854 2.74484 23.3327 1.35648 4.73279 -3.19571
3942 1 9.20328 -21.6933 16.5081 2.48725 0.432165 -2.91466
3943 1 -21.5029 -20.5528 1.30279 -1.12566 2.04367 3.58708
3944 1 -13.9774 -8.04813 -13.4774 2.99327 0.905423 -2.59152
3945 1 -22.0251 -11.9466 -14.6548 5.29705 -5.83639 -0.591309
3946 1 -7.73789 17.7514 11.937 1.37764 -1.80336 3.28279
3947 1 -19.4893 9.0536 23.4491 -0.616085 -1.41249 -3.96243
3948 1 11.1218 17.1187 -17.2886 1.87166 -4.89179 -1.51525
3949 1 2.958 -15.0349 -14.0787 2.74661 1.07104 -0.67739
3950 1 -5.56615 1.51115 -20.289 2.22625 2.22842 2.98955
3951 1 6.94088 0.410472 -11.7139 -0.0251816 -0.723371 2.67215
3952 1 -5.50063 -3.77022 -20.646 2.8472 0.151615 -2.05146
3953 1 18.9001 -16.5676 16.4006 6.93947 2.31322 -1.83138
3954 1 5.86959 0.65903 -15.9601 -1.31159 5.14539 1.02749
3955 1 -7.97596 21.6198 13.0527 -3.98858 1.14863 -0.823958
3956 1 -13.2147 12.2121 -4.41598 1.94774 -2.91635 0.0674043
3957 1 19.1525 46.5642 -17.9363 -1.30363 2.86005 -1.09349
3958 1 -1.64673 8.03796 -7.44296 -2.65409 0.885447 -6.836
3959 1 -20.5943 -5.05922 -18.7033 -0.128561 -5.62646 3.70907
3960 1 20.0816 -14.4598 -12.5023 -0.33253 1.5906 3.26819
3961 1 -3.07868 -19.5737 -3.04146 -0.715134 2.07875 -2.88647
3962 1 4.74687 -14.5523 6.49541 -5.33111 1.10654 -3.2719
3963 1 -15.1962 -17.222 -4.29907 4.3253 -1.4865 0.79764
3964 1 7.13476 9.64432 18.0463 1.15591 -3.59314 -5.32221
3965 1 -4.3858 2.20818 2.11129 -5.23277 2.0576 1.76204
3966 1 -19.7267 18.9682 10.5022 0.45703 -7.19856 0.116703
3967 1 4.19666 -6.65877 -5.45383 -1.97873 2.17729 -0.562495
3968 1 -1.46122 4.2049 -3.14363 0.212165 -2.5711 -1.53934
3969 1 16.7571 -22.6493 19.8308 0.118698 2.66278 -1.9434
3970 1 -5.79611 20.5158 -22.8547 4.00706 -0.268948 -2.41439
3971 1 -4.31971 -0.228317 20.1031 0.322871 1.63375 0.894166
3972 1 -5.58087 -9.4321 -10.8015 -3.07096 -3.36955 -5.45926
3973 1 -13.4188 -20.7528 -6.60811 1.02139 5.06882 1.43411
3974 1 5.24926 22.8943 15.9078 1.0686 -5.82451 -3.68639
3975 1 4.94569 0.016323 -18.5914 -4.02991 2.11412 3.1599
3976 1 -4.02957 16.5134 3.12336 -1.32197 -4.63191 1.00856
3977 1 -9.47274 -13.8961 -19.6209 2.4825 1.94917 -0.209599
3978 1 -2.00945 17.5807 -13.5575 -1.36447 3.17276 -4.62878
3979 1 -10.1748 -22.9731 2.58676 -2.46143 0.556612 -0.561287
3980 1 -21.2906 -16.3244 -14.8173 -1.38825 2.29552 -7.61725
3981 1 11.7572 -8.70336 5.50376 2.86226 1.75098 -1.69159
3982 1 9.83377 -3.72484 -3.67271 -1.42581 1.71699 -5.8015
3983 1 -24.1919 8.83385 8.78569 -3.2693 -3.30774 -0.81446
3984 1 -5.08451 13.9256 -19.6364 5.41423 2.70049 -2.26058
3985 1 -14.8139 18.9044 8.79124 2.21972 -4.35872 2.67686
3986 1 15.0366 18.5503 -15.7754 0.538003 -2.77178 0.342141
3987 1 12.5519 15.4349 17.7275 1.71855 5.44736 0.326739
3988 1 -21.9959 19.0758 18.9083 -2.39121 -3.28608 1.14352
3989 1 -17.0769 -8.61577 -13.6073 3.04142 7.6006 3.925
3990 1 10.108 5.1679 -23.2741 0.628368 2.7085 0.735382
3991 1 -16.4223 6.38458 23.6868 -1.15336 -4.2143 5.74383
3992 1 22.0174 9.87546 -2.58807 1.71679 -6.56777 3.38887
3993 1 -6.40567 -9.49117 -6.69198 -0.1288 -1.28003 1.89364
3994 1 -16.0073 -22.0918 -20.0262 1.32905 3.20568 6.55344
3995 1 5.76251 -22.0537 2.02083 2.21299 -1.66573 -0.138723
3996 1 6.99905 -13.5806 2.37089 -1.62401 0.932918 0.39014
3997 1 20.3362 46.335 -10.4555 -1.34147 3.80583 5.79118
3998 1 -10.9494 -2.25328 0.0642363 1.96347 -0.548752 -5.20891
3999 1 -7.88823 18.8395 14.6139 -0.936447 -0.224217 -1.08638
4000 1 -16.8437 8.88365 22.2608 -0.0865533 2.74914 1.42938
4001 1 -10.7075 25.5663 -3.38805 -2.98114 -2.8442 0.245573
4002 1 -9.61706 27.8073 -4.56445 -3.09133 -1.61976 -0.635164
4003 1 -7.0309 28.2162 -3.49239 -9.60514 2.62615 1.65457
4004 1 -6.24017 25.7699 -4.59285 0.124066 -3.7426 -1.41711
4005 1 -10.6864 25.3929 -9.07398 -3.26034 3.76962 1.95253
4006 1 -9.97894 27.6779 -7.5063 -2.14608 -6.11413 3.19137
4007 1 -7.35858 28.0448 -8.66086 0.0478791 -0.241168 0.956861
4008 1 -6.15765 25.6897 -7.49658 -0.187305 -1.52512 3.10787
4009 1 -10.4476 25.6904 4.28455 -2.88974 -1.7171 0.959307
4010 1 -9.12898 27.813 3.09823 0.28085 -10.472 -0.409983
4011 1 -6.16845 28.2473 3.63408 0.328717 -0.402779 0.513527
4012 1 -4.78793 26.1557 2.44166 -3.09349 1.5018 -0.0244328
4013 1 -10.3124 25.3782 -0.6796 -1.81565 4.32419 -3.24214
4014 1 -9.34023 27.7732 0.392929 -1.41907 4.57646 1.59721
4015 1 -6.91777 27.839 -0.780386 2.14034 5.82776 3.93963
4016 1 -4.47629 26.5356 -0.320824 5.36869 -1.09857 1.81667
4017 1 -9.57339 25.7582 11.1853 0.918078 2.44654 -0.648142
4018 1 -8.31909 28.4028 10.3411 -1.8107 -0.0636353 0.373193
4019 1 -5.60082 28.5431 10.649 2.83949 0.413039 -2.47821
4020 1 -4.25463 26.3187 9.99215 -5.64001 -2.44557 0.724249
4021 1 -9.55206 25.306 7.18021 -4.83105 3.29305 -1.26493
4022 1 -8.36233 27.8723 7.46945 1.23064 -3.96035 3.25122
4023 1 -5.85966 28.3632 6.32087 -2.26058 0.292434 -5.76845
4024 1 -4.71896 26.0506 7.42558 4.7804 -0.694748 1.5844
4025 1 -10.8161 30.2268 -4.07822 -0.740511 -1.74772 4.33571
4026 1 -9.10056 32.5234 -4.85173 6.39091 -5.97927 0.812753
4027 1 -6.53352 32.4706 -4.28222 -3.43311 -1.4454 0.752289
4028 1 -5.42786 29.9483 -4.78057 -1.98229 3.67413 2.26582
4029 1 -11.6622 29.7699 -6.8508 7.07152 0.104375 -1.61083
4030 1 -9.88675 32.1832 -7.50962 -0.377201 -1.11651 3.27519
4031 1 -7.09093 32.2506 -8.35184 -5.16156 1.45384 1.16298
4032 1 -5.81664 30.0328 -7.61305 -0.160348 -0.257132 -2.77745
4033 1 -10.1192 30.1809 3.85441 0.0868784 -2.25106 -4.33118
4034 1 -9.02945 32.5684 2.83489 -2.25423 3.60563 2.84254
4035 1 -6.38654 32.7073 3.35178 -4.72449 -0.480064 4.04666
4036 1 -5.04551 30.4343 2.44081 1.50254 -2.48372 6.55516
4037 1 -10.8451 29.9806 -1.24553 -0.508798 1.91908 -3.14469
4038 1 -10.456 32.4006 0.505997 1.03408 1.76974 2.87717
4039 1 -6.64282 32.87 -1.69616 -1.01649 -2.37751 -2.41769
4040 1 -5.60271 30.3208 -0.404356 0.480675 -1.60285 -0.843305
4041 1 -9.36655 30.5186 11.4215 -1.0634 0.894834 2.35291
4042 1 -8.49275 32.9658 10.3598 0.356147 -1.76571 -0.162951
4043 1 -5.65306 33.0805 10.2328 -0.9972 4.16693 3.96359
4044 1 -4.29117 30.7319 9.76954 -1.01039 -0.220428 -1.48967
4045 1 -9.46836 30.1545 6.55911 -0.445064 -2.08832 -1.98474
4046 1 -8.85048 32.6726 7.5983 3.04422 2.39855 -0.0465935
4047 1 -6.35978 32.4355 6.18247 2.97659 -1.3367 -1.5729
4048 1 -4.44618 30.6518 7.03343 1.72192 0.353527 -0.437921
4049 1 -10.1005 34.7677 -3.53494 0.296302 -3.49576 -0.0725508
4050 1 -9.29129 36.9216 -4.86871 -6.611 -4.5014 1.0002
4051 1 -6.62428 36.9791 -4.08142 2.39087 1.08151 3.51338
4052 1 -5.22463 34.7304 -5.18231 -0.706732 -0.656995 1.36888
4053 1 -11.4466 34.474 -7.63915 4.27999 -3.86509 -2.58022
4054 1 -9.43595 36.9204 -7.66704 -0.889272 -1.70008 -2.99279
4055 1 -7.15798 36.7776 -9.07414 1.10608 -3.91439 0.694976
4056 1 -5.68808 34.5739 -8.15328 0.616721 3.87662 1.16441
4057 1 -10.0067 34.669 4.37099 -7.02669 -0.0499462 1.82559
4058 1 -8.97874 36.4798 2.42986 -1.29514 -0.378355 2.38587
4059 1 -6.39306 36.9971 3.28973 -1.91995 -2.37963 1.44908
4060 1 -4.98611 34.944 2.15299 2.52368 0.299723 -2.25341
4061 1 -8.94115 34.0861 -1.09971 -1.88247 -0.16255 2.94082
4062 1 -8.86494 36.7683 -0.27587 4.09636 -5.09876 -2.99587
4063 1 -6.48498 37.0864 -1.39739 3.4777 -0.234087 1.52056
4064 1 -5.02785 34.8376 -0.651645 -1.70607 1.43264 -2.17879
4065 1 -9.74154 35.4143 10.0604 0.422659 -0.399305 5.43258
4066 1 -8.35661 37.7553 9.98564 -1.18314 1.21274 -0.22597
4067 1 -5.6592 37.5385 10.5315 4.42937 -2.20433 0.40102
4068 1 -4.22281 35.4016 9.57984 -3.78579 6.78515 -1.12411
4069 1 -10.0825 35.184 7.16022 -2.42913 -0.10832 -1.65922
4070 1 -8.52276 37.3407 7.22862 -4.29508 4.91775 4.206
4071 1 -6.09249 36.9562 6.16411 -1.25434 -0.343528 -1.12888
4072 1 -4.73179 34.8615 6.7872 -1.9484 1.80589 -0.497633
4073 1 -11.2418 38.7747 -4.08099 1.48402 -0.0527183 1.17316
4074 1 -11.1887 40.7829 -5.83702 -5.10915 1.24979 -0.767017
4075 1 -6.9426 41.6643 -4.28112 0.42693 -2.39644 -1.51277
4076 1 -5.62419 39.3494 -5.40899 0.718071 3.00085 2.4572
4077 1 -10.3376 39.6276 -8.0907 -0.307378 4.67213 0.171723
4078 1 -9.25885 41.2518 -10.0529 -2.60932 -0.155185 4.21986
4079 1 -6.57831 40.9663 -9.79306 -6.15386 -1.30448 1.92583
4080 1 -5.46251 38.8347 -8.37217 0.839237 -0.875123 3.58435
4081 1 -9.84012 39.0171 3.29853 0.606831 -2.81373 0.370564
4082 1 -8.86047 41.2253 2.02659 -1.15227 -1.55882 2.57502
4083 1 -6.13018 41.5949 2.76221 -0.310451 2.59344 -1.79155
4084 1 -4.89567 39.0833 2.29957 1.55519 0.355169 -3.21951
4085 1 -10.1989 39.0187 -1.39595 3.21312 -1.51063 -1.27889
4086 1 -8.97283 41.4907 -0.760367 2.04279 -0.306598 0.141965
4087 1 -6.27351 41.5916 -1.56899 -4.49671 -0.0779782 -0.589191
4088 1 -4.93036 39.3292 -0.425474 5.86922 2.79156 0.544991
4089 1 -8.80705 40.374 10.6341 1.93773 0.348772 -2.17647
4090 1 -7.63564 42.7034 9.81006 -1.18812 -2.28884 1.62972
4091 1 -5.12707 42.3677 10.9471 1.72299 6.05614 3.2549
4092 1 -4.41274 39.958 9.55437 2.67871 1.17815 1.06963
4093 1 -9.09657 39.5313 5.87131 0.927767 -1.01731 -2.62189
4094 1 -7.89084 41.8646 7.08325 -4.41303 -0.500882 -5.75516
4095 1 -5.66332 41.4936 5.72169 -1.0691 0.137755 1.61878
4096 1 -4.38196 39.1674 6.67846 -0.436627 1.69168 0.0271846
4097 1 -9.71244 42.9026 -4.56587 0.648853 0.291485 -2.37106
4098 1 -9.18935 45.4575 -5.97034 -0.660697 -0.507861 1.68398
4099 1 -6.88036 45.8034 -4.7704 -3.47833 2.23946 2.67704
4100 1 -5.36004 43.732 -5.82012 -1.45464 -2.10977 1.98308
4101 1 -9.78869 44.0351 -10.6048 2.29099 2.4644 -2.1972
4102 1 -8.29124 45.0597 -8.49317 0.377525 0.327108 1.70058
4103 1 -8.22142 -23.9047 -9.2966 2.88112 -1.07405 3.67559
4104 1 -6.14551 43.346 -8.43576 -0.626013 -1.82584 -5.252
4105 1 -9.56885 43.8975 2.94012 -1.8912 -3.07515 -4.19192
4106 1 -9.29102 46.2676 1.7576 -2.64248 2.07052 -0.128592
4107 1 -6.40005 46.2289 2.41995 4.34664 3.26695 4.10726
4108 1 -4.77441 43.8928 2.01087 3.56197 -0.828516 0.955235
4109 1 -10.5714 43.6202 -1.9242 2.61732 3.20376 1.87924
4110 1 -9.11681 45.7107 -0.986947 2.50767 1.28241 2.57244
4111 1 -6.53769 45.6648 -1.98951 0.997134 7.29758 -3.59649
4112 1 -4.84678 43.9209 -0.764089 0.195312 1.44701 -0.269684
4113 1 -9.36816 44.9538 10.4899 -0.370992 -5.04652 1.57331
4114 1 -6.98125 45.5795 8.92168 1.43188 -1.57471 -1.25661
4115 1 -4.5386 47.0813 10.0848 2.778 2.03808 0.279197
4116 1 -4.20529 44.3226 9.09091 1.24015 -1.87191 0.735258
4117 1 -9.79573 43.6307 5.62213 0.207416 -0.808053 2.04937
4118 1 -8.28827 45.8805 6.425 -2.38611 -1.14306 0.191104
4119 1 -5.84571 46.0215 5.17709 -1.87439 1.48019 -3.71765
4120 1 -4.49242 44.0206 6.2318 0.774183 -2.72043 1.29298
4121 1 -3.26215 25.8052 -4.33529 2.86474 -0.61085 2.52022
4122 1 -2.02612 27.8231 -5.54502 -5.54073 -2.528 5.21272
4123 1 0.712599 27.7708 -5.3028 2.46469 -1.92698 -2.48828
4124 1 2.09554 25.4612 -6.34262 -8.01464 1.38492 -2.84234
4125 1 -3.61662 25.0628 -8.55303 -4.10085 0.501558 0.766059
4126 1 -1.90337 27.4759 -8.35978 -1.78836 0.00013101 0.580087
4127 1 0.453748 27.424 -9.39232 -0.39939 1.40541 -0.996245
4128 1 1.84176 25.0343 -9.38319 2.13502 -2.34885 0.373985
4129 1 -2.15849 25.9822 3.34819 -1.66832 -0.128452 0.312501
4130 1 -1.13302 28.0885 1.8933 2.59243 3.82706 0.345556
4131 1 1.61016 27.3323 2.60184 3.52756 3.05068 -2.01679
4132 1 0.492391 24.7645 2.01285 -1.13809 -0.619506 -3.51252
4133 1 -2.22067 25.2519 -1.82771 -4.34166 -0.725681 0.956496
4134 1 -1.76921 27.9568 -0.861753 -1.32406 -1.34469 1.72609
4135 1 0.889972 27.688 -2.41633 4.88731 3.31013 0.922466
4136 1 2.12785 24.7667 -3.57994 -1.15098 -1.69095 3.32418
4137 1 -1.41785 23.4593 9.25698 2.58533 -2.8478 -2.83779
4138 1 -1.78523 25.7439 10.5626 2.23409 2.11598 -2.05916
4139 1 -0.35 27.9762 9.86155 -0.974624 -3.69416 -4.77432
4140 1 2.58716 27.2431 10.1617 -2.02153 0.890241 -0.877651
4141 1 -2.33837 25.8886 6.20751 -5.68893 -0.700406 1.93124
4142 1 -0.91307 28.1122 6.96127 -2.091 -1.12671 2.78813
4143 1 1.50098 27.8658 5.56331 3.20332 5.57147 2.22247
4144 1 2.62634 25.2666 6.35477 0.356859 0.555699 4.53019
4145 1 -2.8217 30.1374 -4.09075 6.20375 1.14834 -0.839575
4146 1 -1.7739 32.3523 -5.71389 -5.1899 -5.04241 1.99184
4147 1 0.721575 32.2747 -5.06684 -2.16261 1.85724 1.95408
4148 1 1.76775 30.0685 -6.454 5.24288 2.94884 2.04516
4149 1 -3.17326 29.9292 -8.99147 1.1851 1.34516 -0.180896
4150 1 -1.99785 32.2686 -8.42642 -5.69687 -1.27968 3.19275
4151 1 0.593093 32.3825 -9.41698 -2.68268 4.9567 -3.75013
4152 1 1.93708 29.6617 -9.28654 2.15297 3.42338 0.285584
4153 1 -2.35387 30.1681 2.92265 -0.389875 3.01866 -1.93908
4154 1 -0.881715 32.2753 1.87564 -5.48838 3.80415 1.15948
4155 1 1.67871 32.2033 2.41698 4.60611 4.46171 0.16649
4156 1 2.48382 29.7649 1.22286 3.85425 1.47155 -1.45813
4157 1 -3.01782 30.426 -1.49941 1.16707 -0.889865 0.870339
4158 1 -1.25413 32.3892 -0.80145 0.661534 -4.72719 4.57096
4159 1 1.11616 32.3206 -2.22927 1.66215 -1.52756 0.853504
4160 1 2.45668 29.7954 -1.69423 -5.29483 1.16198 -0.142612
4161 1 -1.71541 30.2358 10.7085 4.53716 -0.095996 1.15392
4162 1 -0.448595 32.7079 9.51586 -4.97696 -4.45233 6.17896
4163 1 2.38352 31.881 9.70624 0.766034 -0.522485 0.967134
4164 1 3.72882 29.6293 8.84813 3.27087 6.41216 0.260144
4165 1 -2.10725 30.222 5.70932 1.80822 -3.18039 -2.80236
4166 1 -0.878439 32.6134 6.64112 6.03296 -1.37126 1.74899
4167 1 1.77329 32.2074 5.41905 -2.52052 -0.673166 -4.70557
4168 1 3.26792 29.9677 6.0839 -0.636051 -1.98074 1.6228
4169 1 -2.4541 34.8111 -4.67002 4.62479 1.41563 -3.07693
4170 1 -1.37963 37.1124 -5.65166 1.46259 2.84275 -1.03124
4171 1 1.23017 37.0545 -5.01699 -2.86576 1.64681 -0.63603
4172 1 2.30622 34.6696 -6.29764 2.15679 2.52369 2.3098
4173 1 -3.09539 34.5545 -9.29412 2.55702 1.94111 3.87356
4174 1 -1.75208 36.8983 -8.47652 2.27544 -0.0289893 -0.632372
4175 1 0.921392 36.929 -9.49137 1.83337 1.14844 -3.34891
4176 1 2.06863 34.4666 -9.27173 -1.09549 -0.422462 0.658476
4177 1 -2.14968 34.7576 2.79109 3.60985 3.09514 -1.72833
4178 1 -1.00415 37.0526 1.52843 2.14992 -1.24354 5.71493
4179 1 1.89105 36.5134 2.57885 1.55591 -1.33001 -0.445198
4180 1 2.8764 34.3925 1.17962 5.76889 0.715728 0.336759
4181 1 -2.55358 34.5439 -1.96537 0.462073 -2.67379 3.02418
4182 1 -1.04982 36.8525 -1.30946 1.55842 0.948119 1.90029
4183 1 1.40036 36.9139 -2.39195 -3.64475 2.1199 -3.4948
4184 1 2.64986 34.5083 -1.54717 -3.39993 -1.21562 0.301287
4185 1 -1.50905 35.1609 10.2408 -1.71936 6.37569 -4.70336
4186 1 -0.146199 37.3407 8.96774 -5.65993 -0.904407 -0.457083
4187 1 2.37022 36.5401 9.93937 -2.51072 1.72419 -5.21417
4188 1 3.75042 34.3643 9.05922 -1.00448 -2.00362 -5.04616
4189 1 -2.15273 34.9938 5.51458 2.18613 -4.8828 0.381551
4190 1 -0.385948 36.9638 6.28468 -3.39966 0.537935 -0.800015
4191 1 2.26743 36.5661 5.3746 -7.3773 3.54965 -1.41097
4192 1 3.39698 34.1762 6.15109 -1.09257 -0.0699602 2.73874
4193 1 -2.64937 39.3605 -4.65672 -1.03937 -0.210305 0.48607
4194 1 -1.5858 41.5549 -5.88867 -2.34985 -3.58797 3.77208
4195 1 0.979543 41.5434 -4.79923 2.37291 -4.28346 -2.1835
4196 1 2.35802 39.3834 -5.9482 8.25229 -0.618992 -0.6156
4197 1 -2.96981 39.2035 -9.44197 0.991921 3.04628 5.73499
4198 1 -1.777 41.4893 -8.60844 -5.04826 -1.85952 -3.33083
4199 1 0.964815 41.6409 -9.61257 3.29171 5.74977 3.02422
4200 1 2.10734 39.3678 -8.77602 -7.52293 0.673436 -5.91442
4201 1 -2.0752 39.182 2.73629 -1.78813 -1.40345 4.00154
4202 1 -0.843823 41.3482 1.70671 -1.37192 2.79621 1.9361
4203 1 1.93921 41.4862 2.43798 -5.52594 -5.43273 2.71408
4204 1 2.88629 38.9931 1.47593 -1.94517 -3.02384 -0.404304
4205 1 -2.53223 39.5317 -1.82263 1.26598 0.452428 1.90559
4206 1 -1.00062 41.562 -0.921762 -1.70688 -2.15474 -2.1053
4207 1 1.47409 41.7243 -2.16623 0.123988 0.333316 -3.04472
4208 1 2.7348 39.4682 -1.33095 -0.657019 -7.60144 -1.80652
4209 1 -1.60401 39.6203 9.47275 -3.57922 -1.53481 1.8175
4210 1 -0.173327 41.8007 8.8863 -1.98946 -0.818832 1.27597
4211 1 2.29713 41.1732 9.7984 -0.530662 0.0730902 0.315672
4212 1 3.60913 38.9126 8.97712 2.06148 4.74815 -2.86368
4213 1 -1.95091 39.0401 5.46464 7.60942 0.202336 2.41067
4214 1 -0.543167 41.3401 6.15419 -1.04774 1.72767 0.644205
4215 1 2.08542 41.3717 5.25692 0.936339 -0.502278 1.76124
4216 1 3.71504 39.0564 5.99353 -2.12363 -2.43066 1.55799
4217 1 -2.61321 44.015 -4.80631 -0.598186 -0.756253 0.430552
4218 1 -1.07657 45.8264 -6.237 0.899101 4.27259 -0.374111
4219 1 1.62394 46.037 -5.12779 -4.26594 3.30446 -1.03857
4220 1 2.33578 43.5131 -6.11867 -1.01597 1.86236 -2.91678
4221 1 -3.4412 43.4854 -9.37862 -0.986941 2.48933 -1.41941
4222 1 -1.54454 45.3447 -8.93432 7.99581 0.539537 -4.79821
4223 1 1.00721 46.5493 -9.88417 0.051609 -2.35611 0.427323
4224 1 2.09516 44.0779 -8.81595 3.7554 -3.09168 3.39641
4225 1 -2.05 43.6053 2.70035 -1.47064 2.09339 2.35963
4226 1 -0.717963 45.8033 1.7076 -2.31324 -4.19587 -1.6651
4227 1 1.86775 46.1459 2.4776 -1.035 -5.16437 -1.57441
4228 1 3.07961 43.7958 1.55115 -2.02602 -1.11811 1.08134
4229 1 -2.4009 43.7701 -2.08604 -2.00707 -0.722038 -1.48431
4230 1 -0.655765 45.6042 -0.967616 0.615626 1.01698 0.00862028
4231 1 1.97186 45.9751 -2.3054 -0.451948 2.36825 0.243796
4232 1 3.0827 43.749 -1.15711 -5.08604 0.25075 -2.53858
4233 1 -1.5003 43.908 9.61539 -1.14209 -1.52501 1.67412
4234 1 0.0883585 46.1252 9.31341 2.56229 1.03135 1.34957
4235 1 2.70138 45.4095 10.448 2.16819 4.5717 -2.45479
4236 1 3.7282 43.425 8.91292 1.57048 7.07923 2.30461
4237 1 -1.8628 43.898 5.42255 0.0131619 -1.46591 -0.785191
4238 1 -0.0812751 45.8719 6.49236 1.8922 -2.77593 1.83284
4239 1 2.41845 46.1712 5.26097 0.689729 6.46236 -1.25719
4240 1 3.71301 43.6127 6.11575 2.11638 -0.633121 -7.16539
4241 1 4.95565 24.9601 -6.13469 0.69703 -5.4524 1.65133
4242 1 5.97914 27.5581 -6.7625 -3.89315 -2.79669 -1.00826
4243 1 8.7105 27.7424 -5.67235 0.322748 -3.28092 -1.22052
4244 1 10.318 25.7707 -6.75922 2.99781 0.770654 -0.368166
4245 1 4.51534 25.1406 -10.1032 1.84232 1.33874 -1.34656
4246 1 5.89066 27.5253 -9.45507 -3.06172 -0.245866 -0.197335
4247 1 8.47142 27.6818 -10.2349 4.03931 -0.349415 7.86294
4248 1 10.1924 25.6807 -9.52869 -5.64143 -4.32033 7.64402
4249 1 3.84277 25.5513 2.0115 -3.39689 0.962158 0.69714
4250 1 5.5251 27.392 0.832319 -3.20067 -1.76054 2.04212
4251 1 8.01074 25.8979 1.49945 -0.337012 1.24094 -0.716454
4252 1 10.8919 26.1656 0.832222 -5.04845 -0.568772 4.22306
4253 1 5.06655 25.1109 -3.09521 -4.42702 4.16781 3.97533
4254 1 6.17748 27.329 -2.06074 1.4697 3.35897 -1.30934
4255 1 8.80138 27.5077 -2.69055 0.904366 4.4993 1.25768
4256 1 10.6382 25.4471 -1.98502 0.125487 -1.61857 -0.722999
4257 1 4.26743 25.6735 8.45176 -0.0100052 -2.64445 4.64141
4258 1 6.7141 27.1551 8.33243 -1.13232 -2.69988 0.0406422
4259 1 9.56541 26.9772 8.89217 -3.63529 2.90944 -0.381934
4260 1 10.3646 24.434 8.15416 3.53644 5.10965 2.66131
4261 1 4.84626 24.6361 4.64245 -3.2498 2.66022 9.27303
4262 1 6.50277 26.9178 5.48468 -1.75706 -3.35697 -2.98144
4263 1 9.00033 26.2068 4.14927 -2.65214 -2.74891 0.540365
4264 1 10.5042 24.15 5.39513 2.58973 -2.96227 -3.89468
4265 1 4.49874 29.7255 -5.70652 0.99763 -3.85631 4.37339
4266 1 5.97601 31.9718 -6.38865 2.58211 -0.593548 -2.34796
4267 1 8.45134 32.1383 -5.18157 5.02091 6.73923 2.35206
4268 1 9.64703 30.1748 -6.48728 -0.195117 -3.87288 1.15781
4269 1 4.68306 29.9015 -10.0284 -1.18913 0.267101 -1.28333
4270 1 6.41187 32.1178 -9.27195 0.887072 2.15846 -0.993513
4271 1 8.97749 31.94 -10.4655 1.24089 -0.324975 -2.1534
4272 1 10.1637 29.6694 -9.32052 -3.0898 1.10278 -1.08864
4273 1 5.09907 29.7804 2.15126 -6.96107 -1.87441 3.49183
4274 1 6.54708 31.9786 0.947992 3.43005 -2.62891 -4.56216
4275 1 9.35036 31.7475 1.48339 -1.98161 -0.89553 6.93218
4276 1 10.6756 29.0171 1.47314 6.26119 -3.67825 -0.487208
4277 1 4.86196 29.786 -2.96214 1.00297 1.32186 1.18903
4278 1 6.31351 32.0451 -1.89247 3.22178 -2.18415 -1.18997
4279 1 9.07224 32.1059 -2.3875 4.45687 2.93645 -2.10174
4280 1 10.231 29.6911 -1.32996 -5.23596 5.13749 0.879862
4281 1 6.2836 29.5685 9.62744 -0.681309 4.70602 1.85115
4282 1 7.46035 32.0698 8.39071 1.30543 1.50007 0.632389
4283 1 10.3797 31.4346 8.70172 -3.02419 -2.53836 2.11432
4284 1 10.9088 29.0379 7.38483 -2.51877 -2.29155 -0.37249
4285 1 5.77862 29.3962 4.93968 -1.1863 -1.85388 -1.6896
4286 1 7.35262 31.5817 5.4801 1.26741 -1.43391 -1.01489
4287 1 9.80528 31.5447 4.21859 -2.39049 -4.40048 -3.81813
4288 1 10.3182 28.5945 4.60671 0.710647 1.10425 0.190583
4289 1 4.96646 34.5759 -5.54686 6.32669 0.398146 3.93178
4290 1 6.31152 36.8797 -6.52996 6.00858 -0.298275 2.11176
4291 1 8.8215 37.1654 -5.52465 -5.13016 5.57509 -1.58992
4292 1 9.13355 34.4348 -6.43857 -2.43641 2.59951 -1.72215
4293 1 4.74131 34.3278 -9.83335 1.50514 2.96078 -1.442
4294 1 6.28216 36.607 -9.35456 1.92924 -4.02277 -3.21627
4295 1 8.93238 36.5916 -10.3978 -4.52328 -3.07385 0.625741
4296 1 9.79513 34.1555 -9.05172 5.00284 2.50256 4.57364
4297 1 5.61273 34.4133 2.12296 0.753362 -3.17662 -0.204913
4298 1 6.87114 36.6137 1.20968 -0.115709 1.01489 3.71026
4299 1 9.6017 36.6748 2.01905 1.05089 4.82625 0.410034
4300 1 10.9092 33.9382 0.904629 0.107125 2.23848 -1.39245
4301 1 5.02134 34.3657 -2.8317 -0.101491 2.5526 -0.272198
4302 1 6.29511 36.6437 -1.86322 -4.31834 -2.03188 4.50663
4303 1 8.95493 36.4156 -2.59874 -4.071 -7.48184 -3.63648
4304 1 10.3277 34.2592 -1.76515 0.931217 -3.52891 -2.36541
4305 1 6.48498 34.2693 9.71019 -2.04785 -4.71952 3.00862
4306 1 7.82997 36.2384 8.37792 2.76001 -0.192832 -7.32806
4307 1 10.6768 36.0566 9.11811 -2.43847 -1.65545 -4.32285
4308 1 11.7141 33.7024 7.85661 -2.04761 -0.963075 -1.8863
4309 1 5.98197 33.9517 4.76346 -2.12078 -2.37109 -2.06079
4310 1 7.54432 36.2249 5.60163 -2.11825 3.40104 2.59326
4311 1 10.0027 36.1301 4.62775 -0.781458 4.60463 -2.02061
4312 1 11.4104 33.4718 5.11343 1.22481 1.17282 0.523622
4313 1 5.10383 39.06 -5.39905 -0.550901 -0.195534 -0.918133
4314 1 6.34329 41.3536 -6.39224 -4.00793 2.04385 1.57896
4315 1 8.9839 41.7298 -5.63486 -1.34709 1.11752 2.03974
4316 1 9.82072 39.3967 -6.81717 1.29964 3.49986 -3.24718
4317 1 4.86742 39.1079 -9.37417 2.27207 -0.942106 2.943
4318 1 5.93358 41.5452 -9.1372 -2.21528 2.30433 -4.11684
4319 1 8.26371 41.2716 -10.6169 -5.99407 -1.91462 6.90588
4320 1 9.74182 39.1443 -9.42932 -1.7646 0.309053 0.542383
4321 1 5.71474 39.1246 2.04121 5.09776 0.1287 -1.48514
4322 1 7.09198 41.3631 1.02419 -3.89449 -4.11497 -0.142378
4323 1 9.79667 40.8625 1.90204 5.13507 -4.28616 -1.25688
4324 1 10.7034 38.7197 0.5971 1.9881 4.69367 -1.26092
4325 1 5.03758 39.1704 -2.58403 -1.44941 -0.730396 6.31599
4326 1 6.91926 41.1289 -1.63391 -4.96737 3.43296 -0.91648
4327 1 9.23153 41.3039 -2.97533 2.70586 -2.39262 -1.24161
4328 1 10.2435 38.73 -2.19482 4.23838 1.78433 2.45909
4329 1 6.49561 38.6608 9.24567 1.60623 6.44633 -3.31996
4330 1 8.06972 40.6379 8.60066 1.93484 0.862177 1.06724
4331 1 10.6659 40.549 9.57425 -0.718096 2.78794 0.720513
4332 1 11.6089 38.5998 7.87698 4.37471 0.00402685 2.43973
4333 1 6.12238 38.6722 4.68157 -0.514613 2.18907 2.88264
4334 1 7.82584 40.7272 5.79698 5.55292 -1.7019 2.97417
4335 1 10.419 40.6054 4.69037 4.22453 2.74323 0.709969
4336 1 11.675 38.2137 5.14432 -0.149823 -0.0303258 2.9702
4337 1 5.35998 43.8086 -5.19086 -8.04491 -2.77499 -2.57391
4338 1 6.23374 45.3897 -7.10016 -0.983314 -3.02031 2.67497
4339 1 10.2643 46.4712 -5.78773 0.465325 -1.96412 -2.33352
4340 1 8.8569 44.2744 -7.0841 4.93041 -4.58145 0.471186
4341 1 4.83888 44.1259 -9.25419 -1.91143 -1.10285 -2.33041
4342 1 5.63651 45.6763 -11.3098 0.0456967 2.17478 0.374232
4343 1 8.37756 45.7819 -11.4374 7.98131 -0.505479 -6.30416
4344 1 9.17366 43.6378 -9.80565 2.83828 4.39386 -0.682664
4345 1 5.80492 43.5601 2.27528 0.668501 -0.727128 0.255356
4346 1 7.16357 45.9719 1.69825 -0.895328 -3.78455 -6.49586
4347 1 9.91144 45.1969 2.13087 -0.794459 -0.585715 1.86586
4348 1 10.678 43.0463 0.541206 0.279604 1.71575 -1.90493
4349 1 5.67342 43.5082 -2.45514 -2.84994 -1.4295 2.82113
4350 1 7.24823 45.7673 -2.44868 0.958178 1.88171 -0.273992
4351 1 9.79927 45.8371 -3.2226 -1.43495 0.728103 -1.90675
4352 1 10.9841 43.4669 -2.08201 4.33178 0.466589 4.41879
4353 1 6.42113 42.7688 9.56756 -3.65545 3.34863 -0.791226
4354 1 7.93591 45.0698 9.97916 1.19977 -2.29865 3.05996
4355 1 10.6172 45.0561 9.89677 2.1001 -2.28317 -3.582
4356 1 11.7389 42.885 8.69432 3.85132 1.66582 -1.58232
4357 1 6.40903 43.0004 5.09536 3.44009 2.19112 -0.129139
4358 1 7.86569 45.616 5.83862 1.39259 0.895904 -1.10692
4359 1 10.3221 45.4411 4.79561 -0.671193 0.0945207 -0.957374
4360 1 11.2125 43.1834 6.07458 -0.472485 0.272429 1.71137
