ITEM: TIMESTEP
8800
ITEM: NUMBER OF ATOMS
4360
ITEM: BOX BOUNDS pp pp pp
-2.4309348971191113e+01 2.3500184871252443e+01
-2.4355006247511461e+01 4.6871441847511456e+01
-2.3908866788558711e+01 2.3900665188620877e+01
ITEM: ATOMS id type x y z vx vy vz
1 1 -24.2861 -21.4481 13.3922 -0.0764914 2.95899 -1.37046
2 1 -5.66462 12.6207 2.31159 1.00315 -6.57715 -3.63807
3 1 5.45515 -7.98356 -22.8012 4.66268 1.56966 0.908729
4 1 3.53392 -1.03719 -5.64424 -0.188403 -0.933791 4.77544
5 1 -17.3155 -22.6454 20.0049 6.21657 0.240551 3.51364
6 1 0.893314 18.7165 21.1255 -4.4946 0.910867 -3.50708
7 1 6.28166 22.4213 8.49597 0.92661 1.26054 3.2367
8 1 -24.0293 -12.5714 -13.3645 4.48979 -2.25047 2.13052
9 1 -14.5791 4.87198 4.76334 -1.07633 -3.77714 -0.45579
10 1 -2.52217 -7.05074 14.3856 -6.28119 -7.84383 3.88874
11 1 3.95416 -9.3102 18.5275 -4.48072 -0.309166 3.89927
12 1 21.9855 -6.242 -19.7292 -0.370732 -0.916577 4.82135
13 1 -21.0927 -14.7724 14.4815 -3.38673 -2.96681 -1.67161
14 1 12.0715 0.176931 -9.12636 -0.28299 4.24482 -1.22346
15 1 -4.25011 -0.728724 -14.4291 -1.72468 8.26779 -0.0590973
16 1 -18.7023 -0.309723 6.33034 1.08035 -0.714189 2.07038
17 1 17.2965 -4.47286 17.1912 3.72301 5.91616 1.84301
18 1 20.7146 24.2791 3.27252 -2.79035 -3.14637 -0.979374
19 1 -16.5172 23.0024 20.5627 1.87866 -0.0215847 3.38598
20 1 19.8957 1.17599 -23.3838 -1.95278 -2.53052 -2.88883
21 1 -24.0017 1.38412 14.7249 -3.12662 -0.780682 5.49085
22 1 -12.1541 0.99171 -19.5392 2.39996 2.8431 -1.51038
23 1 -12.4243 -21.8211 20.8822 -1.91389 3.57607 0.479782
24 1 8.85822 19.5553 -5.56893 -1.0561 2.16138 -0.347877
25 1 6.91947 27.3824 15.4246 -4.01393 2.13915 -3.60092
26 1 -2.43488 19.1003 10.3456 0.881795 4.68353 3.7432
27 1 -19.264 5.26498 -2.01079 -3.9555 -2.96259 2.86943
28 1 -20.3502 3.36596 -0.239392 -2.31662 3.70793 1.80093
29 1 -8.3968 -10.2719 -8.13464 2.07123 -0.878971 -1.73273
30 1 21.0199 -3.58362 -20.6236 -1.40928 -0.273042 -0.971079
31 1 4.74925 -17.6121 -19.6477 -5.71473 -0.504075 1.02122
32 1 -8.98497 14.579 -19.9682 -0.222653 0.116306 -0.913704
33 1 2.49885 0.673818 -11.9081 0.768385 1.17738 -5.3725
34 1 -17.9859 -24.1765 14.8658 3.87482 3.52517 -4.40991
35 1 17.1528 5.50327 14.3988 -0.652133 -0.928619 0.544174
36 1 -13.0867 23.158 -16.4763 -2.45173 0.923494 -0.631512
37 1 -10.9471 -7.53544 -1.693 1.07494 1.39323 4.28727
38 1 19.8478 11.0467 8.42356 0.537243 -0.00165569 -1.48064
39 1 1.76618 10.1835 -21.5656 -0.474572 -2.09149 -3.06164
40 1 -1.21337 0.519024 -18.0127 0.722422 1.76047 5.05343
41 1 8.68963 -6.19662 -9.58955 -1.11942 1.70002 2.86998
42 1 -19.1523 -17.9644 3.38086 -1.29679 2.09706 -4.82607
43 1 -12.9813 -4.43127 2.97004 -0.979858 -1.73581 0.0205498
44 1 -1.38025 -15.5476 -9.1941 -2.64521 1.21472 0.896032
45 1 -9.51681 15.3989 -3.89071 4.47349 3.71227 0.293999
46 1 -23.7755 -21.4984 18.4511 -3.84333 -2.05475 4.89278
47 1 -2.78869 4.11593 18.4205 -0.107386 2.94322 0.258926
48 1 11.9815 6.00439 -9.7916 1.7666 -0.836504 -0.045776
49 1 20.9719 11.5033 5.40442 0.112095 -2.67754 -0.60238
50 1 15.6887 -23.7804 12.8452 1.53412 -1.36328 -2.89589
51 1 -12.1571 -2.07822 16.3691 3.03426 -3.67344 1.58591
52 1 17.5351 6.17197 -16.9433 -3.47643 0.357678 -0.680153
53 1 -4.65511 22.339 8.23878 -1.36413 -0.680192 1.99296
54 1 -15.3567 -9.88321 -11.9905 -1.14893 -1.23498 -0.576844
55 1 -5.73024 -0.462388 -16.8365 -4.29282 1.68167 1.52437
56 1 -13.9694 5.69008 1.75713 -0.957705 -3.76571 3.6099
57 1 -16.5812 -10.463 -3.7626 1.60468 1.10916 1.84732
58 1 3.67869 -21.8894 -4.13219 2.46465 -1.50334 -1.08921
59 1 -20.6467 14.0816 21.0844 -0.850936 -0.555705 -0.869872
60 1 1.26069 18.2604 -20.2922 3.3293 1.16557 3.51349
61 1 -11.4604 -1.12298 0.0942998 -5.5485 0.912073 4.28684
62 1 -0.122632 -9.96469 16.9228 3.76108 -5.15305 -4.40522
63 1 1.14192 11.2042 -16.784 1.25098 -2.33716 -1.42671
64 1 -9.07367 -2.32577 3.98807 1.02848 -1.76882 -1.23511
65 1 16.0504 -1.97386 9.23432 -2.17077 2.34225 -1.29795
66 1 -9.38846 -17.295 -13.0228 1.10231 -0.793468 -1.06018
67 1 -14.2968 22.7353 -10.5748 -5.1344 1.49724 -1.89273
68 1 -1.71456 18.8111 -19.3467 4.1164 -3.93957 0.212829
69 1 -9.53448 15.5357 10.185 -2.94265 -1.59513 2.28261
70 1 -17.0328 15.5923 -14.7213 1.47906 -1.61946 -4.20597
71 1 -10.8818 5.87904 1.00215 2.80121 -1.69347 1.78368
72 1 20.2065 14.6333 17.3373 -3.27863 0.226466 1.76928
73 1 -11.6435 -16.9925 14.9119 0.217016 -2.70162 1.78456
74 1 -0.373768 8.34892 -12.8192 -0.201063 2.78395 -3.78267
75 1 -19.4915 1.22037 -13.0789 -3.3843 3.80557 -5.58013
76 1 -24.2616 -7.64387 1.74187 -2.55168 -4.30073 -1.68304
77 1 16.1343 -22.299 -0.438696 1.13684 3.25545 -2.15986
78 1 -18.2622 11.5632 -9.4048 -4.58081 -1.92383 -0.562652
79 1 -20.0904 -1.78806 -13.3726 -0.947745 0.226728 0.818424
80 1 -12.0026 14.6007 -15.8225 -0.590623 0.711509 -3.94921
81 1 -0.694318 -10.2056 -17.3854 -3.00063 -0.830866 0.349321
82 1 6.15239 46.5391 4.25838 -1.04744 -1.65977 -1.44469
83 1 -20.2776 10.2218 -0.193911 -5.46996 3.3603 -3.70868
84 1 19.3341 23.0505 20.2043 -1.94012 -2.29227 0.308672
85 1 5.04175 16.0234 -1.35121 -2.17113 3.64458 2.30247
86 1 14.0766 7.98796 14.6553 -2.69016 3.85013 0.359071
87 1 3.70044 13.8652 -7.02658 -1.10704 -1.29744 3.18096
88 1 -9.45225 24.9124 -19.8818 -1.5377 -3.55297 0.777986
89 1 -10.3061 -0.655369 20.331 -4.06978 4.03741 -1.34898
90 1 4.81797 -3.51461 4.33806 0.168406 0.528681 -3.29888
91 1 16.1556 20.8882 23.5641 -4.33617 -1.42448 1.11385
92 1 16.1285 -22.7512 2.31348 0.975212 3.03844 -1.15546
93 1 -19.8328 46.8817 16.9709 3.11869 4.8254 1.71586
94 1 21.3188 0.0675593 -11.1957 3.50958 1.67041 -3.7522
95 1 1.46625 -4.58287 -10.618 1.061 5.9013 1.53252
96 1 -23.4443 -19.4404 20.603 -1.86745 -0.0500119 -0.0371123
97 1 -7.2154 -15.5242 -19.6998 0.53156 -1.09786 -1.11858
98 1 -5.41208 20.0309 12.1271 -0.0253898 -2.78083 3.63367
99 1 18.4314 -21.4115 -6.33619 4.02948 -3.6048 -2.51397
100 1 21.5698 -14.2804 -23.3177 0.612942 -1.51295 2.68714
101 1 2.06766 -20.4302 -8.3363 -6.33145 0.388326 1.53407
102 1 2.35454 3.77636 6.85579 1.04926 -2.66772 -2.95997
103 1 16.9343 24.7706 20.7731 -2.81265 0.114695 2.3567
104 1 -15.8967 45.748 -9.90365 4.52648 1.21908 1.51443
105 1 3.7689 18.7159 -16.595 2.23644 -2.54369 -1.80051
106 1 14.2325 2.64362 9.49456 1.46361 -7.07198 -1.88111
107 1 21.1573 -3.83776 18.2401 -0.954255 -0.294958 -3.67176
108 1 -9.70117 6.46375 20.0455 4.17308 3.62515 3.30355
109 1 -13.4406 16.578 -17.58 -4.85407 -0.446537 -4.73432
110 1 8.97604 -14.8452 -8.42808 -1.55716 0.456247 -0.569122
111 1 -23.8496 -5.97086 -10.4219 -7.2581 3.0996 -2.21333
112 1 -17.7338 3.90804 -20.7368 0.0571542 -3.92621 -0.922024
113 1 -4.81777 -8.2385 17.467 2.33168 3.17239 -4.79247
114 1 -20.9176 -20.6443 18.2581 -5.31663 1.54399 -0.52482
115 1 8.33038 11.4511 3.742 1.99193 -0.542766 -0.522989
116 1 2.7922 -18.8417 -16.1129 6.57237 -2.19453 -0.597461
117 1 17.7694 18.6652 -19.8739 2.74755 1.25765 -0.15026
118 1 2.11328 -18.4262 -10.4628 -0.34561 6.84647 1.8189
119 1 15.341 13.5404 -9.55904 1.25827 1.26006 5.61071
120 1 3.76035 -1.4619 14.813 -5.84713 -0.428386 -0.553056
121 1 -4.25914 -18.666 22.7784 1.89524 2.79442 -3.64294
122 1 -5.27059 4.45319 19.7517 -1.91917 1.05605 3.7458
123 1 11.0264 18.6317 8.98258 -2.36729 -2.57386 -0.816264
124 1 23.392 -20.5256 -16.6168 1.13919 1.15759 -4.06103
125 1 13.3486 8.29842 0.917816 5.24268 -1.05424 -3.02398
126 1 -10.3845 -0.571393 -6.59429 -2.09298 -0.351849 0.969584
127 1 8.52452 1.16658 13.9357 -0.933751 2.21505 0.08748
128 1 -17.5806 0.403153 -10.2501 -4.39405 -1.92584 -1.46442
129 1 19.9257 -6.79448 7.1997 -1.0616 0.762352 4.30427
130 1 -8.43281 19.2824 -19.697 -7.3771 -7.54255 4.70044
131 1 0.91337 -7.83736 -16.6815 -0.423217 0.825601 -4.53787
132 1 -3.49485 -0.704198 -21.3856 -5.01121 -2.37998 1.24115
133 1 -16.8703 7.15824 15.2948 -0.221255 -2.5702 -2.87542
134 1 22.0186 -10.072 -21.4654 -2.96783 -0.280915 2.06607
135 1 -14.6456 -4.86759 -21.4378 -1.0726 -2.8646 0.496554
136 1 -1.20548 5.10822 -6.02514 -3.20042 -2.00484 2.65415
137 1 -8.74181 5.00083 -15.81 -0.245011 1.0944 -3.14423
138 1 11.9532 15.3218 5.66065 3.01959 -1.19048 3.71483
139 1 -17.7452 -19.9427 -16.1767 -2.38621 -3.43291 0.158898
140 1 4.97338 -6.42826 19.3776 -3.56933 1.29897 -1.48301
141 1 9.57979 -13.2742 3.09478 2.88877 1.68013 -1.63934
142 1 13.6059 2.14271 22.4133 2.67235 2.58827 7.68976
143 1 -2.56178 -2.23209 -3.90863 0.143912 1.92086 3.07412
144 1 -23.7785 -9.55307 -13.5962 0.762306 -1.52056 1.70301
145 1 16.0496 11.1576 15.5923 0.694879 -0.963126 -4.33674
146 1 -10.9116 -12.8431 13.8238 5.06437 1.06051 -2.20611
147 1 9.24394 16.0051 4.34283 4.40388 -2.29882 -5.78087
148 1 -20.2368 12.2312 11.2287 2.13466 -2.33013 3.04242
149 1 -17.0475 45.9802 -17.5016 -1.03451 -0.608211 0.906135
150 1 20.8389 10.1547 23.1301 1.93751 1.00476 2.0251
151 1 21.584 -2.98173 -23.5036 3.49104 -2.79091 1.18928
152 1 -8.33516 -5.98651 16.7712 -0.0615078 1.46587 2.31892
153 1 8.84393 -15.3754 -2.24934 -1.66888 0.0784609 -0.202174
154 1 -9.07148 21.6916 -5.85897 -1.27722 2.59621 0.218341
155 1 -22.5488 -20.6103 -19.944 -3.69155 1.46652 1.27459
156 1 13.3956 11.4279 16.7825 -4.54206 4.86875 0.560177
157 1 10.0574 -12.5792 -18.0284 2.57464 -6.61956 1.345
158 1 9.77359 8.85954 4.0977 0.828631 -0.155912 -3.27508
159 1 -20.5822 -16.2922 11.9914 4.20839 -1.43605 -4.14213
160 1 -2.97445 -16.596 -2.32583 -0.796809 5.70302 1.73833
161 1 18.4621 0.971267 -13.5115 1.78579 -1.36985 -1.63486
162 1 -15.8796 -12.7412 21.672 -0.0694333 -0.82819 0.36373
163 1 2.59769 -0.581903 17.5515 -0.251264 1.75962 -0.632531
164 1 16.4293 9.57037 12.116 -0.533225 -3.92741 1.26351
165 1 -21.3155 11.9766 16.883 -0.235336 -0.474039 2.71631
166 1 8.11423 21.7655 -19.8494 -4.5742 3.31983 -2.94295
167 1 -13.7096 -0.255617 -4.19465 2.19501 2.8962 -0.278057
168 1 22.4966 24.2812 -1.10413 0.792353 1.37113 0.984281
169 1 4.83192 23.6965 -12.241 2.1118 -2.78304 -0.814492
170 1 -3.59057 -21.0972 -13.4478 -0.541938 -0.848463 2.36533
171 1 -14.2648 -0.209884 15.4004 0.562925 1.46166 -5.74105
172 1 -20.4242 20.8932 -17.364 -3.15555 -0.730912 -2.77552
173 1 -22.4023 -3.28003 -22.2299 -2.68215 -6.8287 -5.10903
174 1 -19.2246 7.33069 -23.8752 -0.168292 -6.53056 -2.74202
175 1 7.13475 18.97 5.88082 0.600706 -2.56037 -4.10213
176 1 -4.48419 21.4544 -4.0555 -0.682252 0.679935 -4.27771
177 1 -6.00234 -18.4949 12.2991 -4.98068 3.86789 0.136442
178 1 -18.5312 10.3609 5.59211 0.316976 1.65848 1.88276
179 1 -4.89025 -5.58467 -14.4732 1.09004 0.162417 -3.42288
180 1 -23.059 19.0289 8.69673 -0.467097 -1.66821 -3.65725
181 1 -4.97966 -4.64093 -20.5548 -0.805544 0.664364 -1.12183
182 1 -22.1358 -0.90419 17.4114 -0.371596 -1.6909 4.20388
183 1 21.0603 16.6071 -0.671669 -3.54559 -0.949298 3.70011
184 1 4.14977 46.0864 -21.5365 1.0944 2.07959 -5.40616
185 1 20.4037 22.6968 13.7068 2.60474 0.709773 -6.56279
186 1 12.8078 25.3353 -10.9471 1.69548 -1.95038 5.82924
187 1 -7.82518 8.80439 -8.61788 -1.521 -3.16373 -0.975548
188 1 8.61321 -21.8757 -3.33532 -5.71815 1.12312 -0.990659
189 1 -5.93954 -5.11889 4.17105 -1.12054 2.41824 1.69967
190 1 -13.8909 8.57073 -10.5366 3.26226 -3.34191 1.71814
191 1 -0.370261 -7.11812 -23.4387 -0.698946 -0.362678 -3.04024
192 1 6.43771 4.37755 -3.82365 -7.49036 0.432316 -1.05167
193 1 8.749 0.349423 6.02163 0.270483 -1.02905 2.91098
194 1 3.86691 25.8617 -20.1141 -3.20908 3.42015 -0.162106
195 1 7.77623 -2.19012 -8.31252 -1.05986 -2.93667 2.88493
196 1 -15.5047 21.894 7.54032 -0.0934589 -1.19169 2.84025
197 1 -23.9943 -4.27003 23.2048 3.96319 0.202677 6.11388
198 1 -12.9384 -19.6778 -17.7111 2.61149 -2.44468 2.33608
199 1 -21.3229 -4.85053 -11.4941 2.31257 2.0862 -1.16224
200 1 16.4698 11.7198 -20.2819 -1.20029 0.417022 0.4897
201 1 7.00095 4.31917 -23.7372 -2.5175 1.3342 -5.08545
202 1 9.12155 16.113 14.1133 -0.518884 1.43806 1.17783
203 1 -22.0745 19.058 5.77254 -3.23984 4.49718 -0.988923
204 1 -6.30033 -14.2569 -8.74257 3.79159 3.02433 3.85136
205 1 18.4877 -7.85045 12.0063 1.81185 -2.9733 -1.71248
206 1 -1.74855 -13.3262 -20.9277 2.05376 -1.01697 2.71499
207 1 -4.81973 5.7325 22.1815 -2.95846 -0.597474 -0.575972
208 1 2.99744 -5.39071 16.5232 -0.182447 0.208131 0.963335
209 1 -4.14425 14.946 -13.7181 3.7748 -1.90291 -2.71067
210 1 -17.4614 9.9071 -0.223167 -3.89578 -2.42218 1.09972
211 1 20.1553 -1.21434 4.35957 1.10497 3.05491 3.04437
212 1 -17.4553 24.3149 -1.10209 0.920914 -0.669245 -3.85767
213 1 -18.9703 -20.0178 -3.5029 -0.752173 0.664706 1.24583
214 1 17.7569 -5.62937 -19.9574 2.32959 -2.38636 2.8689
215 1 9.66668 26.8846 15.7706 -1.28627 1.06329 0.0863124
216 1 -17.9397 45.0965 9.04823 -2.4142 -0.568333 -0.539257
217 1 1.58924 23.203 10.564 2.70066 3.4261 -2.55662
218 1 12.4446 7.38664 -5.98572 4.53541 4.80039 -3.16954
219 1 -4.77313 25.7023 21.0171 -0.30799 0.112907 -0.0186866
220 1 5.14023 22.2844 17.7423 0.466518 -4.12159 -0.0634282
221 1 -15.3961 3.62784 -1.63505 -0.318034 1.44429 0.335704
222 1 -12.2223 -9.85792 0.137486 -1.91214 -0.868851 1.35059
223 1 22.5275 -5.76629 -0.052698 -0.559782 1.19529 -0.505527
224 1 -10.191 -3.67849 -23.1113 2.96244 1.04488 2.64625
225 1 4.53559 -12.5166 -10.0899 0.237075 -0.192647 0.370613
226 1 22.5518 14.4998 -14.8028 -1.97452 1.69402 -2.61045
227 1 15.4875 17.0389 2.33448 9.2971 0.252852 7.54423
228 1 -11.1753 18.0475 1.51929 2.27552 -1.5463 -1.27221
229 1 12.4024 10.4796 -6.30785 -6.46706 3.93401 -0.952125
230 1 -8.92837 16.2868 22.6518 2.0776 1.62174 2.10493
231 1 -24.2805 -2.12336 -20.4213 -0.507263 -2.223 0.86746
232 1 -0.397916 -13.6272 11.0919 -1.31171 0.205647 -0.778225
233 1 -12.9055 13.6603 14.4966 -1.20706 -1.18706 -0.572476
234 1 -7.91054 17.2634 4.68505 0.394955 4.31225 3.12796
235 1 -23.4028 0.910407 -8.10241 -2.06433 -0.729608 2.24779
236 1 16.0262 -6.7433 6.63832 2.33967 -1.04096 0.833949
237 1 -18.5366 22.348 3.32058 -2.85551 -4.14732 -1.34023
238 1 14.5555 -0.517864 -21.4873 -1.14565 1.21367 1.1618
239 1 -17.3522 21.8761 13.9635 0.381479 -5.50474 2.52672
240 1 9.84571 -0.080258 15.8295 3.39747 -3.60917 -0.533339
241 1 -22.9056 -17.007 10.7172 -0.444513 1.39137 -1.37712
242 1 -5.69726 -4.1106 -12.1297 -3.20418 -0.147218 -0.226549
243 1 -4.91559 -10.075 13.3752 -7.53915 3.5163 -3.01831
244 1 -18.7603 10.9433 -23.7836 -3.73801 -2.65324 -8.0832
245 1 -10.6776 25.1368 -12.4705 0.558014 0.645242 5.13681
246 1 10.6521 2.01093 22.8403 0.0625983 0.727294 -3.83246
247 1 -22.2253 -5.06961 11.7325 1.6997 0.829176 -0.72427
248 1 -17.4872 9.05174 -11.117 0.478861 0.125748 -0.9165
249 1 -2.21108 -20.5272 11.75 -0.387257 0.722627 0.540733
250 1 -2.1869 -4.39724 5.45102 0.446523 1.15418 4.1477
251 1 -20.7092 -2.25808 -20.3522 -0.939185 3.69588 -0.734144
252 1 19.9622 18.0435 -13.0904 1.34458 3.90662 0.57913
253 1 0.088567 -5.18694 22.3173 3.8787 0.164007 -1.97549
254 1 3.70192 -16.0567 -13.3312 1.07839 0.683511 -4.13396
255 1 -23.3782 -22.1795 10.9154 0.712552 -3.61915 1.58201
256 1 -11.9424 -5.15794 -11.4204 3.13024 -5.99565 -2.85922
257 1 -0.199793 6.46544 -20.5009 1.9895 -0.533341 6.08359
258 1 -5.6273 -1.36367 -6.92886 4.47982 2.8792 0.0854247
259 1 18.213 -17.4152 -19.2069 -5.00001 -3.78874 3.17595
260 1 13.7645 7.74027 -3.54642 4.88617 3.93152 -0.972714
261 1 -0.0724763 -22.3591 10.3931 2.97252 -0.744557 6.02013
262 1 18.3002 17.463 10.1462 -0.828458 1.94941 -1.44805
263 1 -24.0489 8.97456 -9.50266 4.54477 -3.43645 -3.38135
264 1 -20.7501 4.90927 20.3245 -0.751684 -1.79166 0.22341
265 1 13.9859 -15.9927 -5.26244 -1.05096 -4.21692 3.31009
266 1 -23.9287 7.39283 -16.1547 -5.70081 1.19405 -0.134166
267 1 -10.3409 21.7548 -10.0418 1.83593 -2.26704 2.94342
268 1 -20.8151 19.1109 -10.5844 0.613609 -2.77221 1.27676
269 1 -19.9696 -9.14546 -14.2085 2.20514 6.47479 -1.69822
270 1 22.4227 -17.1664 16.6303 1.73147 -2.76165 1.59005
271 1 1.8682 23.7133 -13.0304 -0.617906 -1.30296 4.31622
272 1 11.808 -18.627 11.8854 -1.29183 1.13928 3.27599
273 1 -16.864 -9.85265 12.2365 0.357764 0.306596 -0.990777
274 1 12.8807 -10.6165 8.26975 -1.01477 3.67507 -7.45985
275 1 13.5817 24.2915 -21.4021 1.19238 -3.02211 1.01375
276 1 -22.5152 7.04576 -11.9567 -0.321328 -7.27401 -0.357507
277 1 12.3666 -16.0229 -20.7929 4.21332 -3.0937 -0.207655
278 1 19.7074 10.0174 16.6104 -0.1022 -0.371845 -4.30578
279 1 21.5195 0.00515864 -4.3056 0.880017 -3.3193 -0.524573
280 1 -1.4522 -20.0537 -11.9234 -0.908399 -2.92553 1.52257
281 1 13.0579 22.0198 13.8727 0.0952016 -1.82603 -1.06688
282 1 11.4677 13.2745 11.0758 -1.31024 -4.74971 -4.5608
283 1 -4.76357 -23.6704 -21.6241 -1.57849 -6.07252 -1.03101
284 1 -1.59262 12.3162 1.08924 -0.711689 3.37558 -1.40967
285 1 -18.3016 19.3367 18.7456 -1.01351 -0.167559 3.42889
286 1 -0.218629 18.7195 -2.8853 -0.219986 0.0632984 0.0108761
287 1 5.33015 -8.28973 -7.10055 1.3852 4.48364 1.8065
288 1 16.4478 21.8932 4.54019 2.44346 -3.11552 -0.177428
289 1 -6.71594 -20.4209 10.2038 1.32046 0.150792 -0.203958
290 1 -4.71536 -8.85577 -16.9673 -4.69073 0.937112 -1.92607
291 1 -13.1766 -19.2229 11.6213 -1.085 1.99253 2.33816
292 1 14.0598 6.20821 2.93466 4.6709 -2.23233 -1.54712
293 1 13.514 1.84908 13.7495 2.13056 4.11098 -3.11499
294 1 -8.09535 2.06513 -3.0555 -2.7824 -5.85869 3.71735
295 1 3.52821 6.61417 9.48734 1.19506 -4.80504 1.60315
296 1 0.687572 13.0247 2.90311 1.36869 -1.99126 1.11641
297 1 21.1215 -8.93657 -7.47262 -2.41476 3.46496 3.94769
298 1 14.4745 -24.4031 -22.2704 -5.8637 -4.09239 0.315993
299 1 3.76214 46.6864 -14.1257 0.299221 -3.89767 1.9367
300 1 14.1457 -4.4327 19.9701 -2.65173 1.10537 1.49646
301 1 -4.95307 22.8313 -21.8946 2.68117 -2.67497 -0.339167
302 1 -0.0228076 9.86156 -1.54775 1.20294 3.94258 1.33551
303 1 -22.0204 -18.5039 -6.69159 3.00478 -4.67257 -1.80906
304 1 -18.5905 -15.4738 15.9588 1.33206 -2.15908 -4.51508
305 1 2.76099 -21.1838 20.7317 7.83836 0.666368 -6.753
306 1 13.5381 22.8361 -11.9505 1.40881 0.0586793 4.47363
307 1 10.5506 13.4107 22.1976 -1.81702 -0.757323 -0.387768
308 1 -18.0262 -24.2935 1.46886 5.41419 -0.763793 -3.3599
309 1 6.6108 -17.0898 19.6594 1.83134 -3.65928 4.86061
310 1 1.37481 15.927 14.9448 -0.700054 2.01447 3.21403
311 1 12.5509 -11.4859 5.36097 -3.21071 -4.97817 0.621603
312 1 -6.49721 1.35236 -7.02023 -4.89474 0.253515 0.262834
313 1 -16.9503 -17.5554 -9.85866 -1.89002 -3.67668 2.25297
314 1 -12.461 5.04012 -8.03489 3.32027 3.02565 1.18706
315 1 -15.4279 -24.0268 2.41753 -0.328997 2.82324 -2.54086
316 1 22.2655 -4.91624 2.77069 3.00503 5.50665 0.942558
317 1 -10.5168 -8.41528 22.4272 -2.80208 4.58088 -1.05106
318 1 20.4361 -19.0293 20.9058 -0.0918456 5.81466 1.06107
319 1 -8.52718 0.0251486 12.9398 0.30096 3.36959 4.2483
320 1 -1.73954 2.13982 8.07722 -1.02249 4.51033 4.61307
321 1 -17.7691 -11.0769 -13.0898 -1.84833 -1.47951 0.196628
322 1 -9.47964 12.5568 -3.17152 0.266622 2.49302 3.12755
323 1 -13.719 0.337232 1.37816 6.59392 -4.26042 -5.22845
324 1 -22.0565 3.49626 8.14902 -0.932514 0.798645 5.99341
325 1 -2.14102 -20.6243 18.5948 0.0474749 1.20121 0.251832
326 1 -16.4993 2.35177 3.14591 7.79719 2.24072 0.466061
327 1 -6.31997 -10.0735 20.3765 1.56577 2.5846 -5.78934
328 1 10.2673 22.1182 16.5155 -0.580169 1.06996 -2.79017
329 1 0.0333172 -0.610621 -11.1419 -1.025 7.10835 0.576055
330 1 -14.817 -23.3676 23.6031 -0.842137 1.22199 4.07843
331 1 12.377 5.02711 6.33792 -1.30199 1.77238 -0.335808
332 1 7.93801 -1.63011 -11.2255 -1.56623 -4.61111 7.40216
333 1 7.53625 -10.2392 -13.4315 5.83624 4.63229 -2.56144
334 1 7.75335 -24.2906 -4.75151 3.8839 -0.459207 -2.22286
335 1 20.8757 -20.9931 4.65891 0.855939 -1.13539 4.30555
336 1 18.2982 17.7366 23.2512 -0.481929 -0.0837636 -0.533646
337 1 -18.4031 20.4412 -2.0402 1.32989 3.44358 -0.886616
338 1 7.35568 -8.51066 20.6163 -4.82896 -1.90942 -1.17692
339 1 -5.97208 -17.4532 -23.1284 -3.8544 -4.65992 -1.13025
340 1 -14.0707 4.16619 -18.1881 2.67811 1.08017 -1.88336
341 1 -8.85746 2.31421 -14.813 -2.43559 -0.422707 1.53274
342 1 -2.80218 -16.4158 -14.5008 -0.76452 0.903742 -0.282725
343 1 -3.41875 -11.3959 -7.96158 -1.85707 -1.46922 0.205065
344 1 8.41656 -18.5371 -11.4541 2.92783 2.81054 -0.300024
345 1 -10.8309 -8.01028 16.7482 -4.69465 2.47808 0.277337
346 1 16.8939 0.427183 6.48987 -0.82558 -2.66029 -4.26262
347 1 -24.1456 -4.76613 8.56351 -1.33341 0.658576 0.165
348 1 -14.505 -4.81023 7.90344 -5.79569 -0.478208 -0.64767
349 1 -4.00129 11.0353 21.239 4.82573 -2.3225 2.49383
350 1 -23.6582 20.2519 23.3726 1.10367 1.58294 0.324566
351 1 -17.2388 2.90251 10.7977 -0.420777 -4.9449 1.71478
352 1 14.0304 0.972794 2.51597 7.324 1.11926 -2.18966
353 1 18.4655 -23.5845 -16.6505 -1.47055 -2.70165 -0.842605
354 1 9.62822 22.84 -6.95027 1.73161 -3.17766 1.56438
355 1 -1.20255 -2.25929 8.68447 0.81097 -0.66555 6.00098
356 1 -3.77642 -19.1649 -20.9831 -0.140901 4.7593 1.73564
357 1 -5.96118 -13.2986 2.53919 -0.632998 1.22072 2.90606
358 1 19.0769 -12.7032 13.5732 -2.31926 -0.71432 -3.83098
359 1 -13.3928 -22.2388 -9.14526 -0.444413 3.93639 2.09181
360 1 5.24651 14.6822 1.26615 2.29529 -2.89847 0.572905
361 1 -21.8271 -21.2334 -3.5903 -0.880124 -0.187677 3.61825
362 1 -18.2858 11.6401 3.01022 1.0556 -4.45975 -2.41781
363 1 -19.0649 -21.9301 8.71158 0.0469967 -2.48047 -2.0026
364 1 -9.14041 1.90602 -7.52929 1.6515 0.409441 -2.94357
365 1 -0.497482 -16.2705 20.2006 2.50385 -1.16262 -0.241593
366 1 -18.7693 3.06422 -9.37341 4.18168 -0.362786 0.0127221
367 1 8.17314 18.7766 -16.9547 -0.600673 3.7724 -1.63012
368 1 3.9912 -3.94817 13.5079 -0.965672 0.442491 3.21212
369 1 14.7706 7.15966 -13.7014 0.607994 1.29657 -3.5096
370 1 5.8441 -17.5343 -22.4229 0.71172 -0.504204 3.03642
371 1 -9.97295 45.4708 20.6615 4.98781 -0.455245 1.89296
372 1 -8.73656 23.7109 9.74006 1.19599 4.7179 3.5452
373 1 -14.5949 6.03943 20.8286 -0.784838 -0.999067 0.652538
374 1 -7.54413 20.1363 -11.9134 0.0370013 1.35742 1.09402
375 1 -21.2151 -7.24586 21.7354 -4.80621 -0.229806 -3.2839
376 1 -4.04761 -13.5543 -18.0337 -2.88624 -2.62754 -1.27338
377 1 14.3426 -1.23758 16.7148 4.12602 1.87701 -1.88177
378 1 18.9577 -14.5444 -3.96486 -0.897999 6.92817 2.69039
379 1 -24.0896 24.1006 2.95978 3.16266 3.64008 2.001
380 1 12.6772 19.1085 -23.3257 1.17101 3.97464 0.695042
381 1 -20.9545 -14.4679 17.6714 -0.83347 0.462892 3.61483
382 1 18.084 17.767 -5.43539 -5.40006 -2.02331 -1.20705
383 1 12.4981 -23.0116 7.86247 -3.88301 -4.23589 1.0682
384 1 -11.0725 12.1262 -7.49618 -2.70035 0.84002 -1.81065
385 1 -9.78511 3.44651 19.3504 -5.59992 -1.73437 1.53269
386 1 17.9718 -4.33907 -17.5935 0.815507 0.660051 -1.97409
387 1 7.51869 -17.2448 2.74702 0.504725 -1.21907 4.39445
388 1 -17.5384 44.5174 23.3886 2.89712 6.68918 0.0323023
389 1 -13.3056 8.74266 6.07423 -1.15671 -1.53284 3.00279
390 1 12.3109 7.54694 7.65709 -4.28668 -3.45958 -0.865131
391 1 21.1424 0.000687806 18.9348 -3.47111 -1.00757 -0.563442
392 1 17.0678 -10.6435 20.0708 -0.286008 3.37077 6.00279
393 1 -11.7758 -18.443 -11.7 5.24529 4.8462 -5.41808
394 1 -10.409 10.4116 -5.29524 -3.65372 -2.11606 -4.63701
395 1 -9.27961 -23.5549 18.8426 -1.09597 1.3766 0.987101
396 1 9.75175 -18.0825 -1.21867 -0.488935 1.97242 2.76963
397 1 4.15108 -20.893 18.3081 -0.2998 0.544998 -0.228607
398 1 -23.176 -23.1889 -5.54216 0.191579 -2.43281 -1.89486
399 1 12.0398 15.1343 -0.549731 0.891476 3.71673 -2.35705
400 1 -22.5124 -17.2064 -0.142432 2.73137 5.43896 2.97926
401 1 17.8895 -18.7513 -5.27207 -2.02093 0.583642 5.1664
402 1 0.388725 10.4535 19.7449 -3.8848 -1.66922 -0.109359
403 1 15.2007 -0.039077 23.3675 -9.31318 -1.49156 2.65919
404 1 -15.4388 -1.74268 1.57627 1.93662 -0.577919 -1.04931
405 1 5.69947 -23.8867 -6.82906 -3.02784 -1.49234 -5.17018
406 1 -6.06702 -22.3442 -23.5966 0.268491 1.97685 0.28969
407 1 1.78373 -7.7928 17.7931 1.41993 -1.64476 -5.4563
408 1 -3.53635 -1.10665 -18.4795 -1.54929 -2.18339 3.51469
409 1 0.612411 -0.0602428 -5.21198 1.76665 -0.415833 -5.3116
410 1 -15.8563 12.2424 -0.381969 -1.00959 2.37528 -2.14575
411 1 -2.24728 -4.34472 -7.69398 0.468964 4.63248 1.83109
412 1 -16.6273 -7.39268 5.00351 -2.69851 1.24409 1.82859
413 1 -23.5204 22.8016 0.563728 -0.25422 0.939358 -0.801656
414 1 3.72259 19.5758 -13.7809 -2.30899 1.88538 0.184532
415 1 -16.062 7.61609 -8.56984 3.02949 -2.41279 4.28811
416 1 22.9995 1.04377 12.0792 -2.65041 2.3962 -2.51893
417 1 -12.2802 -1.6143 11.3747 2.30537 -0.646635 -1.91803
418 1 -24.2145 17.813 4.48777 -0.990434 -1.09336 2.32617
419 1 22.4753 4.66644 -23.4218 -5.97982 -3.40411 1.62928
420 1 -3.30049 -1.01269 12.7652 1.13702 -0.492351 -3.22716
421 1 -14.6146 -22.8497 -13.3064 1.28315 0.401228 -0.0615434
422 1 -5.10525 15.7841 -22.2425 0.395446 -1.35984 -1.76618
423 1 -9.96632 1.59787 2.61419 0.822451 -1.2703 1.0923
424 1 4.92544 -6.96375 0.691456 6.7977 -2.26769 3.16319
425 1 23.0381 17.1968 16.764 1.92531 0.564143 3.02704
426 1 -17.0077 -3.54051 -8.20376 -5.52872 -1.21674 0.0171396
427 1 -15.378 47.0328 20.9686 -4.47936 5.68128 1.55201
428 1 8.37291 11.2222 -8.33578 0.386843 0.88289 -2.8768
429 1 -7.15762 9.69621 -14.8492 -3.35423 -0.86742 2.26125
430 1 -20.239 -5.21302 -22.8442 -2.91726 -0.313176 -0.284512
431 1 11.822 -2.98661 -16.704 1.33435 -0.580742 1.875
432 1 8.1439 -3.90562 13.4874 -2.07345 -0.774125 -5.82403
433 1 -19.4387 2.01221 -17.0355 5.9658 -0.264865 -4.16267
434 1 -10.4685 -1.14016 -13.6926 -1.00439 -2.88251 3.12766
435 1 1.02977 23.467 7.80079 -1.50151 2.11236 2.48518
436 1 -12.7124 -10.4019 -12.7131 1.98991 -1.40591 -4.91131
437 1 19.4776 20.7185 -14.0899 3.82672 2.09854 -4.08201
438 1 -16.4477 6.06286 -2.74002 3.73357 -3.48635 0.978119
439 1 -3.56107 22.4934 -8.49315 -1.25425 -1.61089 0.958442
440 1 -10.2726 12.976 -14.3272 -3.5419 0.940557 -2.8918
441 1 16.0503 1.75441 -6.02488 -1.36647 1.77106 -2.13653
442 1 3.90213 1.7505 16.2668 -1.34825 -0.661546 -1.1677
443 1 20.0386 23.707 11.1075 -0.960746 -5.04682 -0.683115
444 1 22.3841 7.8003 -20.3592 0.0381962 5.97956 -4.8159
445 1 19.5381 -11.0807 -11.5856 -1.99535 0.755537 -2.94526
446 1 22.17 -16.2281 -6.16265 1.09653 0.290532 -0.0526571
447 1 6.17133 20.9731 15.2839 1.69975 1.70353 2.95208
448 1 -17.0958 -0.430108 14.771 0.478203 -7.66585 -0.264893
449 1 16.1931 -4.76134 -3.84234 -0.776993 2.72271 -1.34496
450 1 12.4674 -18.6429 7.67204 2.47133 4.6027 -10.3084
451 1 -24.0451 -11.6997 -20.1205 2.58775 -2.84958 1.79934
452 1 -24.0525 17.8213 -0.410766 1.54113 -0.0788911 2.74953
453 1 -17.7743 12.9595 6.99311 -1.60338 0.527809 2.4649
454 1 -3.08664 2.18453 -14.6125 -7.87775 -2.18826 3.32337
455 1 15.3823 -12.8341 15.8836 -1.70158 2.26689 1.46872
456 1 -4.3333 18.3839 20.097 -0.639773 -0.413108 -1.59806
457 1 9.28597 23.1287 22.0256 -3.23356 -1.66153 -4.50031
458 1 21.7188 20.6797 16.5578 -2.02401 -2.57874 2.01185
459 1 1.56704 7.39556 -14.8687 0.121543 -3.02233 -5.7416
460 1 5.25241 12.5841 -22.599 4.71678 -4.16336 1.12327
461 1 2.18011 0.823096 -21.1929 4.37866 0.965471 -2.21308
462 1 -6.24883 -18.6222 21.0258 2.27223 -2.9492 -2.8752
463 1 4.72407 13.8378 9.34013 1.86268 0.33209 -0.133435
464 1 -14.3859 46.1958 4.82688 5.20042 -1.94232 -1.85195
465 1 -0.216006 -11.9738 6.75924 -0.0915599 1.69891 -6.82792
466 1 14.5376 13.2752 -23.0392 -1.30271 4.67452 0.342443
467 1 -6.41849 -13.2068 12.2464 -5.46122 3.14658 1.33252
468 1 23.0694 16.4287 -9.71018 1.11885 1.01478 5.39289
469 1 -23.9047 -14.1935 13.9684 -1.12469 -2.57006 2.58539
470 1 -19.3708 6.93078 -11.7445 1.54941 0.234974 1.12495
471 1 23.3183 -10.7556 -6.81259 -1.30561 4.12321 3.9436
472 1 -16.5007 -8.4471 16.4682 -0.817099 -3.88546 -2.66928
473 1 5.70678 14.4472 12.0428 0.36288 3.14407 1.20118
474 1 6.05297 -10.1756 -11.058 1.02376 0.247773 -3.57396
475 1 18.0289 16.369 -22.0215 -0.969259 -5.89325 -0.288669
476 1 -13.2751 -6.86051 -2.76695 -2.1221 -0.182055 2.34814
477 1 -11.0887 -10.5209 -15.3429 4.0222 -6.74693 -0.474906
478 1 0.989982 1.47259 -23.9591 -0.477801 1.38159 -2.83191
479 1 15.0252 -20.4179 16.2056 -5.03445 -1.08911 -0.0290765
480 1 0.980281 -11.8472 9.24133 0.620602 -1.69228 -3.06144
481 1 -0.767768 9.15303 -17.7185 -1.24286 -4.48394 0.304275
482 1 -22.6895 -2.82381 21.1787 -0.529431 1.58667 4.03879
483 1 5.66308 -16.3684 0.791683 2.59595 -4.89705 0.545749
484 1 23.1925 -16.9147 -12.9898 0.773298 5.62795 -0.378583
485 1 21.3866 -21.1648 -18.7544 -3.78414 0.309952 -0.196234
486 1 13.0657 1.19786 -5.10412 -0.141199 0.790862 -2.08047
487 1 2.67327 26.3875 18.2179 3.29298 2.08803 1.83843
488 1 0.49229 -14.1642 21.8072 1.0217 2.63445 -3.75481
489 1 -12.079 22.487 -12.2466 7.0807 -5.28152 -0.533754
490 1 13.6813 -15.6955 -12.686 -4.1341 4.05924 -0.74606
491 1 -19.1561 -12.8952 10.297 5.13039 -1.43353 0.915832
492 1 -14.1654 -16.8006 -10.7277 -0.470691 -2.95682 -1.01
493 1 15.1735 1.96682 -15.7104 -2.87605 2.50163 -0.313671
494 1 8.97742 6.39379 3.17597 -3.51791 2.01009 1.62666
495 1 0.393901 -9.63429 -4.59333 3.08386 -1.04 2.02927
496 1 5.05679 8.2191 -15.8276 -0.859854 4.38249 -0.448851
497 1 8.09108 17.0264 21.3795 -2.42735 -2.91157 1.1627
498 1 22.7373 0.528784 -20.9467 2.58398 -1.9732 -2.56594
499 1 -20.8678 3.87396 -7.40579 1.09467 4.6567 4.74775
500 1 -5.16241 -14.5464 9.90311 2.19185 1.93728 0.636794
501 1 -16.2622 -13.8913 -10.4846 -2.17612 2.50606 1.61076
502 1 11.8402 -12.667 18.1547 2.59822 2.57481 0.864497
503 1 12.3114 -1.76759 -14.06 -1.83461 2.22015 0.190798
504 1 -0.359791 4.65811 7.51474 3.24827 -0.540629 0.843012
505 1 -1.04535 10.2302 -22.596 -0.0458982 1.32055 4.77263
506 1 -2.42905 -23.1465 -14.9699 -3.73547 1.49189 -0.252741
507 1 15.5826 20.6161 -15.1336 -3.08046 -1.78907 3.3349
508 1 -1.73001 22.9117 -10.6932 4.70032 5.56254 4.2672
509 1 20.7043 15.8728 -21.3392 -3.07942 -1.78945 -0.0039425
510 1 9.13695 -19.7327 16.9341 2.10134 0.40534 3.02553
511 1 8.57457 -10.5921 6.65458 5.19998 0.60767 -0.267599
512 1 1.28553 -3.31776 14.9991 -3.76249 1.0702 -1.88471
513 1 -18.0485 -10.5327 17.7781 2.7325 2.4639 -1.16254
514 1 -16.1426 20.9384 18.5515 -4.40572 -0.0584601 -0.666698
515 1 -1.85128 2.64615 15.8434 -1.81039 0.237453 1.77462
516 1 11.0195 -23.1977 -2.46064 1.39513 0.0729828 -0.553576
517 1 -15.4368 -2.2264 -22.7181 4.17112 2.651 -1.03351
518 1 22.8532 -23.2061 2.21822 -0.527309 -0.895956 -0.787542
519 1 -21.5986 -15.3334 -6.61287 -1.57755 0.248203 -4.79764
520 1 -5.05159 -23.2677 -12.143 5.38314 -0.966902 0.409445
521 1 -8.51352 23.289 -8.1728 -1.94955 0.29915 -3.72838
522 1 3.59438 -16.739 6.98672 -0.732714 -0.751924 1.25517
523 1 -8.8065 -14.6167 -7.39903 -1.37132 2.20424 1.01154
524 1 -2.66773 -2.3121 17.0292 -0.712032 -0.0358456 -1.67433
525 1 -7.60334 1.06817 -0.266287 4.42071 2.55912 2.05628
526 1 -19.0035 16.72 -5.65947 -0.931302 2.52946 4.6836
527 1 -2.62292 14.2327 -9.24275 0.0124725 1.91565 -1.43504
528 1 -13.6708 15.0837 -13.3449 3.90183 4.65499 -1.62099
529 1 -8.45296 -10.9117 8.31114 -2.87239 3.53366 -5.15815
530 1 -8.66661 1.74885 9.27043 2.59788 0.622144 -0.856065
531 1 21.4053 -5.47259 15.7584 -1.77139 -0.688155 -3.48004
532 1 -10.1332 -3.0818 -4.62854 -1.97973 2.05989 7.37303
533 1 -9.86202 -19.5227 14.4526 -0.591923 -0.640598 1.52409
534 1 18.5189 9.12956 -10.1517 -5.92887 -0.215018 -2.59126
535 1 3.33021 12.3945 11.4731 0.204031 -2.78201 0.699888
536 1 2.63314 -6.19059 2.60717 -1.42386 2.14371 0.732361
537 1 8.66947 -4.77995 2.23362 -1.11467 3.82365 -2.82309
538 1 23.3539 -6.83202 12.6869 4.63694 -3.51176 -4.15889
539 1 18.0465 10.1371 -3.9939 4.23217 2.25377 5.25435
540 1 -12.6653 -11.3119 4.67172 4.66565 2.2234 -0.122612
541 1 -11.5011 -3.00936 13.7325 1.056 8.57209 -1.86936
542 1 22.4015 5.26834 -9.1181 -0.694267 0.531435 0.475038
543 1 21.1428 -18.3956 -16.0765 0.84116 3.71691 5.50023
544 1 -5.47383 -19.6066 -16.9529 -2.68017 6.07487 -2.67434
545 1 22.653 -16.8694 13.7723 -2.24888 2.09864 -0.140968
546 1 -5.31352 -17.2423 -15.366 2.60783 0.915324 1.81767
547 1 16.3959 -12.4991 -19.8617 -3.32076 -2.17359 2.44325
548 1 9.04352 1.67997 18.3406 0.3512 -2.58498 -0.425629
549 1 -19.6389 -6.36892 6.8829 -1.68391 -2.84847 1.18899
550 1 0.367743 -23.0694 -15.5173 1.96636 -2.85965 3.31362
551 1 12.416 7.9562 -17.7178 1.52846 -1.6519 4.35936
552 1 1.49218 -15.9768 -1.17268 -2.13943 0.48055 3.05186
553 1 -11.2404 6.50941 -1.79109 2.25055 -5.02403 2.78505
554 1 1.61787 17.4023 -14.9277 2.74513 2.60108 2.31851
555 1 -15.6129 -17.2629 -0.430646 -1.38833 -2.06399 -2.01027
556 1 -12.9694 18.1959 -3.08069 0.267341 -9.11675 -0.864668
557 1 11.0361 -21.9255 -10.8442 1.18584 -1.42403 0.992474
558 1 -4.32541 -13.8747 14.0491 5.39097 0.111333 -3.48958
559 1 -9.02066 -18.8208 4.83199 0.292404 4.53033 3.19427
560 1 23.5707 43.4624 -4.6293 2.116 0.771189 3.59396
561 1 6.0305 45.7621 19.2441 1.59096 2.9153 -5.33477
562 1 8.24389 8.88116 -19.8498 3.86357 1.48517 2.45946
563 1 6.64118 -19.8755 7.07404 2.35605 1.70958 2.47037
564 1 -11.1676 -20.2948 9.98575 -3.3118 -3.81506 -1.65843
565 1 15.1994 45.6729 21.2721 -2.23439 0.732614 -3.20111
566 1 18.4332 14.8265 13.4912 3.38805 1.94212 -0.92992
567 1 -21.6362 23.935 -3.26058 -2.36003 4.78657 -0.310023
568 1 3.44 -5.83704 5.49323 0.824551 3.7302 1.7302
569 1 -8.77411 24.211 -16.4584 2.91808 -5.03079 0.396644
570 1 -22.5377 9.3772 17.5443 -0.121887 -2.52547 0.0909887
571 1 -0.895367 -12.0788 20.3242 -0.756518 1.61223 0.0665174
572 1 11.5328 -23.2894 5.07824 1.80386 -1.59771 3.58788
573 1 18.022 -4.38314 7.19635 -0.235028 1.37667 0.5677
574 1 15.1785 -22.031 -3.27342 -0.972674 -2.97355 -1.14092
575 1 -14.3331 5.00395 -5.78425 -5.6553 0.925988 2.14569
576 1 22.4838 2.80896 18.7429 3.22134 1.00904 -1.6502
577 1 -10.1447 20.9321 -0.514878 -1.47218 2.76727 -0.113841
578 1 -22.7283 22.9737 -23.6959 -4.36402 -6.49319 5.29193
579 1 1.40545 -23.3422 -12.6651 2.45386 -1.59014 -3.98647
580 1 -7.07224 4.6504 -21.4826 -3.71797 1.0361 5.69619
581 1 -13.5805 -11.8585 10.9711 1.63201 -3.66476 0.885211
582 1 -3.29379 -10.8756 -18.5585 2.85295 2.0063 4.18595
583 1 -22.3791 23.9074 12.1302 4.701 0.715577 1.04679
584 1 18.1697 0.551866 -7.86914 -2.17375 -0.209083 0.0835065
585 1 -6.58377 13.653 16.0616 7.09529 1.22886 0.406996
586 1 18.2067 22.8589 -20.4274 2.29024 1.14314 -1.73702
587 1 -21.2299 46.2579 -10.6929 -0.592636 3.49789 0.807024
588 1 -16.0287 22.243 4.61284 2.08966 3.36159 -5.95084
589 1 -1.47125 3.24903 -1.3654 1.30551 7.55053 -2.18229
590 1 -7.25004 19.0675 21.1825 2.88252 -0.465927 0.389475
591 1 20.209 -19.9074 13.9893 1.71819 -2.53159 2.59725
592 1 -16.0904 -14.9406 8.92419 6.36662 -0.67483 -1.04682
593 1 -12.6607 -20.8037 17.2572 -1.29991 2.61023 -2.7467
594 1 -20.9799 -2.14994 5.28408 2.18426 1.84697 -0.0677278
595 1 11.182 -18.4421 22.0843 1.89837 -3.96032 3.08643
596 1 -13.4241 -20.7858 5.5424 0.702441 0.935154 -4.54367
597 1 22.4447 44.9777 -8.37829 0.0760253 -2.75659 -0.578472
598 1 13.1359 -17.1563 5.07767 4.34415 -2.98966 6.40227
599 1 10.7671 -14.4588 16.0735 1.31464 -1.70938 5.55225
600 1 -21.2473 22.87 18.7106 1.19486 -5.41712 1.0352
601 1 2.48503 -4.62327 19.2655 5.22571 -2.98859 -4.86242
602 1 -12.4926 4.15088 19.8736 -3.12599 -0.74355 5.27794
603 1 -7.57521 7.87062 -4.04948 3.17732 -3.12805 2.83074
604 1 2.33436 26.2108 -22.5891 3.24405 -4.94713 4.01544
605 1 -22.3262 -0.0685335 20.1148 -0.501198 0.503661 1.06177
606 1 3.54638 -0.310299 -23.7994 -1.00068 1.89308 -0.879629
607 1 -5.01341 -3.62783 15.5987 -0.268904 -6.50041 3.39529
608 1 4.75133 5.38215 -10.6712 -3.76859 -0.139242 -1.13788
609 1 9.19514 -21.6343 19.257 0.992411 3.05916 1.21354
610 1 13.3804 -3.19612 14.6339 -3.73631 3.29256 2.79527
611 1 0.492669 -9.9083 -8.17844 2.3358 -2.69785 -4.71303
612 1 -4.86184 10.6674 -11.2816 -1.8264 -1.28069 2.98793
613 1 9.84692 9.14477 -22.1427 0.29103 -5.61071 0.785697
614 1 -19.1518 -10.9271 -7.74619 2.08955 -3.28866 1.46658
615 1 11.4407 -3.77774 20.8539 -1.72136 2.47327 -0.186778
616 1 15.6104 -2.00274 21.345 -2.14769 -5.19855 -0.655168
617 1 -11.5766 26.8024 -18.6869 -0.147833 -1.6087 1.93988
618 1 14.6899 7.14492 9.25012 0.407924 -3.96213 0.915907
619 1 13.1748 -1.76357 12.0184 -3.23391 5.07081 1.75413
620 1 20.1881 -13.1213 -9.55635 3.6331 1.57783 1.24007
621 1 -7.43438 12.2417 -14.0199 1.10538 -1.77736 0.092349
622 1 -23.7667 -10.1661 0.203465 -1.56162 2.50447 3.14159
623 1 19.4973 -12.4507 7.57173 1.01387 4.58477 0.00776952
624 1 -9.66213 3.71169 -22.6353 2.48398 -0.213788 3.88723
625 1 2.38392 -8.63308 -6.65225 -0.357171 1.7119 0.52917
626 1 -2.96284 6.51789 -19.9246 -4.53829 -7.63955 -2.84148
627 1 22.0061 14.0945 10.8087 -0.151587 1.57815 0.946316
628 1 -23.4817 -14.9033 1.03083 1.65968 7.20826 -4.16889
629 1 -6.22049 9.87762 -6.59186 -2.35848 -2.47034 -6.43244
630 1 -21.1798 22.428 9.95951 1.6921 -0.87948 0.936974
631 1 -6.49115 -19.3301 16.2506 1.11505 2.0443 -2.08851
632 1 -15.5027 -21.1922 3.60912 -1.05378 -4.23413 -1.10636
633 1 7.20695 10.2519 -22.8815 4.90548 0.211165 0.998113
634 1 -11.0849 -5.93102 14.5699 -3.85307 2.75912 7.37409
635 1 9.49937 12.1804 -5.0083 2.69826 6.76248 -1.78643
636 1 23.3711 1.45668 -15.5033 -3.70725 -3.18594 -0.608462
637 1 -9.73405 -23.5329 -23.1627 0.954877 -1.20707 -0.670686
638 1 13.4587 17.0698 -3.86642 -0.222353 0.648434 4.75225
639 1 -12.0811 -16.8864 -21.5512 -4.20502 -0.452781 -0.95736
640 1 -0.620741 1.60561 0.718009 -0.975762 1.43078 -0.21961
641 1 -14.3056 17.7246 4.617 1.61545 3.4894 -2.36783
642 1 -5.09056 -2.19571 4.1898 1.62184 2.16096 0.0605676
643 1 12.3426 -20.644 10.0364 -2.52103 0.0673599 3.27419
644 1 -7.63117 11.9717 -5.14722 -0.547479 -1.13672 -4.32123
645 1 -8.47518 -3.86482 -20.7832 0.748926 2.10223 -3.1731
646 1 15.5637 23.2789 14.0184 -2.01266 -1.13956 -3.6503
647 1 1.19368 2.45313 -6.62631 2.13863 -3.12719 -3.04878
648 1 18.2028 -16.5483 -21.9307 0.90134 4.98487 -0.673306
649 1 7.35994 -15.1989 17.7306 7.06002 0.483833 1.46345
650 1 -9.68975 0.659593 17.9895 -6.04184 -0.573911 -1.69005
651 1 -21.8519 4.79991 -13.5234 0.835191 -0.897808 2.52369
652 1 -9.3569 0.470623 -19.7706 -2.68853 -4.11347 -1.65482
653 1 -22.6892 -21.8265 -14.851 1.09122 -1.42154 -3.73328
654 1 -13.0188 -1.23109 -20.8115 1.52861 0.00581485 -3.39367
655 1 -6.47102 -10.2518 -14.8282 2.23802 -0.444374 1.6175
656 1 1.05688 23.2267 -10.4254 -1.9907 -4.1544 -2.64639
657 1 -1.09955 -4.07309 -11.6291 1.20427 -1.77155 -2.5193
658 1 20.7778 13.0802 13.3618 0.208516 -2.39621 2.85071
659 1 8.96543 -4.29566 -23.2907 -3.17317 0.394232 4.7881
660 1 8.45558 5.43824 10.1514 -4.25064 -0.351468 2.21459
661 1 -20.1898 -6.40313 -15.339 -3.23623 2.09554 3.92273
662 1 -0.435572 -7.04819 8.74403 0.582168 1.50596 1.02588
663 1 -14.5604 -18.5384 -8.48548 1.18889 -4.73206 -2.11893
664 1 -13.8105 46.5842 10.0556 -0.231078 3.73139 2.28005
665 1 -4.49223 -5.59817 17.914 1.00969 2.6374 -0.661537
666 1 -9.58943 -5.14773 -13.2382 -2.36506 -2.36708 -1.44128
667 1 -18.3898 -20.4515 21.5839 1.55161 -5.35669 1.21573
668 1 -10.0344 13.8221 17.9906 -3.30841 3.1929 -0.495517
669 1 7.24394 -16.3352 15.1843 3.09436 -2.77084 -4.01437
670 1 2.53101 -13.1922 -0.517741 -2.06676 -1.37547 -1.58766
671 1 19.225 14.8274 3.28909 -8.18918 -4.2646 -0.910266
672 1 -22.897 3.48385 -11.2203 -0.301986 -0.19779 1.78562
673 1 -3.51675 18.9782 22.8119 -1.25728 0.257049 0.0485372
674 1 -9.55707 0.818655 -22.6392 0.93391 5.14757 1.66701
675 1 -20.2081 -12.2115 -4.10676 0.0569332 1.69691 -0.43612
676 1 4.93055 5.03447 19.3391 6.0819 1.39109 2.01118
677 1 -20.2545 -12.6381 -12.2638 5.21581 -5.22582 -0.614797
678 1 -23.1472 -3.81625 -0.955349 -1.29191 1.3829 3.8247
679 1 -16.7577 3.87461 -11.4016 -0.524375 -1.41539 -2.43064
680 1 7.60515 22.1974 -8.87762 -0.94181 0.988086 -1.10818
681 1 -1.35798 1.04698 -6.96331 2.91109 -1.50785 -1.38223
682 1 -4.07525 18.9869 -10.4798 -4.02312 0.937161 2.00456
683 1 2.97805 11.2392 -19.2761 -2.41082 -4.44723 3.67155
684 1 12.4498 -20.5035 -13.1006 -0.648316 2.54976 -2.52371
685 1 21.8896 -2.41807 9.13247 -0.0969812 1.46937 0.376013
686 1 -15.0696 -2.87921 16.8312 -1.92978 0.530983 -3.00169
687 1 -11.8024 7.60723 8.37178 -0.118213 4.2464 1.91304
688 1 -11.712 -13.9563 -13.0831 1.41239 0.43219 -1.7564
689 1 -1.48167 2.81881 -4.45175 1.07811 2.92543 -4.49528
690 1 0.590593 20.786 -7.67646 -1.38934 -0.869105 1.29846
691 1 -2.71337 6.10039 14.2664 -0.302643 -2.08245 -1.24876
692 1 -9.69916 -5.50433 0.0243089 -2.21808 2.55625 -1.22138
693 1 -9.96931 22.5007 3.21617 2.55956 0.722925 1.53585
694 1 11.6844 -16.1418 0.17992 -2.44966 5.0437 4.59559
695 1 3.94377 -13.3499 -12.7522 2.27495 6.41788 0.230409
696 1 -7.98381 -21.8684 7.93757 -0.669547 3.04384 0.634223
697 1 -20.1391 15.5746 -18.791 4.13084 0.77149 -3.52892
698 1 22.6547 -13.3042 -5.88277 1.87105 4.14529 4.81152
699 1 -14.7361 -14.7571 16.0139 3.49314 5.69344 3.01428
700 1 1.11644 6.36129 22.6575 1.54185 -0.969422 -4.81377
701 1 16.5741 1.08028 9.18006 1.6654 0.199684 4.94816
702 1 -16.5447 -3.82417 12.0868 -5.64264 -1.21537 -0.0496364
703 1 7.43114 25.217 -23.0617 -0.370078 1.53154 -0.382185
704 1 -10.6738 -11.5256 9.99264 -6.0394 -0.260756 0.590293
705 1 6.04533 20.1198 -15.6182 -5.20279 1.61921 3.71209
706 1 6.20399 2.63023 18.064 1.44584 0.968333 -0.333465
707 1 -18.2969 1.41517 22.4716 -3.22878 1.99498 -2.42114
708 1 7.66737 -6.43168 -16.5751 2.03639 1.21819 -0.325985
709 1 -8.65968 -4.83261 -6.17775 -5.21826 2.29239 -2.65908
710 1 -3.12571 -11.2102 15.2205 -1.53896 -0.877071 -0.573509
711 1 -11.4498 -4.50791 -17.9336 2.21843 -1.75996 -2.07219
712 1 6.34519 -9.8342 17.0117 -0.331478 1.11477 -1.53699
713 1 3.33397 6.42442 2.80407 -3.53291 -2.48039 -0.00738204
714 1 18.7541 -4.90491 -10.9239 0.495499 -3.65626 -0.437797
715 1 1.01882 19.2008 11.5367 -0.657545 2.54482 1.5022
716 1 2.4848 -20.6978 10.227 -1.14621 -2.89384 1.35822
717 1 -11.5569 -3.65455 -15.1266 -0.72596 6.35972 4.49433
718 1 -12.3935 -7.17647 2.85625 -1.08858 -2.92207 0.342733
719 1 15.1067 -7.71828 13.9731 -4.46985 2.88762 2.85722
720 1 5.0235 -6.46394 -20.6019 1.43245 3.02866 -2.30801
721 1 -10.0801 -6.24131 -19.4296 7.07015 -1.65164 4.4845
722 1 6.7898 -21.5601 -16.1827 -8.85166 -1.18416 -2.48038
723 1 -19.5589 14.0483 -3.25384 -0.425193 3.56379 -0.14423
724 1 -9.0857 22.6539 -12.6602 6.24232 -1.08287 0.252203
725 1 4.33231 20.8375 -21.2172 -0.664856 -1.73 -3.72131
726 1 -6.91419 -9.24783 23.1884 -2.21819 1.55048 1.06995
727 1 5.79638 -4.34354 -15.5341 1.84684 5.36541 -1.89886
728 1 -12.1326 17.3656 -9.18613 1.46935 0.888796 0.458405
729 1 -14.0787 15.5342 16.0981 3.51892 0.528211 0.608334
730 1 14.1091 -21.6664 -18.2237 -4.76401 0.0725139 4.26555
731 1 -11.3148 12.8925 -23.2499 0.152281 -2.09132 0.787532
732 1 13.5351 -23.1487 -9.56152 1.38182 2.204 0.655107
733 1 -15.3437 -16.73 6.58372 -5.03381 -6.04804 -4.1823
734 1 -19.5449 24.094 20.7841 0.763863 1.69543 0.741593
735 1 17.1036 9.23267 4.82177 -4.22472 2.44098 -2.03135
736 1 7.14116 18.3836 -7.5538 2.10764 1.22922 -3.2123
737 1 19.7773 -17.2965 6.69822 -0.650562 2.47926 -0.8649
738 1 -10.6126 6.12624 11.9654 2.26205 -2.84603 -2.79637
739 1 -20.3229 -20.4693 4.4013 0.426336 -4.92594 -4.3153
740 1 15.872 13.6538 19.6391 -3.68918 -0.925737 1.07579
741 1 -16.1036 -21.0013 -11.9872 -1.79198 -0.910469 4.03645
742 1 -8.17097 46.2956 22.5249 -3.5551 0.0840125 1.87509
743 1 -22.0758 20.6506 3.12819 -1.60435 1.17084 -3.2538
744 1 9.94246 -16.7636 -12.8993 2.69625 5.6772 1.17913
745 1 -22.195 2.56589 23.0532 3.299 1.30338 3.0233
746 1 -16.8695 -6.17434 23.7792 1.28828 -3.10485 -4.57034
747 1 9.94497 -10.7649 4.25947 -3.23334 0.438585 0.558367
748 1 -11.2583 -19.6435 23.564 -1.47908 1.89846 -3.17389
749 1 -2.60625 16.1508 9.99453 1.98513 4.2172 1.79009
750 1 16.3171 -3.68431 -13.3639 -0.130845 -0.304407 2.31795
751 1 -18.1324 10.8796 -13.162 5.33946 -1.33752 1.55575
752 1 19.1803 -20.0525 6.68292 -4.69926 0.761167 -1.81962
753 1 -15.5337 -16.3936 22.4286 2.96551 -2.606 -3.10753
754 1 -15.1652 24.9149 13.8017 -1.66568 3.00737 -5.50135
755 1 11.7839 9.3134 22.6334 -2.86692 3.36482 -0.950596
756 1 -5.74186 -3.99131 -3.13565 1.7348 -2.3006 0.873321
757 1 -19.6537 12.0613 -5.45981 2.12083 -1.62071 1.69188
758 1 -17.0623 -19.0412 19.4119 2.55159 2.46274 0.381483
759 1 1.0019 11.2032 -10.0894 -1.86675 -0.128314 1.01773
760 1 1.8317 3.76446 13.5546 3.38787 1.46533 -3.82867
761 1 -7.94475 -12.1445 -5.85123 0.760412 1.20933 -5.07977
762 1 3.59269 19.2687 21.0296 0.0230701 4.19772 -2.12958
763 1 15.1114 4.73048 10.6886 0.574283 2.25 -6.58379
764 1 20.956 2.36799 6.78866 1.14088 1.63209 -2.14544
765 1 22.7389 12.1702 8.77747 0.201926 -0.524892 5.20261
766 1 -11.4669 18.885 -17.0842 -0.0348874 -8.31031 -1.02645
767 1 0.0168033 -9.74066 1.70665 -9.42722 -0.604685 4.15978
768 1 -4.5074 11.5348 6.81838 0.592333 -5.24336 -3.05426
769 1 13.0436 25.986 17.7939 -3.26403 -0.859979 0.172135
770 1 -2.50208 23.5115 -22.5555 1.74152 -0.0155241 0.404223
771 1 9.68468 -16.3823 13.9457 -0.884136 0.499234 1.54766
772 1 8.8171 8.75335 6.95989 0.52052 7.7075 4.49957
773 1 13.6696 45.5419 13.2181 -1.41392 3.06505 -1.6751
774 1 16.44 16.2223 11.7744 -2.03678 -1.57599 1.41894
775 1 21.9932 -20.9605 -11.9142 -2.708 3.34606 -1.55498
776 1 6.21541 0.637534 23.7414 0.388493 2.53717 6.41922
777 1 -23.4842 -10.4245 -9.8199 -2.00325 -1.05096 2.89556
778 1 0.384487 -18.5291 -14.2974 -2.8375 -2.13615 2.0497
779 1 7.21977 0.81226 -8.35382 1.3578 3.07836 -1.1798
780 1 -4.62992 -7.55382 -19.7505 0.477673 0.557588 5.73793
781 1 -18.514 2.14427 7.69392 1.05175 2.06318 -2.37729
782 1 18.3141 -5.81789 -13.5816 5.38861 -1.84694 2.77757
783 1 5.5234 -14.4535 22.2046 0.0290035 -2.44 -6.73418
784 1 14.4685 14.412 -4.59001 1.38599 -5.89096 -4.0352
785 1 -2.81114 21.9297 22.9238 -5.77319 -0.733445 2.87018
786 1 -20.8822 19.618 22.6283 0.249683 0.895824 1.22851
787 1 9.20298 15.0899 -13.5468 -3.69861 -0.311974 1.19089
788 1 -21.41 6.33471 4.21684 -6.49258 -3.44168 -3.12401
789 1 -13.9781 17.6914 0.0100206 -0.958459 3.10101 -0.626433
790 1 5.31623 -0.150021 12.5596 -1.23475 2.45037 -2.25336
791 1 -3.43426 24.1895 14.8775 -0.982049 -2.29305 -4.12799
792 1 -21.2531 15.5121 -4.62846 -1.42321 1.88856 1.49993
793 1 22.5464 -12.4237 1.35632 1.11427 1.37829 0.0590288
794 1 4.99554 16.6396 -24.0766 0.631379 0.633505 -5.89244
795 1 19.9925 -8.44991 23.6996 3.0625 -0.461874 -4.32014
796 1 -9.91598 -15.7205 -18.3659 0.293825 1.15819 2.94568
797 1 -16.5488 -12.6748 13.0558 2.53874 0.144484 5.50063
798 1 -14.4162 -1.96949 -8.59482 1.5749 7.91155 1.24136
799 1 -11.0444 20.4127 -3.11339 -0.204397 -4.6243 2.69523
800 1 -18.294 -12.5417 15.4606 -3.28153 1.73733 3.2887
801 1 17.6278 15.3956 -1.73628 3.9811 7.66844 -4.01642
802 1 -17.7207 -18.1278 15.2159 -4.99835 1.1258 2.28032
803 1 19.1331 -10.5071 -8.63097 -4.89449 -1.34981 -1.47476
804 1 8.97917 -20.8911 -7.33243 -1.4477 4.91679 2.14358
805 1 10.2205 25.4109 23.5526 2.2652 -6.63052 5.69699
806 1 0.811924 -14.3405 13.6796 -3.60684 5.7103 -1.35081
807 1 12.9002 24.919 23.6902 1.63785 0.473475 -1.11322
808 1 1.32354 -20.5214 -12.3324 1.87763 2.64153 -2.58365
809 1 -5.22181 25.0489 -18.2002 4.95561 -3.09505 2.83646
810 1 23.477 -16.1298 -3.48223 1.74784 3.20425 2.88038
811 1 -11.9637 -9.71402 -4.56169 -6.58136 -2.47438 2.25634
812 1 2.43006 -10.1408 -10.6128 -1.36403 -0.8662 -1.36424
813 1 -15.6466 23.885 -15.6702 0.450679 -3.02483 0.513459
814 1 -20.3884 -0.73523 -1.4303 0.801453 -2.24044 -1.51574
815 1 -19.0198 12.3887 -17.3294 -1.74775 7.1998 -7.72613
816 1 16.9586 -17.4251 15.5649 0.85433 0.105759 3.22268
817 1 7.8698 -12.3986 16.6214 1.8952 3.48514 -2.44173
818 1 -7.66141 8.59476 20.2364 -7.08658 -4.89925 2.17698
819 1 8.97906 10.6969 21.3937 1.20875 -8.26745 2.47649
820 1 1.61092 12.5632 6.46474 -0.973355 3.65445 5.81262
821 1 -23.5909 -24.2078 -21.6652 2.8681 2.72862 0.608236
822 1 21.3917 -15.1259 17.9387 3.77848 -0.824039 1.71361
823 1 4.977 -8.96669 2.85509 -0.637917 2.50325 -6.61499
824 1 6.60788 -19.3667 -7.5454 -2.11839 -1.006 4.03645
825 1 -20.2441 5.55641 6.71806 -3.22256 -0.7773 1.52889
826 1 -13.0661 9.55633 -4.25994 -8.49814 -4.7078 1.96222
827 1 -3.15919 1.27914 5.84331 4.63981 1.36475 3.6887
828 1 -8.81833 -19.0838 11.7292 6.78997 6.65416 -2.50842
829 1 20.134 16.3799 19.6684 2.71034 1.76761 -1.23067
830 1 -10.7635 -10.0298 20.0097 -0.557546 5.79549 5.84986
831 1 2.49285 -16.208 -18.6739 3.98206 -1.7469 0.651636
832 1 -2.87345 -3.67149 13.377 -0.92643 -3.7581 0.634411
833 1 -10.8458 -6.41749 -7.19948 -0.756118 1.29314 -1.64279
834 1 -3.02098 10.4765 -0.766166 -4.14997 0.087768 2.44291
835 1 2.07644 6.52912 -22.5284 3.85634 -6.10035 2.2221
836 1 3.21287 -11.0025 20.7094 -5.81871 -2.02044 0.528805
837 1 -18.9692 -16.1992 -8.18535 -0.114183 0.263623 -0.505442
838 1 19.7992 -20.8583 1.95594 0.537808 -2.63275 -3.02477
839 1 -22.6592 21.0812 -9.32077 -1.79977 1.05396 -1.25654
840 1 4.64066 -19.685 12.7308 -0.194738 0.422383 -1.47975
841 1 19.4406 1.86523 8.95322 0.289266 0.823755 2.49148
842 1 -6.37531 -22.0991 -1.62374 2.56447 0.599652 4.58389
843 1 20.7963 -6.95993 18.4446 -0.262792 1.58685 -4.09778
844 1 16.0992 -18.4454 -17.2999 0.146101 7.44732 0.763876
845 1 17.1237 7.18478 -1.20524 -1.80925 2.26384 5.21974
846 1 9.90337 7.83718 -13.6312 -0.424098 -2.37 0.922052
847 1 -13.02 -21.1444 -14.8845 1.15669 1.18643 -3.66838
848 1 -6.83207 15.4246 -12.3935 -0.387547 -0.126804 2.57343
849 1 22.896 -12.7111 -8.88355 -0.926133 -2.21804 -4.1728
850 1 16.2135 -23.7554 23.1151 0.220181 -1.15741 -4.58342
851 1 -23.51 16.4722 -13.1288 -1.73457 4.91447 -0.147137
852 1 11.7286 -6.51044 -1.20721 5.74254 2.95159 -2.16374
853 1 13.2339 11.5278 -14.9532 -0.275541 -1.89269 -0.700572
854 1 23.196 -14.5837 5.34003 3.62151 -8.10561 -3.28165
855 1 -16.2731 24.6728 -19.963 -4.14123 1.61631 1.42155
856 1 -20.8475 -0.304923 -6.96952 0.33785 -4.80599 -3.64574
857 1 22.4769 -4.25961 11.6135 0.887947 3.9379 1.52351
858 1 16.7058 -10.1606 16.3689 1.81489 -0.0414822 2.11001
859 1 -14.4665 -8.20847 0.948144 -5.43257 3.61528 1.32504
860 1 10.4391 -5.48145 -16.3613 -0.802947 0.700641 2.1062
861 1 -21.9952 23.3827 -10.6922 3.31844 -0.242256 1.92958
862 1 2.86331 13.6022 -9.92492 -0.0980589 2.87182 -0.0227459
863 1 17.058 -14.1386 7.63872 4.46676 -1.51249 3.02548
864 1 -15.7234 4.54728 16.1262 4.37277 3.20009 -3.08515
865 1 -3.80365 -22.5933 13.0338 1.3515 -0.457751 -0.558478
866 1 13.6241 -0.753532 19.5324 -3.76522 1.1151 1.03436
867 1 -1.04194 11.9923 21.9531 -0.641898 3.50796 0.560866
868 1 5.47125 18.0674 -3.34053 -0.650983 -2.42672 3.60978
869 1 0.2375 20.4387 1.7468 4.70164 2.74358 -3.96245
870 1 12.8258 20.8676 16.4347 -4.08804 -6.97105 3.28191
871 1 5.32968 10.5465 -17.5601 0.301522 3.48753 -5.01237
872 1 -2.32244 -6.16363 -18.382 4.64782 -4.51842 -0.306442
873 1 -7.51775 -0.237651 20.9408 2.24625 4.14652 4.8937
874 1 9.36732 4.29569 1.00714 -0.488481 -2.89132 -2.13766
875 1 19.8764 15.1746 9.18198 2.36854 1.90839 2.60762
876 1 13.4088 -16.129 -8.20465 -0.269367 2.50962 -0.94498
877 1 2.37484 -19.2137 17.2777 4.66786 -4.95546 -0.375733
878 1 8.02538 13.8929 -23.2614 -1.77817 -4.27364 0.268974
879 1 16.1544 8.59504 -19.3986 -3.95528 2.14967 4.80023
880 1 1.07188 17.5795 23.8787 0.304725 -0.546075 -1.73402
881 1 -4.01265 -4.66798 20.7267 1.99265 -1.75066 -0.480353
882 1 -13.3197 -4.16827 -2.07336 2.5663 -2.48891 -1.63717
883 1 18.6245 21.4006 -6.45588 1.12387 0.233294 -1.89559
884 1 18.0709 -16.4433 -11.5598 -0.596876 -4.51657 4.45965
885 1 -4.07897 -17.0716 0.294931 1.87627 1.06922 0.63679
886 1 -5.33467 23.2082 3.29763 7.16373 -2.48251 0.750457
887 1 8.69142 46.4934 18.5991 -0.771649 -4.2681 -3.1762
888 1 -7.46475 13.6503 -16.5243 1.53283 2.28468 2.8286
889 1 -17.0176 -3.62712 14.9362 -4.8003 -1.48111 2.15061
890 1 12.7913 -21.1272 14.6188 3.97858 2.38918 0.00435726
891 1 -21.7383 -3.79469 1.6938 -1.1206 1.3603 -1.47712
892 1 3.84497 -11.2566 -5.41424 -0.405911 3.8358 2.41049
893 1 19.8298 -3.43866 2.11725 1.67076 3.63637 -0.561331
894 1 0.481757 14.2002 21.7615 1.12082 -1.9343 -1.57631
895 1 1.43553 -23.4019 7.86511 3.2239 0.124142 -1.31503
896 1 10.553 -2.1978 23.1356 -2.04442 -3.66788 -5.57741
897 1 -11.4674 -23.0099 10.3616 -0.654738 -1.14387 -3.24898
898 1 17.9244 -0.438568 22.7219 0.886995 -1.96528 -0.778714
899 1 14.7185 -22.611 18.2689 2.75856 1.43789 -0.427614
900 1 -13.1638 -14.2655 -10.318 -1.82302 2.01927 2.30728
901 1 5.71023 -20.5261 9.95536 -3.12071 5.11795 0.658483
902 1 -6.21046 17.1331 -0.179872 2.97764 -2.44914 1.7671
903 1 -6.95591 25.9276 -20.3661 3.51771 0.0635141 -0.664934
904 1 -11.0474 -7.43153 -9.72264 -2.70766 4.91983 -1.60396
905 1 22.9055 -9.07302 23.7363 -1.40904 6.65835 -4.48609
906 1 -6.57257 -22.6724 19.4345 -3.23884 -0.919914 -3.37111
907 1 -12.9427 1.51239 -11.6196 3.86708 -2.58545 -0.951336
908 1 -9.54239 -16.4499 11.1887 0.0286208 1.47022 0.335651
909 1 15.6082 -21.652 10.7438 -0.0113107 -1.74077 1.51134
910 1 -10.5378 3.79608 -6.13598 5.77341 2.82427 -2.08869
911 1 -0.251826 12.9414 -23.1667 -0.832236 -1.93057 -5.51214
912 1 -15.8491 22.2289 -8.20194 -2.28617 2.12647 -0.445909
913 1 -6.01151 24.2426 16.6849 -1.071 -2.22982 -1.76782
914 1 -21.9323 16.5734 9.86562 -1.1897 -0.803094 -3.92291
915 1 15.0207 -1.24206 -17.4895 -0.19518 2.43704 5.16185
916 1 -19.2635 -16.8677 20.4283 -3.88667 -2.91874 2.16788
917 1 23.4825 5.06945 -19.8218 3.01006 2.66302 -3.99506
918 1 -7.14047 5.39964 2.68378 -2.4542 -4.5777 -0.591408
919 1 -9.88667 18.7668 12.7324 -0.311667 1.61214 3.70096
920 1 0.637479 12.9902 -20.3564 -1.92577 -0.494211 0.77819
921 1 9.81066 -8.83951 -17.9053 -3.93073 4.48637 -0.371593
922 1 -13.0514 3.50649 -20.8814 -2.46175 3.54685 2.55269
923 1 1.23235 -12.3159 1.80383 4.31672 0.89289 0.432967
924 1 -6.23061 13.2108 8.56352 0.43238 -3.72738 1.02048
925 1 2.14967 12.7306 0.383792 -0.546561 -0.811495 -1.05925
926 1 1.69734 -17.5115 8.69192 -4.89712 3.79623 1.59543
927 1 4.90057 13.5883 18.4984 2.55355 -0.290646 -1.85837
928 1 8.18006 -20.9187 11.5388 -0.7095 -2.28848 1.95877
929 1 -7.0201 -12.8399 -0.794886 3.51263 1.33948 -0.863729
930 1 -22.3126 -19.78 -12.964 -1.52306 -6.37402 -1.40852
931 1 15.7507 -3.12673 -6.12154 0.532516 -1.1214 -2.19497
932 1 -19.8361 14.5779 14.1918 3.66517 4.21358 -1.94439
933 1 -18.8084 46.8994 -23.1794 -4.21529 0.917845 -0.00407923
934 1 -2.78535 16.6648 -18.1977 0.28686 -1.18131 -1.54903
935 1 19.6085 -12.1823 0.545707 -3.71377 -5.95226 3.39087
936 1 7.77065 12.7634 12.8577 1.55094 5.30786 -0.604409
937 1 2.41011 15.2422 23.7499 5.40756 -1.9055 0.86289
938 1 18.3461 7.0384 5.79717 0.251505 0.515018 -2.75123
939 1 -8.66618 -11.3371 -16.5175 -0.572149 3.64587 5.40418
940 1 22.1548 2.98634 -6.93211 -1.04021 -3.48323 -4.63746
941 1 -18.1967 23.5112 7.22606 -2.33246 -0.18999 -6.00261
942 1 -4.55948 -14.3529 -20.8464 -1.26769 0.718802 2.28042
943 1 18.6639 -3.74438 -0.564869 0.0064022 -3.09284 -2.52243
944 1 -18.7019 -1.16457 23.3709 5.36508 4.99925 0.694663
945 1 4.30387 -23.7808 17.7264 -1.47135 4.08569 -4.80349
946 1 -13.9697 -8.53662 4.94569 0.205011 1.00744 2.31244
947 1 -11.9793 16.0445 18.2415 0.219192 2.40565 -1.13365
948 1 -22.4685 5.76858 -9.33965 2.11709 2.31099 1.17984
949 1 -5.46326 13.2694 18.9061 2.19352 1.40981 1.83544
950 1 -20.1613 7.03474 11.2214 -0.976662 2.91122 -1.60561
951 1 -9.46894 46.4217 -14.1926 -0.669674 -0.832163 -3.5838
952 1 8.84203 -13.941 -13.6559 -7.6819 4.13773 -1.17399
953 1 17.5752 -2.70447 3.64793 0.708929 -3.12566 1.04191
954 1 16.2096 7.83307 -11.2806 5.72115 3.40844 -3.81542
955 1 -10.8813 20.5748 -19.1826 0.881118 1.23061 -4.41196
956 1 -12.3483 -9.75562 -9.97168 -5.39427 0.338565 0.991415
957 1 -7.34869 -1.77582 15.8195 -2.4829 0.698189 1.13745
958 1 2.59091 12.021 18.4487 -2.03273 0.706193 -0.781907
959 1 -13.4628 -19.411 -21.9672 3.2529 -2.35183 1.83434
960 1 -1.24675 -19.8891 6.28376 0.673317 3.06058 -0.129414
961 1 -5.57422 8.51753 1.29657 -4.02148 3.60048 -1.65293
962 1 -5.0063 7.86126 -5.23157 -0.0216825 -1.84425 -0.887945
963 1 -16.0648 24.7061 -11.0235 -1.15777 0.226551 -2.52316
964 1 17.5049 -20.2194 -20.0715 1.0419 0.647758 -3.07485
965 1 -12.3341 11.0118 7.1797 -2.6436 -6.00398 3.06191
966 1 -19.9934 -6.17643 13.4082 -0.192448 0.693208 -0.0672957
967 1 19.6769 -2.16282 -11.15 2.35798 0.901918 1.6109
968 1 -1.38302 23.8076 -16.4063 2.64207 -1.56182 2.90583
969 1 13.9746 -23.6434 3.80299 2.62263 4.84542 -5.25852
970 1 -4.58283 46.619 -8.21455 -2.51635 3.01171 -0.286959
971 1 14.2004 -5.39138 -23.6856 -0.741902 -5.61164 0.682655
972 1 -7.7776 -17.6298 -2.25994 0.133353 0.801041 -3.52155
973 1 -15.1029 -5.85712 15.8452 -0.66338 -2.04473 -3.27341
974 1 -0.918101 20.983 -12.5559 -5.59377 -3.26002 -4.56722
975 1 -13.5451 -13.4048 6.13788 -0.286248 0.607193 -1.02048
976 1 -21.7059 -6.3079 8.90183 0.490862 -2.43372 -1.58294
977 1 3.81819 46.878 13.2925 -2.69919 1.14338 1.31715
978 1 2.08218 15.4469 -21.2062 -2.95257 -2.52391 -1.86362
979 1 6.44721 18.1016 -19.2824 1.17564 -4.72129 4.05709
980 1 3.51447 23.8589 14.3865 -1.45825 -3.48721 -0.333947
981 1 7.54592 -2.83347 -5.42757 -7.40319 0.676281 -1.23644
982 1 -3.65842 -10.2096 3.20846 0.18076 5.05595 0.452059
983 1 -21.3021 6.58426 14.964 -1.55184 -0.299461 -5.05035
984 1 -12.191 16.1796 -4.88954 -1.75237 2.05928 2.59394
985 1 -16.2854 16.7764 12.8055 1.0382 0.0242407 -0.210405
986 1 -0.507163 1.4895 11.6551 -0.393602 4.56532 0.450113
987 1 -21.2318 -20.6413 10.1009 -0.383324 -6.12346 1.50493
988 1 -10.2403 -23.3915 7.97567 3.84623 -3.54687 -5.34649
989 1 8.75748 -0.0154077 -5.85249 -3.04363 5.08163 3.39866
990 1 14.2609 -5.22284 12.8905 -6.1244 -0.192029 1.83326
991 1 -6.79861 -9.94429 6.11659 -5.95407 -0.192839 0.935563
992 1 -20.9775 10.5352 4.01005 3.77977 -1.41419 1.94971
993 1 22.3193 -0.245359 -23.8375 -0.264046 3.48734 -0.322208
994 1 19.8258 -17.7618 15.9778 3.6949 2.36044 -1.72446
995 1 10.9503 7.22577 -2.54137 -0.67297 -2.20502 -0.424008
996 1 21.3246 13.0281 -17.345 -4.6668 1.18158 2.48346
997 1 -21.3137 24.7074 22.7459 -0.0604337 -1.89857 2.40602
998 1 -5.46192 11.2563 10.655 -2.92706 -4.44563 3.48307
999 1 23.3049 10.3848 6.63421 4.1515 -0.375436 0.954916
1000 1 18.1459 19.4486 -8.94851 -3.01022 -0.928097 -2.44672
1001 1 -19.991 -4.43299 -4.77966 -0.882407 -1.59089 -1.50263
1002 1 -14.0696 -16.8989 2.76447 4.79756 3.36619 -0.33249
1003 1 10.436 -14.0671 12.3872 -0.955551 -0.656796 4.85201
1004 1 -21.8951 21.4204 7.32247 -1.22692 -2.4286 0.181062
1005 1 -15.6586 16.6904 2.27399 -2.27915 3.5695 -3.36792
1006 1 22.5056 10.4083 17.6202 -6.22724 0.312964 -1.46164
1007 1 17.0945 2.565 18.9142 0.610067 -0.923871 0.28307
1008 1 7.28041 -3.2802 18.9022 1.21961 -1.00576 1.52428
1009 1 11.9793 -14.795 3.74942 -3.3593 -2.00313 3.08115
1010 1 -15.0831 5.29224 -13.1733 2.53019 -0.0866932 3.4253
1011 1 -18.7461 0.824449 0.0730124 2.49866 0.468941 4.56953
1012 1 0.607221 1.29557 -2.61784 -0.616652 2.99334 -2.8753
1013 1 5.01644 -14.3838 3.19269 0.562899 -3.00944 2.72102
1014 1 -20.0017 45.4741 2.97237 2.85706 1.46865 -1.68016
1015 1 0.557323 3.9477 -22.2649 -0.664683 -0.311792 -1.53807
1016 1 -22.3729 5.58009 12.1743 -2.43129 0.73935 -2.25589
1017 1 -9.16304 3.61911 11.6002 1.62666 -0.929865 5.61521
1018 1 -23.1628 -22.8673 6.908 7.22143 2.32041 -1.25353
1019 1 6.98776 17.1015 3.23942 4.18438 4.36819 -0.496872
1020 1 -20.6607 45.4429 9.15454 -1.74188 -0.273295 -5.21151
1021 1 20.748 -19.9587 -4.99118 2.11255 -1.52313 -2.42055
1022 1 -10.0369 -22.4107 -11.2675 -1.03305 -2.13217 0.0963942
1023 1 7.46572 -2.37107 5.58505 -0.446721 3.36659 0.555773
1024 1 -2.93442 8.07 -22.6377 -1.91703 1.10201 2.26007
1025 1 5.43455 7.72366 -23.6013 -1.28559 1.00148 -1.99999
1026 1 5.62915 11.917 -8.74463 -1.69638 0.281412 -2.93806
1027 1 -21.6773 -3.12227 13.8257 4.57315 1.15356 -0.862527
1028 1 -8.29085 -9.18687 -12.8708 -1.65766 0.0703215 2.06281
1029 1 10.1252 12.9371 -0.441436 1.62742 0.914943 -2.17037
1030 1 -18.1772 -17.9503 22.9269 -0.966627 0.571977 1.11917
1031 1 -3.8643 -8.86479 -6.43323 0.395284 -1.19181 1.71298
1032 1 9.62477 9.43377 14.5144 -0.320747 -3.36942 -2.67541
1033 1 -3.57588 -16.4061 4.63508 -0.64994 -0.502165 -0.250563
1034 1 -13.359 11.3909 -11.2523 -0.602242 -3.25956 -7.2254
1035 1 13.2251 20.8087 -3.88434 2.16271 -0.16367 -1.18331
1036 1 0.579527 -9.87233 21.1172 3.32248 -4.35021 5.00934
1037 1 -7.69202 -14.44 16.3927 2.4355 -2.19759 -3.02308
1038 1 1.08749 8.02939 9.26849 -0.924829 3.90419 -0.0837136
1039 1 23.0635 22.0898 -6.36127 -1.88996 4.25943 2.92982
1040 1 9.78828 -0.676189 -20.4352 0.880868 3.59912 3.81263
1041 1 -0.967002 5.55979 -12.9083 5.24408 -1.234 -0.284899
1042 1 12.2906 -8.35928 -23.4306 1.78495 0.0218253 5.49105
1043 1 15.3291 10.6016 -6.64851 1.20735 4.83465 0.692672
1044 1 -3.51459 22.5097 -12.8633 0.354401 4.48377 -5.48634
1045 1 -5.88527 -2.34402 19.8249 1.76563 1.52116 2.40195
1046 1 17.6737 15.3735 -15.5134 -0.867103 -0.147376 -2.92085
1047 1 -16.4905 0.79978 20.4348 1.05499 -3.56709 -1.84897
1048 1 -0.0660224 -1.25765 16.4266 0.998585 2.65736 -1.26064
1049 1 22.5291 2.59717 -9.93484 2.28923 3.81448 1.48746
1050 1 17.0023 20.7162 17.1492 1.6896 -0.454514 -2.76341
1051 1 3.61906 -0.0962849 8.79082 0.0723894 -0.0316305 0.598914
1052 1 -20.5126 -2.93128 -17.8243 -3.41336 4.74798 3.4648
1053 1 4.02125 8.0024 -21.1014 1.88921 0.200125 1.93444
1054 1 -15.7342 20.8029 0.344884 -0.32675 -0.995777 1.64475
1055 1 -10.7028 18.6153 18.4913 -2.67765 -1.69846 4.23271
1056 1 -8.21088 18.9022 7.07289 -4.52484 2.55845 3.03619
1057 1 -10.378 -18.3625 -16.8524 0.592538 -0.080947 -3.01987
1058 1 1.12901 -2.14323 -9.10162 1.52916 -2.49261 2.22737
1059 1 2.75439 -24.0878 -16.8965 -3.49065 -1.44798 -1.69598
1060 1 -20.4269 -10.3536 6.73524 -1.54733 -5.64259 -3.31985
1061 1 7.90171 9.89944 -14.7127 -6.51007 -2.9907 0.503598
1062 1 -5.14812 -1.15556 10.3016 0.996689 -1.80954 -2.31082
1063 1 3.13176 20.8369 11.1623 1.03256 -1.15212 -1.60161
1064 1 15.7975 -17.2366 6.34652 2.25505 0.366387 1.95954
1065 1 15.1267 21.7227 -17.6996 -4.55918 -2.15942 -1.91049
1066 1 13.4739 -2.36739 -23.5462 -2.50297 -3.84975 -4.82123
1067 1 -20.9533 7.55151 8.52041 -4.67738 -0.222666 2.37245
1068 1 -4.63437 20.554 2.73405 -5.24044 -5.22337 5.69259
1069 1 -23.4514 13.9088 -21.8534 -4.34667 -4.53276 -0.225938
1070 1 -6.26704 8.66825 9.93432 -0.031512 -0.923237 -0.57907
1071 1 -20.7545 25.0382 -8.64574 0.638186 4.27953 5.8728
1072 1 10.3524 10.1217 -17.9016 -3.64388 -5.33896 -0.215567
1073 1 -0.75832 -21.1172 -9.14678 1.52687 5.18506 5.73717
1074 1 -9.94489 11.9928 -17.0395 0.944332 0.963091 -2.16621
1075 1 0.85975 12.8484 14.4133 -2.68517 -4.07804 4.99126
1076 1 19.7617 6.17994 22.2412 2.554 -0.202618 -5.80307
1077 1 16.8258 -10.6014 -10.4992 -1.48832 1.39746 2.30636
1078 1 11.7275 -8.95955 11.8793 -2.16205 1.40945 -4.55317
1079 1 -15.9028 0.78336 12.4151 -0.280528 0.170828 -3.40978
1080 1 -16.4494 -7.65494 -8.49566 -6.30822 1.01431 0.607928
1081 1 7.75854 -7.35777 17.9548 0.394141 -1.17454 2.53535
1082 1 -18.9905 -18.527 -6.04759 0.849695 0.612959 -2.17589
1083 1 1.57396 23.0838 -20.0717 -0.123615 1.67989 -3.971
1084 1 -2.40256 -14.1691 -6.84259 -1.15096 1.39743 -1.06311
1085 1 -10.318 -16.4342 -3.24733 3.25135 1.93135 -5.37459
1086 1 -9.22481 7.99727 -6.32771 -1.04749 -1.88275 3.84738
1087 1 8.64809 -0.212459 -17.865 -2.28476 -4.86585 0.75573
1088 1 -20.4733 23.3314 5.42352 -7.0515 -0.160038 4.7729
1089 1 -18.3612 3.07896 16.0952 3.00004 0.957629 -4.28424
1090 1 -21.5771 -22.0883 -11.3525 3.30909 2.28372 2.06835
1091 1 -16.127 9.38812 6.75304 -4.40686 -5.77618 0.649084
1092 1 -21.6194 -16.4562 -2.63476 -1.77125 3.89082 1.76071
1093 1 22.2316 8.95382 4.46375 -0.652129 1.34591 -0.291519
1094 1 -23.0037 18.7702 -18.6814 0.168142 -1.30894 -2.93195
1095 1 -6.9276 22.379 -10.2744 6.43289 -1.58792 -0.229543
1096 1 11.2884 18.462 -11.443 -0.274986 -1.74108 2.99928
1097 1 17.3748 24.218 11.6096 1.13064 2.10175 -1.42645
1098 1 -13.7023 -4.97055 18.2728 1.20598 -1.83055 -6.75894
1099 1 14.1288 10.9499 13.304 -0.712083 0.815738 -0.273976
1100 1 10.7496 -10.2038 18.4604 -1.5136 -1.31468 1.15838
1101 1 5.8456 -14.783 13.5592 0.959502 -2.73533 -0.623748
1102 1 14.3201 -13.7678 18.4014 0.424855 2.20485 1.55732
1103 1 22.1604 9.73233 12.944 3.36628 2.17427 3.34531
1104 1 -22.5734 0.457636 10.7595 1.17036 2.62531 -1.05222
1105 1 19.0944 2.76997 -2.48604 -5.32082 -0.866436 0.132258
1106 1 -18.0232 -17.7205 6.11993 7.02335 -0.270582 -1.28678
1107 1 4.0074 -11.7673 2.52848 4.23433 -0.340773 -0.49616
1108 1 14.2424 15.4787 22.5232 -0.587583 5.41793 -1.54527
1109 1 -20.4804 -9.93873 3.8557 -0.948878 3.82312 2.88769
1110 1 -12.2484 25.6584 8.72873 -0.130387 -3.50868 2.10882
1111 1 12.4875 -7.91339 8.43626 0.888254 -1.28061 2.42353
1112 1 -2.31369 -14.8185 18.5667 0.310395 2.47098 4.92738
1113 1 -20.8753 22.0261 -21.845 4.34057 1.68602 -3.12802
1114 1 -20.2335 -3.68901 9.77363 -3.59103 0.919119 -0.00527418
1115 1 21.9744 25.2825 23.5151 -0.809612 4.81244 -2.94208
1116 1 -15.5469 2.51176 8.36366 -6.73707 3.19784 3.29145
1117 1 -5.09266 15.7121 9.09685 -1.35174 3.42739 1.20812
1118 1 -21.69 -0.649841 -9.8788 4.0407 -4.19305 1.36654
1119 1 7.68512 -8.13361 5.20872 -0.911426 -4.67937 6.50685
1120 1 -4.84926 -9.31229 -1.48582 0.171598 1.34032 -1.31401
1121 1 12.5471 -0.790775 -19.3091 6.37371 -0.700039 0.31201
1122 1 -8.60029 23.0934 -1.78877 0.0317884 1.34448 -1.70315
1123 1 18.2405 -5.92332 -5.63611 -0.917963 3.80262 -2.59977
1124 1 -2.07436 12.9613 -14.7171 -0.810162 0.113632 -1.14361
1125 1 -19.9276 7.57318 1.17863 -3.16636 -4.7001 2.58977
1126 1 -1.37706 -11.7367 -15.1004 -0.849459 -3.3828 -2.91989
1127 1 15.3186 19.0843 -4.78493 1.18918 0.448741 5.47784
1128 1 -0.10113 12.824 -1.40196 3.01776 2.50569 -0.478662
1129 1 -2.3871 -9.09913 -23.8666 1.27017 -3.37842 1.2209
1130 1 -3.06044 12.7581 -11.7657 0.349263 3.99106 5.15008
1131 1 14.5628 -9.95459 -7.76046 -4.15257 -1.84855 -3.0746
1132 1 22.2203 -2.3924 20.7147 2.68919 -0.060555 2.60367
1133 1 9.7821 13.5909 18.0762 3.046 1.86808 2.20704
1134 1 12.0372 -21.7926 19.5927 -0.505395 0.23912 -3.12285
1135 1 2.57345 3.0318 22.3325 -1.46792 -2.42802 6.57845
1136 1 -18.4663 -23.8778 -20.5594 -3.79579 -2.9657 0.938492
1137 1 6.11585 5.84402 3.97714 0.122345 -0.362178 -2.52245
1138 1 22.3689 -23.626 5.02984 0.0527261 -0.98207 0.210469
1139 1 -5.48338 8.90451 4.23082 -2.15227 4.1109 2.93993
1140 1 14.0339 -7.88271 -15.8046 -5.53574 2.31048 1.33472
1141 1 -19.1703 9.65753 11.7542 3.844 0.174829 3.54246
1142 1 7.06429 15.4932 9.75069 0.823479 -0.21861 -2.75064
1143 1 3.8676 -5.79858 -13.8003 -0.883477 -1.77309 -0.588751
1144 1 17.0003 3.432 -13.6349 0.218495 -2.74659 1.60546
1145 1 1.82458 19.6716 -22.5324 -2.03905 -0.123306 -2.4408
1146 1 10.1792 17.562 19.0564 -2.84623 1.37035 -3.05081
1147 1 -3.28467 7.55256 -0.535557 0.507294 -2.33588 -2.22148
1148 1 -13.2822 6.76741 10.682 0.968793 1.53732 -2.67652
1149 1 3.05548 -17.8089 11.2865 0.958186 4.41538 2.82805
1150 1 -12.0416 16.8722 10.4316 -4.3738 3.75288 -2.45801
1151 1 -23.8996 -23.5168 20.224 1.77388 3.523 0.451797
1152 1 -16.902 16.1214 19.636 -0.649043 2.15147 1.68966
1153 1 -2.96597 -19.2863 1.56886 3.9092 -3.90871 -1.31161
1154 1 -1.59507 11.3765 -19.82 2.91902 4.43648 3.7933
1155 1 6.3963 -18.8095 15.8889 -3.11438 2.06661 2.62666
1156 1 -20.0861 -16.9843 -22.8885 3.03672 -0.716623 -0.63451
1157 1 3.68145 2.75263 -8.21822 0.279293 -0.966766 -4.73974
1158 1 -17.2041 -1.64664 18.6392 -1.45493 1.4446 -2.38446
1159 1 20.1232 -1.2679 14.7205 0.96983 2.14107 -2.42522
1160 1 -8.97049 5.46193 -11.2042 0.407613 4.93997 2.59902
1161 1 -6.87173 -24.1821 -19.792 2.34262 -2.04763 -1.86653
1162 1 5.76793 10.4158 3.89336 -1.31458 0.4863 5.11421
1163 1 -16.5405 45.0994 13.6293 1.64015 2.22702 -4.92809
1164 1 -20.0727 -17.0212 7.6952 5.38432 2.26139 -1.87318
1165 1 17.2663 23.3081 -2.56214 -0.765871 -1.05434 -2.43044
1166 1 -17.4809 25.0424 18.4928 0.516458 -0.661979 -2.77022
1167 1 -0.685228 15.2235 19.3814 -1.06893 -0.286157 -2.52291
1168 1 11.7454 -8.24799 1.33696 2.81617 0.794109 1.70763
1169 1 14.1018 -7.31956 20.5249 0.655666 -0.250007 -4.38675
1170 1 1.99312 16.9277 12.3921 -6.69656 1.39111 -0.801856
1171 1 -23.8811 -4.16041 -8.10352 1.1708 7.32356 1.06074
1172 1 -20.7804 -14.5774 -17.4616 -0.62105 -4.02366 -4.37728
1173 1 6.72212 -19.7528 18.8251 1.62722 -0.00186427 -0.494024
1174 1 -21.048 -18.8075 -15.3444 0.863742 3.16082 -2.86314
1175 1 -10.9265 15.3439 20.9589 -1.971 1.77354 -1.45233
1176 1 -0.729883 -9.1935 14.2018 -6.42202 -0.869805 -0.752517
1177 1 10.7375 3.84317 -18.5906 5.08369 -1.7476 -2.17091
1178 1 -0.935335 6.0942 10.1052 -1.89683 -3.35443 6.21279
1179 1 9.90186 -8.81292 -9.26142 2.05551 -3.44746 2.33687
1180 1 -11.0943 46.2602 -11.8421 -1.63135 -4.45036 0.191289
1181 1 12.4149 16.7354 -6.50263 3.59339 -3.34728 1.00293
1182 1 16.7511 6.78963 1.61586 -0.857969 4.33863 -0.84809
1183 1 2.09636 -5.96848 -18.3162 -5.75691 0.788841 2.55823
1184 1 5.66133 23.3269 23.7145 0.478314 -3.75407 -3.23557
1185 1 16.1494 5.27995 18.1659 -0.292578 -4.22514 0.598011
1186 1 8.93758 -7.58496 1.14739 -2.57477 -1.02321 0.539401
1187 1 -13.5044 15.8164 -7.22398 -1.52785 1.8368 -7.50605
1188 1 2.22247 1.5162 -0.132597 -3.97239 1.91762 -2.0789
1189 1 12.1107 13.4813 3.25523 5.15321 1.14431 2.70402
1190 1 16.9015 -0.0921141 -19.4875 -1.8758 0.995924 -2.08803
1191 1 -0.123605 -1.81162 -19.2989 -1.53149 1.3249 -1.10792
1192 1 -12.4175 -1.20212 -11.6462 -0.542567 0.160988 0.888404
1193 1 10.226 -5.27126 14.614 -2.3255 1.8765 -2.34039
1194 1 8.49001 14.9447 -4.22563 -4.16845 -6.53771 2.55405
1195 1 12.3461 -13.7256 -18.9961 -5.25485 3.40513 -2.21046
1196 1 3.03348 17.1191 -12.4158 4.2778 2.10233 2.76545
1197 1 -23.5379 16.197 23.203 -3.6094 1.97995 3.69661
1198 1 21.0987 -22.3859 14.5638 2.21849 -5.84901 2.94166
1199 1 -12.3729 5.38739 -12.7778 -0.133522 0.920305 -1.41207
1200 1 13.8554 -10.3436 11.0265 5.73625 4.08856 -0.915064
1201 1 22.1911 -19.1196 18.7023 1.16272 -1.35659 -1.2293
1202 1 -12.8898 -3.08193 -4.45127 3.31602 4.24401 2.76695
1203 1 -15.015 -13.6928 -16.3229 5.05468 4.30886 -2.05463
1204 1 -1.72117 21.2002 3.61155 2.36769 0.479077 3.33026
1205 1 -4.24585 -17.3618 10.3616 0.22119 1.92951 1.52339
1206 1 22.6684 -21.3176 -21.3562 -1.67845 0.384177 1.90171
1207 1 15.0423 -4.17675 -17.2083 -1.79922 2.27832 -1.96559
1208 1 21.0294 -5.95334 9.61626 -4.04105 -1.30446 0.754256
1209 1 2.52463 -7.86515 -23.0126 -5.64042 -0.467638 0.743975
1210 1 -1.02227 16.2839 -4.54436 1.26766 -1.125 1.88131
1211 1 -16.3285 -11.9049 10.1879 -0.934601 3.28742 -0.789662
1212 1 22.3126 5.95512 -14.0823 2.88333 -3.32141 -5.10853
1213 1 -22.6003 -15.0375 20.2749 1.4304 -0.320397 -2.39991
1214 1 13.8766 2.93522 0.442345 -2.62414 -2.12871 -3.85523
1215 1 4.314 9.23736 -8.8998 0.382666 1.714 -1.81929
1216 1 14.393 -8.90662 -11.1922 0.0345242 6.90662 -1.02079
1217 1 14.2447 -15.352 1.74099 5.56629 -3.44848 -0.637504
1218 1 18.6142 -2.25435 -6.69371 3.18759 3.76184 -0.337635
1219 1 13.1761 14.9744 9.59106 0.151778 -3.64078 -3.53357
1220 1 -20.1843 24.6925 13.9262 0.421647 -4.36934 -1.81458
1221 1 3.63758 23.388 -21.9121 -0.0421581 -4.92701 -1.34176
1222 1 20.4428 19.2107 10.8609 -1.54759 3.96387 -1.9993
1223 1 -23.7315 10.4734 10.91 -1.42121 1.66522 -0.618973
1224 1 17.8825 -6.93977 18.1664 0.0307177 2.45008 -3.69814
1225 1 -1.80904 -18.8263 20.9197 3.32846 -2.83027 0.541148
1226 1 -19.8549 15.5088 -0.820295 -0.627946 0.858591 3.79367
1227 1 2.38406 -11.1479 -2.70849 -1.48489 0.179825 3.872
1228 1 -23.567 -20.5147 -10.1717 -6.63149 -2.54535 4.50178
1229 1 19.5517 -17.2681 -1.55906 2.7786 -3.16813 3.63553
1230 1 -13.3587 -16.1838 -6.73926 -0.0320041 3.12966 2.39744
1231 1 -14.8223 -9.96415 -8.89892 -0.805999 -2.41033 0.780544
1232 1 -20.2289 18.3823 -19.3661 -0.876862 -2.92463 0.509704
1233 1 -2.7783 2.18845 -21.5887 -0.783104 -1.97352 3.95701
1234 1 10.6828 12.1896 5.47867 1.19642 -5.54157 1.51145
1235 1 10.5546 17.5477 2.52271 0.985174 7.58004 4.09997
1236 1 -8.68247 -22.0529 14.3806 -2.19219 -1.17872 0.669228
1237 1 -18.8162 16.1006 11.8101 -2.11507 -3.09929 -1.76632
1238 1 8.91278 -3.02712 -17.6095 -1.3805 -4.13331 -1.16434
1239 1 -0.754128 -22.7224 6.21414 2.62759 0.636379 0.215763
1240 1 -5.87701 -22.2841 2.8821 2.17068 -2.22249 1.35848
1241 1 10.608 15.7099 -20.1074 -3.69387 -1.2263 -1.49149
1242 1 9.16603 -20.1174 -15.7564 -0.137653 -1.69188 -2.72375
1243 1 9.73568 18.7375 -22.6287 -0.596759 -1.78299 1.70364
1244 1 -14.179 3.24163 11.8707 3.86021 2.90973 -0.936638
1245 1 -18.5505 10.5465 -20.9554 0.0690002 0.708871 -1.65508
1246 1 -6.71202 -14.1485 5.18311 2.32117 -0.0112903 -0.823852
1247 1 -1.0776 1.6872 -9.93655 0.625085 -0.046523 -0.544818
1248 1 10.8222 5.77074 19.9367 -1.04302 2.49557 6.23263
1249 1 4.87758 14.4958 -20.4653 2.84607 -0.210979 2.20488
1250 1 5.34193 2.08342 21.5227 -1.03168 -1.92949 -0.680382
1251 1 22.9621 0.294836 21.2946 2.32555 -3.35467 -0.332107
1252 1 17.8284 -18.9403 2.17742 2.5968 5.5697 -2.82532
1253 1 15.0026 26.9072 -1.84727 2.34104 -2.4108 2.44931
1254 1 -22.0112 -20.4027 6.42584 2.34913 0.703618 -2.43296
1255 1 -4.4493 -9.44897 10.8487 -1.91792 1.71795 -7.17193
1256 1 8.16029 -21.1665 -20.8002 1.14458 7.93296 -3.99255
1257 1 -6.00916 -22.6545 -9.65516 -5.58696 2.90446 -0.441084
1258 1 -16.3206 11.1074 20.939 3.21864 1.85057 -0.484099
1259 1 17.3368 -10.3621 9.79023 0.451263 -1.48301 1.09795
1260 1 2.12591 -9.26742 -13.6562 2.61315 2.46808 -1.39107
1261 1 12.7756 -5.34691 -10.0108 -3.36805 -5.2244 -1.87794
1262 1 11.8729 -14.1568 -6.38093 -0.674133 0.010169 -2.64622
1263 1 -15.5443 -8.31724 -1.62895 3.70985 1.8643 -2.06089
1264 1 -22.8343 -12.7136 -1.46291 -0.300579 -6.43029 0.158307
1265 1 -9.71885 13.42 -9.94865 -1.69247 -1.97447 3.56258
1266 1 14.7725 -7.86766 4.34245 -3.2358 1.15698 3.2811
1267 1 21.9505 -16.9167 4.99205 -1.60392 -1.80401 -2.70607
1268 1 -22.3798 -12.2017 -17.7975 3.39627 -3.11825 1.35181
1269 1 9.56764 -6.76713 21.5218 -2.76093 -3.23425 4.73019
1270 1 -21.7946 15.8777 12.5022 -0.946013 -1.25388 2.09833
1271 1 0.621381 4.36234 16.0819 3.23632 -1.15724 -0.610644
1272 1 -20.267 9.35742 15.4304 -5.04008 3.55943 -4.75516
1273 1 17.5827 7.51789 19.4963 -1.18982 -0.701971 -1.66512
1274 1 20.2098 19.4862 -21.563 1.86035 4.30913 2.39272
1275 1 2.09655 2.07587 10.9993 0.502784 -3.29151 -0.0737526
1276 1 -2.62953 -4.64976 -22.3234 -1.43446 -0.5793 1.41772
1277 1 -11.6483 22.6227 -4.67611 -0.718277 1.54449 -1.82277
1278 1 14.2759 -8.19951 -21.2188 2.03109 2.67755 -0.0909973
1279 1 -22.2557 14.7233 -10.7139 -0.660488 -1.06727 4.86447
1280 1 2.94138 -3.83644 -5.04687 -1.34281 -3.14873 -3.28055
1281 1 11.187 -10.5989 22.9193 5.14399 -1.12522 -1.12596
1282 1 12.392 -19.2512 -1.21972 3.37054 -2.78584 -3.23902
1283 1 6.206 -21.4477 -9.52637 -2.43524 -2.21069 -2.91334
1284 1 7.95881 -11.9376 1.13383 -4.97741 0.872267 -1.37054
1285 1 -12.1255 21.4359 15.1593 0.00816448 2.14326 6.59383
1286 1 -2.47329 5.37423 -15.275 -3.30745 -0.986705 -1.22006
1287 1 11.224 -18.2317 17.9825 -1.53205 4.69689 3.11384
1288 1 3.552 -3.73398 -17.5313 0.809939 0.164804 6.59152
1289 1 -19.2389 -13.4474 -9.7569 1.05926 -2.51747 0.76116
1290 1 4.056 7.46249 6.83279 2.34767 1.89638 -2.10718
1291 1 -19.6115 12.9327 0.93018 0.286228 -1.53007 -4.14726
1292 1 -2.99506 18.6188 -4.24316 -2.2759 -1.57282 -2.7143
1293 1 -7.82307 -2.97446 0.0499434 -1.81508 3.08808 0.179677
1294 1 13.013 -13.8472 -10.3322 -1.30094 2.48807 4.46468
1295 1 10.9052 9.1243 -0.421094 0.409602 -0.470596 5.71503
1296 1 -6.39686 -10.5214 3.18736 0.295749 1.97034 -4.26358
1297 1 13.29 14.9817 14.1642 1.5883 0.469046 -3.39889
1298 1 2.24718 -7.44044 -3.26162 1.62019 -2.4329 -0.306614
1299 1 -7.68772 -9.91227 -4.11815 6.03968 2.31087 2.86401
1300 1 4.95038 -4.23904 -3.05414 -6.20974 4.50113 -2.56249
1301 1 14.1162 18.6634 -10.7575 -2.6398 -0.285047 1.44273
1302 1 -3.50426 -2.98212 23.2705 3.13215 -3.48048 1.41948
1303 1 -7.48094 -7.04634 -19.2436 1.57083 4.26433 -3.64135
1304 1 5.67552 -1.31908 -3.62363 3.60546 0.840023 0.00338003
1305 1 -4.81118 4.95787 9.55794 2.62136 -5.23832 0.93546
1306 1 7.46519 -21.6688 -0.703051 4.45335 -5.77529 1.81484
1307 1 -14.3403 -22.0833 -4.28248 -1.16838 -2.6054 3.39901
1308 1 -18.1636 -2.86573 8.06256 1.46685 0.237965 0.196831
1309 1 0.7354 -13.936 -10.6975 2.09961 -1.13897 -1.54965
1310 1 -2.94465 -13.7806 -2.13059 1.29745 3.27752 -3.24821
1311 1 -4.84701 18.6058 -15.2555 1.89766 -0.951598 -5.17074
1312 1 -18.5516 -6.50197 3.39202 -3.39326 -4.64216 -2.91899
1313 1 14.6439 21.4356 21.0635 2.53452 2.77291 1.80036
1314 1 -15.9047 9.7893 -19.3482 0.0803142 0.195025 -1.57635
1315 1 -20.1954 -11.2196 -19.2963 -2.99634 0.971761 -2.89964
1316 1 17.1455 -10.4561 -13.4504 -3.08476 0.0379903 4.66064
1317 1 -10.351 9.00615 -12.6065 2.72042 -0.283107 3.57447
1318 1 22.6723 20.5747 -0.0617794 4.12192 0.39365 -3.86164
1319 1 14.3066 25.2585 0.384262 -3.15778 -0.786596 -2.91391
1320 1 19.6825 -7.02234 -8.71175 1.32236 -2.95875 -0.291681
1321 1 12.5371 -22.303 -4.83402 3.5524 1.74487 -1.69967
1322 1 1.15566 -15.2164 -4.75979 -0.129414 3.83416 3.89529
1323 1 12.202 -10.3921 14.2524 2.53371 -3.61297 1.00425
1324 1 -11.4639 -13.4901 -18.7524 -0.208202 -3.01595 -1.12406
1325 1 -7.09544 16.593 10.8722 0.356537 0.172246 -2.18011
1326 1 -16.7619 -21.4909 -21.2228 -0.830035 2.92179 -1.06992
1327 1 -10.0092 23.3861 -22.1098 1.14039 1.73568 -1.00624
1328 1 8.03009 13.3069 6.55132 5.17345 1.83006 -3.50447
1329 1 20.3339 -13.5208 -1.76903 -1.89759 1.36527 -0.461949
1330 1 -8.33768 16.768 -6.32056 -1.59865 -0.724794 2.48822
1331 1 -17.2614 1.70099 -2.19021 2.19407 1.71354 3.36992
1332 1 12.2914 46.0002 21.0322 -2.87133 -5.10915 -0.973076
1333 1 -2.54946 8.92245 7.60154 -1.21787 -0.996132 -6.71694
1334 1 12.1276 -10.9783 -9.25421 1.64994 -0.867516 -6.11089
1335 1 -15.3522 26.0436 -13.4462 -1.12464 0.449669 -4.51188
1336 1 3.67647 16.5045 -8.63151 -0.198024 0.194011 3.19195
1337 1 9.43836 -19.5016 7.82192 -2.9317 -3.08138 -2.65235
1338 1 1.85263 9.26357 -3.60492 2.00098 4.11273 1.51836
1339 1 0.505702 -20.2019 21.9683 -0.137032 1.162 3.26096
1340 1 -19.6501 16.0482 8.24964 0.648261 -1.51901 -3.14443
1341 1 1.1234 7.91926 16.7653 -2.42638 -4.02302 3.07204
1342 1 0.736943 45.7653 -18.3812 -0.470549 -0.165019 -0.000839869
1343 1 -9.81076 -8.77338 -6.01336 -2.04181 -5.32236 -1.46337
1344 1 17.4366 -5.47807 4.48906 0.0902422 3.88177 0.634987
1345 1 -22.9425 2.52524 -18.9102 2.30827 -0.272137 -0.278491
1346 1 18.2901 -2.67272 -15.1724 3.08043 -0.160598 3.14204
1347 1 -16.045 -13.4535 -19.2415 -0.40037 5.23165 -2.37333
1348 1 5.47704 10.0014 -13.5302 0.867069 -3.77411 -2.10339
1349 1 3.28249 -13.2599 10.0053 -3.0953 -5.44675 -0.903693
1350 1 -15.9898 -0.750309 -2.64554 0.278185 -3.49275 -1.71207
1351 1 14.8232 -16.7866 18.8711 -3.53206 6.62945 -2.17618
1352 1 5.99695 25.4074 20.1798 -5.2897 -0.606899 -1.06156
1353 1 4.47221 21.5883 3.83356 1.63352 -0.559825 -0.551063
1354 1 -0.230607 -4.12653 -17.6457 -6.54004 -4.23929 -0.527083
1355 1 -9.4527 21.9546 19.3171 -5.07235 3.26015 0.314386
1356 1 -20.4088 -12.7387 2.28906 4.40908 -1.90803 -1.27088
1357 1 -19.2362 -7.24097 -12.2831 -2.69634 -2.81277 0.630897
1358 1 -9.40358 24.5558 20.5669 4.82328 -1.48693 2.76557
1359 1 -21.584 -24.0214 -23.7063 1.0015 1.46984 2.15328
1360 1 16.7164 -12.2073 12.0873 0.741104 -2.68004 -1.37279
1361 1 -8.20966 -21.4968 4.92576 -3.85849 0.303249 3.56887
1362 1 19.7205 19.3846 5.58842 2.21234 0.160574 -0.521323
1363 1 -15.7215 -12.06 -21.8538 1.54482 -0.302798 3.08569
1364 1 10.3281 -8.93801 -13.9219 -2.68337 -2.32716 -2.79283
1365 1 10.7222 -6.52286 -21.9365 -3.96372 3.57607 0.643629
1366 1 19.7839 -14.409 2.35326 -6.75486 -2.12562 -0.425771
1367 1 -9.43272 -11.048 12.4409 -3.6274 -4.07006 5.85735
1368 1 -17.5144 16.6342 -1.78347 2.93027 -0.600199 1.63154
1369 1 22.1384 5.6486 -5.26647 2.81513 0.0609037 -1.61961
1370 1 3.31841 -17.04 -23.7938 -0.526874 -4.04027 -1.37471
1371 1 -21.0111 7.7576 -1.60492 -0.592812 -1.00749 1.61649
1372 1 -9.79253 9.46546 2.54812 -1.60454 -3.51073 3.70361
1373 1 -14.2397 -9.5514 12.6741 -0.145955 -2.77226 3.42602
1374 1 -20.0124 24.4955 16.7955 -5.58591 1.23313 -1.78431
1375 1 12.0593 -8.6835 4.3299 1.64394 -2.36339 -3.57376
1376 1 6.90879 12.2641 -5.97084 4.64831 -0.713776 2.01817
1377 1 -14.2001 20.9822 -23.9268 1.61682 2.9441 -1.17431
1378 1 7.84976 -9.52527 2.78308 3.49996 5.24426 -2.27793
1379 1 -19.0638 -15.0735 3.77692 2.92257 -2.46475 -1.00923
1380 1 15.8604 24.1689 -10.0683 -2.28347 -3.32094 5.34609
1381 1 15.8775 13.7592 10.1207 0.794226 1.50224 -1.26112
1382 1 14.6118 -13.3071 10.2741 1.20876 1.80366 -3.15932
1383 1 -6.98839 -23.6515 -14.2279 -0.372827 2.84073 2.39014
1384 1 4.60438 20.7616 -11.2269 -4.32975 -8.85566 0.196997
1385 1 -17.6744 24.3425 12.6771 3.16706 1.36691 0.806005
1386 1 -12.3155 9.76883 1.2919 1.72252 3.25889 2.22828
1387 1 -17.832 -0.413572 2.72882 -7.82353 -0.128431 -3.09539
1388 1 16.8641 -0.195665 17.6738 3.76302 0.785 -0.356375
1389 1 20.3133 -1.87723 -2.48988 1.83628 -2.46941 -6.8448
1390 1 6.26816 -1.13063 10.2234 0.434018 5.13522 1.16516
1391 1 -14.5552 19.6976 20.518 0.632162 -3.40537 -0.46514
1392 1 -23.4447 4.44321 4.33816 -1.76476 -1.85817 0.435548
1393 1 -0.34302 -3.01853 1.44755 1.35706 -1.49585 -0.789289
1394 1 4.30748 7.98197 -1.88822 -6.93656 1.07786 -1.19792
1395 1 2.2297 7.19546 -8.646 -2.18079 -1.12684 -2.52144
1396 1 -17.9734 -8.80346 7.44538 1.95337 -2.54476 -1.37465
1397 1 5.05465 23.2824 -8.209 2.04055 1.01312 -0.0987149
1398 1 4.23983 22.0167 -5.46121 -5.88891 2.84938 -7.94897
1399 1 -1.22931 -22.9332 -2.4518 1.32894 4.78281 -3.06484
1400 1 -13.814 14.2383 -22.3628 -2.40507 -3.77549 -3.04311
1401 1 19.9441 -21.9739 21.4646 1.85438 -0.0850458 4.40048
1402 1 -17.3055 -7.02551 -16.341 -3.928 -2.39915 -3.40982
1403 1 15.5913 46.4223 16.5787 -1.15428 5.11019 3.77039
1404 1 19.9912 -9.62296 10.4748 -1.74463 -0.00283864 -5.40446
1405 1 17.6867 23.2545 -23.2279 0.230116 -0.837842 0.440079
1406 1 -6.48555 1.86151 -12.7935 4.11663 -0.932869 0.0880258
1407 1 -23.9284 7.18669 -2.4256 3.99254 -1.03794 3.19534
1408 1 -6.95776 -4.39778 -18.2031 -3.71338 -0.508718 0.665439
1409 1 -1.73652 5.11488 22.5051 2.53295 0.0842954 -4.51308
1410 1 -0.918144 -20.51 -17.7131 1.96976 2.50373 0.749547
1411 1 19.7008 4.09515 -20.1651 1.30414 -1.99452 3.51977
1412 1 -19.9717 12.6479 -11.5304 -3.44468 -0.14731 2.89465
1413 1 -15.2468 5.3494 -20.5589 5.29837 1.11287 1.17033
1414 1 6.05664 22.9865 5.58422 -2.35088 2.83401 -2.10563
1415 1 -7.41549 -21.0869 0.861867 2.52633 -3.02784 -0.994711
1416 1 22.4365 -8.39398 10.5564 0.638716 -2.16236 1.4335
1417 1 11.9484 4.30808 13.8711 3.54456 -2.20491 4.8074
1418 1 14.591 -7.37077 0.94118 -2.12222 -0.555631 -0.759584
1419 1 11.0903 22.0795 -2.36823 0.753159 2.63271 1.43782
1420 1 -13.1553 22.2136 -19.0475 2.33178 -2.64727 0.896909
1421 1 21.5361 -10.3273 5.34409 -2.21419 -0.387156 -4.16721
1422 1 -14.2445 -18.9232 -13.2661 4.13709 3.42998 1.71682
1423 1 9.96297 20.6788 -18.0747 1.46058 -3.82469 -2.38124
1424 1 19.5278 12.4025 -7.91701 -3.36163 1.67832 -0.0635702
1425 1 1.96375 4.93331 -13.0993 2.76967 -0.580863 1.15471
1426 1 10.4116 -17.1284 2.63923 2.2913 -0.955009 -0.264464
1427 1 18.0486 -15.2156 -0.289419 0.112819 3.27185 -2.42571
1428 1 -3.10419 -17.7822 17.8532 2.52449 -0.669251 -0.697311
1429 1 -20.6136 -14.5545 6.10573 -0.466195 1.53372 0.653579
1430 1 -2.00114 14.1229 6.312 0.422725 -2.10707 -2.21759
1431 1 -8.54378 2.46969 -10.8193 2.34582 0.379582 0.472459
1432 1 -7.41213 10.1093 17.6623 0.389597 -0.00684416 -0.162249
1433 1 -16.6126 -13.5975 -14.0625 -2.37591 0.465604 -1.01199
1434 1 -23.3 7.90074 23.0934 2.73706 -0.185696 3.41718
1435 1 19.6364 23.3821 -4.58894 -4.18863 -4.3478 -1.02326
1436 1 -14.0364 -2.39715 -13.9895 2.7794 0.562313 1.12383
1437 1 4.2091 13.4713 -17.9988 6.50145 -2.66549 1.39164
1438 1 2.33954 -2.36716 -15.4071 0.867692 0.790076 2.9696
1439 1 -18.2492 7.50025 -6.92138 0.852466 1.14958 3.27166
1440 1 -21.2397 11.7311 -2.35309 -2.84095 2.15955 2.18205
1441 1 -16.3014 -16.6533 17.5762 1.56313 -2.97515 1.29153
1442 1 -23.8526 -7.63466 -1.96419 -1.28063 -2.76807 5.46832
1443 1 17.6345 -16.3766 19.6559 -2.03876 0.906388 0.541595
1444 1 9.75067 21.5686 -23.5409 -0.103171 0.251398 -1.55782
1445 1 13.3376 -22.3494 12.1181 1.22328 2.48938 -4.37845
1446 1 4.51295 -8.13822 -9.80773 0.691587 -0.779492 1.69372
1447 1 22.344 -5.10269 -17.1651 -0.30012 2.04359 -0.875643
1448 1 -14.5709 2.20693 5.5661 1.85903 -0.722125 -2.56455
1449 1 16.2631 -5.02582 0.702635 1.46912 3.86905 2.33391
1450 1 -6.40779 -5.57351 -9.6005 1.80429 2.71267 5.17323
1451 1 11.4728 21.2192 -10.6528 -0.475631 -1.44511 7.46335
1452 1 -6.3595 -23.6841 -17.152 1.80302 0.642599 -2.73013
1453 1 1.87935 -19.2491 -4.22231 -1.12326 -0.483413 -2.53799
1454 1 8.71002 -10.6095 -1.18677 -1.71641 5.96714 1.27059
1455 1 -13.8848 -19.0698 -4.49441 0.867309 -0.116633 -5.55589
1456 1 -15.6579 13.6109 10.3166 1.81003 2.30347 0.42806
1457 1 -19.2036 1.5901 -19.6416 -4.72113 2.75823 -1.25155
1458 1 -20.7523 12.6562 8.13568 0.664205 -2.09501 6.17382
1459 1 -10.8909 -12.1433 -5.45626 0.77616 -4.52369 1.42656
1460 1 -11.4618 7.01343 -10.7494 0.639696 0.417607 -1.44311
1461 1 -13.4692 16.0037 22.7588 -2.25473 5.52473 3.6701
1462 1 -6.57936 -17.9837 8.37401 0.645249 -2.19207 -3.36629
1463 1 7.3593 -1.45541 14.4063 -2.63822 -0.224096 6.49892
1464 1 4.29137 -18.7918 0.635393 -4.04812 3.45902 3.76563
1465 1 -20.6237 22.5795 -13.1147 2.20357 2.34503 -5.36772
1466 1 -17.4425 -6.37903 -2.41404 0.428423 2.433 -1.07171
1467 1 -23.3205 -15.6684 -17.0182 2.11037 -1.87469 0.443273
1468 1 19.2209 23.8495 16.1398 2.61012 -3.73807 -4.41707
1469 1 16.8119 12.0608 5.41602 -1.04227 2.70542 4.22062
1470 1 -4.469 -11.2935 7.09206 2.77018 -9.95401 -2.52713
1471 1 -3.72746 -4.55322 -9.91187 -3.69099 -0.650668 -2.2133
1472 1 20.8907 5.06389 14.1465 -0.237276 -6.11027 -0.31579
1473 1 14.5351 -16.742 -15.2862 2.96513 0.564488 -2.36873
1474 1 1.59007 23.4747 23.6298 0.357079 0.28865 -2.48518
1475 1 -19.9035 45.7416 -4.26734 -0.339334 -0.902092 -4.22771
1476 1 -20.6472 12.7275 -22.166 -0.0979831 -2.73287 -1.5517
1477 1 16.8427 -0.294749 0.118508 -2.09054 -1.12079 2.3895
1478 1 3.39946 3.80805 1.40281 0.66703 -0.792762 3.60132
1479 1 9.95197 -6.98191 9.54182 1.24796 2.00997 2.05083
1480 1 5.77249 14.4943 -4.81988 -3.59232 0.497163 -0.741294
1481 1 -6.04707 13.9866 -0.511364 -0.886688 -1.10355 0.166316
1482 1 5.73067 21.0336 -18.4707 0.845277 -1.34871 2.93712
1483 1 10.2495 -22.882 -20.3068 -2.10318 1.26391 -0.633894
1484 1 -7.88797 10.3068 4.72196 -0.542366 -2.0412 -3.4085
1485 1 8.7425 -10.5928 -23.0904 1.18576 -0.488226 -0.195651
1486 1 -18.2603 -8.22481 14.3499 -1.66814 -2.85702 0.490012
1487 1 -1.93258 3.09053 -17.2499 2.34659 1.15798 4.64143
1488 1 -17.3914 -19.1879 11.9677 -7.41575 -0.124445 -3.33281
1489 1 -22.4296 14.0929 -1.15728 1.73732 4.12546 -5.34228
1490 1 -23.0146 4.85752 -3.9608 1.94518 0.165466 0.12811
1491 1 11.7998 8.60814 -8.5001 0.571646 4.41207 -2.60137
1492 1 -13.0073 10.938 13.9217 -1.60973 -5.44949 -2.22152
1493 1 -4.05821 -3.76607 -17.8902 -2.73649 -5.20262 -4.35467
1494 1 -8.42079 8.4446 -21.9111 -0.874407 -0.542346 3.40012
1495 1 -16.8923 -9.8865 20.5422 0.663201 0.328671 -0.331284
1496 1 -3.97752 10.8043 -8.43786 6.62174 0.508086 -0.218307
1497 1 14.4286 -6.82553 -18.4397 -4.99173 -5.32492 6.20566
1498 1 -10.3309 2.07074 13.8346 -0.839756 -1.94609 2.56091
1499 1 19.1307 1.45321 20.8125 -2.17043 -1.62746 -1.23812
1500 1 -20.6797 15.6317 16.8096 -0.617864 2.30198 1.43599
1501 1 10.4811 15.5571 -15.9219 1.24988 -1.10791 -2.64342
1502 1 -21.3367 -8.25238 -6.06597 -2.95907 2.59786 2.34228
1503 1 9.37539 23.3571 -21.7033 3.61543 -6.42362 3.51887
1504 1 -2.63831 -23.3482 -4.89489 2.15062 -0.0146886 1.28371
1505 1 19.3357 46.9218 -21.0972 2.27378 3.42005 -7.32907
1506 1 14.3813 12.1802 -1.29701 0.523684 -0.495652 -3.2418
1507 1 -22.3563 18.0353 -5.64288 -1.21474 -2.04638 -3.90286
1508 1 20.1846 -12.4602 -5.20765 -4.84406 3.89872 -0.868084
1509 1 12.0314 21.8117 -7.73009 -1.46704 -3.72802 0.130782
1510 1 -17.2818 -12.7107 0.418159 -5.31445 5.1234 -0.85768
1511 1 -21.9981 -8.45682 13.4889 -0.695089 2.50368 -0.945989
1512 1 -12.0393 -12.199 1.91589 -1.10923 1.47099 -0.250161
1513 1 -20.8989 3.52382 17.4279 2.37091 4.4058 -0.290089
1514 1 -13.2297 -7.30172 -5.68315 -2.27876 5.44261 3.68467
1515 1 -8.05596 -20.8465 21.1497 -6.3002 4.50906 -1.95352
1516 1 -8.85614 25.0137 23.469 4.76814 -0.832401 -0.465023
1517 1 -23.9943 -15.4621 -8.60132 1.87664 2.82087 1.58682
1518 1 -3.33217 12.0787 -22.2223 -3.56233 -2.23405 3.36191
1519 1 -11.7531 -17.0793 -0.793957 0.0198005 -1.83206 -1.4757
1520 1 12.1657 3.93576 -14.2279 -0.951525 3.0817 -6.4033
1521 1 -9.46472 -12.055 17.0528 -2.83862 -2.44817 -0.41505
1522 1 -12.0162 0.943082 -14.9332 -1.54228 1.54179 -1.01524
1523 1 -9.65485 8.86316 11.8867 -0.0488993 2.73834 6.74822
1524 1 3.559 -18.7127 4.80199 -4.81805 -1.38195 0.722283
1525 1 -8.21072 -7.2911 -2.435 2.3713 -1.23926 2.12433
1526 1 17.7347 22.3943 0.0373519 -2.57299 -0.78397 3.85549
1527 1 3.63041 -1.66418 -8.58165 1.26575 1.21751 -0.339875
1528 1 8.18119 11.248 18.2354 0.977328 1.90576 -1.26271
1529 1 -6.44679 1.24558 11.0576 7.55946 -2.60233 -0.312047
1530 1 15.6757 16.5772 4.99797 -0.790269 2.09254 -1.66485
1531 1 5.81091 -7.63115 11.7301 -4.77092 2.67041 -5.23182
1532 1 20.8347 -2.65515 -13.8045 -0.26971 1.85446 -2.71287
1533 1 11.5164 23.7567 12.3366 -1.73225 -2.30005 4.82749
1534 1 -18.6558 -5.34576 11.1027 5.38271 -3.28707 0.74544
1535 1 1.14997 -6.97124 14.7926 1.67343 1.02202 1.55298
1536 1 -6.05852 1.39234 23.0063 3.28136 -5.47983 4.6736
1537 1 -2.40033 25.6066 -18.2401 -1.79458 -4.26419 -0.628727
1538 1 6.79232 15.8849 18.2643 -0.0706614 3.91791 -0.415088
1539 1 3.2829 7.02572 -17.6246 -3.09562 -2.55845 -1.50659
1540 1 -22.6925 5.67434 -23.0851 -0.58829 2.51458 2.13201
1541 1 6.84849 -18.479 -4.8869 1.6451 -2.75123 -0.81327
1542 1 -20.9043 -6.06765 17.5896 1.17476 0.525686 -2.44669
1543 1 0.264414 -2.0134 12.7179 0.116108 -5.41056 -2.73841
1544 1 -5.66715 22.5784 -19.1243 1.42689 -5.54289 1.25784
1545 1 -9.43436 -15.3695 14.1153 -0.606999 -1.71635 3.75221
1546 1 -14.6446 -11.3542 19.3746 -1.15996 -3.57261 -4.0065
1547 1 10.1457 1.28912 0.888219 0.288569 0.258949 -6.12695
1548 1 16.1061 46.1961 -6.29546 2.70803 2.29346 -1.52186
1549 1 0.115153 -3.82876 -14.7876 3.77949 0.928974 0.0475488
1550 1 -3.7076 -9.1764 -11.3031 -0.357347 -3.11166 1.96529
1551 1 11.4305 -1.20786 -5.50529 -0.438853 -0.804308 -7.2677
1552 1 19.2811 10.7475 -17.6978 -2.10398 5.65923 -3.41897
1553 1 -9.24558 21.5692 -15.3324 -3.02372 2.54796 -0.862049
1554 1 -7.25178 -6.22039 -22.1142 1.16836 -5.45968 -0.227803
1555 1 -21.7849 -6.51622 -3.8517 0.318327 -6.36328 3.17218
1556 1 19.9164 -20.5405 -9.80222 -4.56902 4.95625 -0.312823
1557 1 9.30662 -24.2661 -18.0473 -3.79563 0.256726 4.10217
1558 1 10.1049 -13.8129 -0.00181378 3.21961 -3.78397 -2.5406
1559 1 19.7318 17.2528 1.62405 -1.23908 -6.37099 1.85712
1560 1 -18.3624 -20.4387 17.1759 -3.27678 2.43313 -3.72548
1561 1 21.2617 20.1041 -7.20873 1.83715 -4.98324 2.75139
1562 1 -0.348564 -5.75846 -3.59486 2.15093 0.399881 0.891531
1563 1 -3.79533 -4.92536 11.0295 8.68278 3.77547 -3.34455
1564 1 10.8847 12.6488 -7.80073 -1.37895 -0.868594 10.5442
1565 1 -5.65091 16.4323 -9.96688 0.56892 1.05186 -3.89499
1566 1 3.84077 -4.59714 8.12905 -2.43911 2.12771 3.1521
1567 1 -0.852513 -8.49419 -19.898 -1.32684 -2.30721 -5.11567
1568 1 18.6628 24.2137 -9.75661 0.444621 0.827754 2.08297
1569 1 7.82184 16.2503 6.82795 -0.275844 0.141226 2.12601
1570 1 -20.9522 1.77353 -10.7289 0.740295 2.00399 -3.28073
1571 1 -2.0237 -8.90124 -2.20835 1.83994 2.17334 3.36794
1572 1 -0.891547 -16.569 13.4528 0.701984 -1.23492 2.14504
1573 1 -9.99844 -12.7343 19.9649 1.54935 -0.135634 3.21807
1574 1 17.9805 -15.7214 5.22922 -0.861745 -2.23486 2.22842
1575 1 -17.888 15.0645 5.18458 -2.09082 1.48051 0.0485776
1576 1 12.823 21.3729 -19.4474 2.99191 0.789261 -7.7878
1577 1 15.7402 -20.4436 3.72687 0.411411 3.79279 -4.8173
1578 1 14.9685 -1.00509 -12.7178 3.61077 0.922261 -1.57429
1579 1 -4.24511 13.2244 -6.85242 1.81005 0.237096 -0.479751
1580 1 -18.0708 -20.7352 -7.5948 -2.71608 -0.211484 -4.88984
1581 1 -5.39633 -7.08655 9.78937 -1.56897 0.607643 1.52344
1582 1 -13.1121 4.55223 -2.89794 1.16548 -0.104762 -0.823091
1583 1 12.3511 -3.67433 -4.4007 -4.25179 -4.26395 -3.41876
1584 1 -8.49044 -2.83929 13.4664 -2.16983 -0.127432 -1.40155
1585 1 -7.21713 -13.0426 21.1281 -1.85367 -2.35194 -1.19901
1586 1 -19.6478 -22.6873 -0.297981 2.31189 -2.50267 4.17425
1587 1 20.2406 -4.62673 -7.23572 -2.25356 -0.347654 -1.78207
1588 1 3.77941 16.8398 -18.8752 1.60896 -1.40621 -3.52549
1589 1 -10.4069 -21.6249 -3.31434 1.61149 1.79197 2.56603
1590 1 22.8563 9.68495 -14.8155 -0.546708 2.02776 1.84714
1591 1 12.3926 11.26 0.914647 -1.84028 2.56021 -2.59883
1592 1 17.4931 8.37189 14.8293 -2.26703 1.80583 -5.3015
1593 1 2.65365 24.4259 -17.5571 2.37855 1.49681 1.13834
1594 1 6.95995 9.71428 -2.17522 2.98623 0.842653 -1.05392
1595 1 5.99673 18.4256 0.719554 -1.96104 1.28384 0.947665
1596 1 -6.69875 0.404516 -19.509 -0.492235 1.17925 -4.02884
1597 1 17.3819 -23.8106 7.56521 -1.87724 7.75127 -0.0367687
1598 1 -1.75842 14.311 3.46887 -3.50345 4.50386 3.68122
1599 1 -20.8562 -1.56894 11.4734 0.468538 1.75984 0.830706
1600 1 17.9119 -13.9564 -14.992 1.77866 3.49 -4.21941
1601 1 8.28171 16.2092 -17.8875 -1.94918 -2.02965 1.67919
1602 1 -18.9461 -13.8273 -19.649 2.25463 0.455463 -2.15625
1603 1 6.13596 -7.82091 -12.8829 4.19036 -2.08869 -1.13395
1604 1 21.5568 -15.5052 -16.1867 4.76546 -1.7746 2.45905
1605 1 -1.38392 -1.47004 -13.706 5.95168 -6.11511 -3.1841
1606 1 -18.4088 17.4398 3.39352 0.192772 5.02495 8.855
1607 1 14.134 -23.6942 -15.6604 -6.15777 -1.76919 4.7183
1608 1 -24.156 4.10131 10.1218 3.72704 -3.081 -3.35912
1609 1 -22.8452 15.8033 -19.5707 -0.657814 2.32646 -2.64789
1610 1 -12.0341 20.9893 -14.7866 1.042 -2.85104 0.0385286
1611 1 3.3839 11.5134 -1.98724 -0.236176 -0.170186 0.0933498
1612 1 -22.5271 -16.7764 16.1586 0.0683472 2.80083 -1.43211
1613 1 0.736133 -16.3508 1.45304 -0.774827 -2.25042 2.19862
1614 1 -14.6427 -13.2717 1.70493 1.9426 3.50626 -0.618866
1615 1 -4.93848 -16.3277 -11.3244 -2.43137 0.00636727 3.22956
1616 1 13.8414 -10.5119 -16.5349 -1.62926 4.89405 1.51972
1617 1 -17.1567 -15.9229 -12.2315 -4.16777 -2.52509 1.86563
1618 1 10.2278 15.9458 16.7443 2.09172 0.398085 -4.3572
1619 1 16.2935 13.9206 16.8214 2.39268 -1.24669 -0.170065
1620 1 10.1674 -8.80359 -4.33516 0.4523 -2.64326 -3.77857
1621 1 -18.7077 5.275 14.2555 -0.752668 7.49923 -1.84152
1622 1 -15.0044 24.6965 16.7293 1.33657 0.205308 -3.03619
1623 1 -10.508 -16.6152 17.5887 -2.22879 -1.9355 1.10929
1624 1 6.72089 16.6598 -21.6197 -2.79093 -0.247966 -1.83055
1625 1 13.2418 14.8248 -10.9579 2.56184 3.58613 -2.32135
1626 1 18.2035 -1.51112 19.9435 -2.88564 -2.38315 3.40858
1627 1 20.2743 -7.70384 -21.4527 1.8842 2.05714 0.884682
1628 1 19.0607 3.28069 2.97222 -2.49678 0.451045 3.14867
1629 1 -5.68745 -21.8303 15.2987 -4.40491 1.88173 0.401258
1630 1 11.727 -8.52671 20.7784 -0.550107 -3.98649 -0.042516
1631 1 22.9902 -21.6836 8.68731 4.57775 -1.72551 2.53266
1632 1 -5.63724 7.01157 -20.9991 -0.633892 0.864613 -0.0653258
1633 1 18.9683 20.7107 23.7723 2.26053 2.3995 -2.14008
1634 1 -20.3494 -9.86017 -23.0513 -2.1298 3.62005 -2.25278
1635 1 6.01007 -18.0308 -13.1287 3.83253 0.439434 -3.31894
1636 1 20.1035 -9.5539 16.8377 0.225661 0.82637 -2.33616
1637 1 -2.90535 22.9828 -5.73813 4.31889 3.29829 1.6048
1638 1 12.8989 -3.68782 -19.3238 2.51818 -1.667 1.03142
1639 1 12.5851 13.6432 18.1851 -2.51857 1.3135 -4.28678
1640 1 -18.651 -21.8229 -11.8421 0.341023 0.431793 -4.06224
1641 1 22.4539 -15.0799 20.5373 4.42982 0.623504 -2.3366
1642 1 -1.71905 21.0227 6.53313 -3.50944 -7.50831 3.34953
1643 1 -5.37213 24.4813 -11.776 3.99642 1.0832 -0.0501762
1644 1 -17.2768 -0.359898 9.17032 2.87349 0.129959 -2.05602
1645 1 -4.59908 -6.26443 -4.61809 -0.164466 -3.93061 -4.16421
1646 1 23.363 -6.92376 -15.0961 -1.51623 3.23604 4.20953
1647 1 19.5046 12.1425 -20.3711 1.28334 -0.0475746 -4.54542
1648 1 -20.8804 -15.4636 22.5753 -1.66429 6.29484 2.38372
1649 1 -16.9357 -4.00073 -11.2271 -3.71654 4.14846 -1.37819
1650 1 8.50174 -2.05972 -14.7853 -1.71201 2.86258 -1.12031
1651 1 15.1902 -14.7723 -1.19538 -2.88344 -1.69223 -7.16019
1652 1 12.001 7.63449 -20.4741 -0.812359 2.13572 1.6781
1653 1 10.6692 -20.6071 2.42214 -5.80562 2.6716 1.09537
1654 1 6.14903 -17.1731 11.9132 2.06405 0.965342 1.24172
1655 1 -3.36987 15.5763 12.7814 -3.81025 0.849565 -3.70862
1656 1 -4.30989 12.1683 15.2981 2.41033 3.52292 0.23266
1657 1 16.4046 8.55816 -15.7298 1.88779 1.17459 2.1472
1658 1 -18.0761 18.324 8.4105 -5.07061 1.85042 -0.38722
1659 1 -5.14377 -23.1802 7.22354 3.85062 0.202338 3.30882
1660 1 1.79242 -9.38877 -20.82 1.51301 -3.87095 0.878247
1661 1 -22.8715 1.7104 17.5148 -5 -0.106066 2.70415
1662 1 -8.45114 -18.9931 -8.74285 -4.17489 -0.949683 -4.13146
1663 1 -15.4489 -2.87738 -0.940248 4.83507 -3.07982 -3.4339
1664 1 0.650186 -13.7497 -15.0151 3.44433 5.54966 -0.0350246
1665 1 -2.4173 9.20442 19.4482 1.14044 -0.751907 1.03166
1666 1 18.3587 -8.7807 -16.5146 -0.399717 -3.17224 -4.98839
1667 1 -15.0403 -0.244984 7.25627 -5.08427 4.07438 -2.5165
1668 1 -12.4739 19.0695 7.53547 1.43476 -3.46886 -2.59142
1669 1 17.5106 45.7575 -12.6503 -0.243473 2.22271 -1.27132
1670 1 2.37848 15.6741 -0.0256117 0.171015 -4.11468 -1.03799
1671 1 -14.5174 8.84518 20.1159 3.39424 -2.97867 5.86028
1672 1 2.65244 12.004 -23.7038 -1.8353 2.45898 0.64302
1673 1 3.26168 -16.9914 2.4063 2.86413 -1.58543 2.622
1674 1 4.04933 -5.62562 -7.34933 2.23889 2.30794 -1.7468
1675 1 1.37561 7.55523 19.6914 2.91586 4.01029 6.56275
1676 1 -17.5468 -1.68446 -4.78331 1.49236 0.297296 2.91963
1677 1 23.1379 -18.8526 12.0606 -5.66026 -3.43046 2.16886
1678 1 5.43907 23.8559 -17.1681 -3.65713 -0.0676288 0.552561
1679 1 -12.4804 24.5708 20.6628 2.90457 0.669286 -0.204064
1680 1 -19.7208 -21.0046 -21.1992 -1.4794 1.51451 4.94189
1681 1 -18.9133 -8.82843 -19.9551 -0.741556 3.28948 2.28621
1682 1 3.54836 9.47198 0.348565 -1.99565 0.114593 4.60189
1683 1 15.2757 24.4812 -17.1493 0.851725 4.83548 -2.48523
1684 1 6.71049 15.491 15.5945 -2.63734 1.00925 0.855939
1685 1 -21.5665 16.2685 -22.3768 -1.32532 -2.98986 -1.35044
1686 1 8.96903 -12.3033 21.5055 -3.95427 -1.30307 -0.668041
1687 1 22.8445 -19.5439 -14.0742 2.67455 0.479376 0.0157627
1688 1 -15.4429 -1.37703 -11.5298 0.23168 -1.12078 0.248818
1689 1 3.10851 -23.342 -1.62284 1.10849 -0.90019 3.40103
1690 1 -6.69986 -22.8556 11.8284 0.498806 0.84786 -0.13131
1691 1 -19.1054 -12.5567 7.44351 -0.172743 1.7015 1.41506
1692 1 -1.70111 17.951 -6.96814 -5.0901 -2.92253 -1.55955
1693 1 18.4878 8.98839 22.2535 -0.224938 -1.0017 -2.88474
1694 1 -15.7544 4.58803 -15.7495 1.07105 -1.07367 -0.395449
1695 1 18.3424 45.3527 -10.0775 -2.50065 -0.700977 3.3236
1696 1 12.048 -2.41555 1.83351 0.9177 6.91208 -1.59363
1697 1 -12.3044 -23.3007 5.95957 -2.15153 -3.15941 -0.987505
1698 1 -12.153 11.2156 -1.07662 1.63681 3.3733 0.0942151
1699 1 12.4807 0.898879 16.4179 -1.29196 3.24355 -2.93654
1700 1 13.0201 0.996295 -13.8663 0.762056 1.62837 2.67223
1701 1 12.8777 25.7629 -3.5312 0.887321 1.43794 -0.487602
1702 1 0.216421 -21.1369 13.5044 1.02238 -4.75088 -0.127294
1703 1 2.00495 2.46476 -13.8452 2.64854 -1.82003 1.38581
1704 1 -8.80751 -13.6334 6.99694 -2.47433 -2.91311 -2.64245
1705 1 -2.43595 26.2207 19.542 2.69319 -0.768801 2.20252
1706 1 8.08513 7.91894 -16.7851 1.67619 -5.64878 2.4154
1707 1 -12.5689 -13.3981 19.0826 0.725774 2.06454 4.85403
1708 1 -8.48535 23.8488 15.1984 -3.00382 3.07358 -0.202056
1709 1 17.5057 20.6515 -3.6877 0.957367 1.37154 -4.52523
1710 1 -8.82145 -21.4175 -13.6172 -3.96141 3.74911 -1.10404
1711 1 -1.52665 7.66569 1.84756 -0.430758 1.31941 -0.403773
1712 1 12.2829 14.7128 -21.84 -1.68659 1.39642 -5.29018
1713 1 23.2655 16.6125 10.8665 -0.632916 -0.757979 -0.500005
1714 1 6.9191 -3.82592 -12.7642 -2.54962 2.06926 1.7976
1715 1 12.611 27.1342 15.2296 0.651414 -4.04148 -1.53994
1716 1 12.3059 45.7386 -23.7409 0.530074 -1.85797 1.9716
1717 1 10.9098 -13.7138 -3.64307 2.21332 -1.67558 0.403675
1718 1 5.72275 -22.3192 -13.7111 0.425836 -3.58706 -2.76215
1719 1 20.5344 8.45275 0.578723 2.30963 -0.5297 -0.211946
1720 1 -2.53016 -22.7691 8.48118 -0.392437 0.550514 3.17917
1721 1 5.11657 2.51933 11.1823 0.0659129 -1.93122 -1.10643
1722 1 19.2458 -22.3495 16.9762 0.122812 0.858255 7.36868
1723 1 -22.9877 16.9545 1.95508 1.19938 3.71982 1.92693
1724 1 -17.2073 -21.7792 -4.95677 -3.21702 2.48374 3.12077
1725 1 -14.9737 7.18899 -18.2683 0.437757 0.144063 0.0766774
1726 1 15.3856 23.6958 22.8239 -4.44532 1.70153 0.317344
1727 1 23.0538 -2.19396 -17.6939 1.63228 0.573427 0.775341
1728 1 -23.0073 -5.54161 -20.244 4.68495 -0.89323 6.85858
1729 1 -15.1448 7.02127 12.7824 -2.9672 -3.56649 -1.19966
1730 1 -5.15233 -8.16481 -22.6736 3.52708 -3.45719 1.05565
1731 1 18.5075 5.54112 -3.62838 0.35817 -1.34411 -1.07057
1732 1 18.6219 -12.9648 4.77087 1.24394 -2.7814 2.76801
1733 1 -11.9443 -18.37 8.17154 2.02882 5.90202 0.860314
1734 1 -6.5524 25.1578 -22.9233 -4.61338 1.65043 -1.10591
1735 1 0.997671 21.9531 -17.3913 -6.98129 -4.07289 4.29759
1736 1 18.7893 3.95036 12.6592 0.792094 -3.68859 2.50999
1737 1 -17.0149 -0.828848 -7.45286 4.56554 -2.38271 -0.932941
1738 1 5.70045 14.1099 22.5069 -0.128329 -1.86014 -1.58116
1739 1 -9.19343 -19.0363 17.1223 0.312251 0.680206 2.55341
1740 1 2.75665 23.653 17.2267 -1.18947 -2.09852 -3.48503
1741 1 8.25857 14.4308 20.3124 4.98993 0.216919 -1.54968
1742 1 -1.79351 -5.18817 17.4466 0.271933 -0.303426 2.46369
1743 1 20.4207 -13.8385 9.68779 4.06183 2.40125 -2.58736
1744 1 15.0401 26.3912 -8.13221 6.24355 0.627639 2.66154
1745 1 10.0347 15.3314 -6.59353 3.60061 0.770637 0.647337
1746 1 16.739 25.0117 -12.8523 1.22009 4.41954 -2.3928
1747 1 4.90822 -15.6903 -7.89152 1.86742 2.22393 2.80143
1748 1 13.3065 -1.83029 -2.41213 2.91642 2.61971 -0.949582
1749 1 22.7189 11.9373 15.0196 -3.49932 -1.34168 0.573666
1750 1 15.3427 20.9449 12.228 0.408988 0.317714 0.823865
1751 1 2.12191 -9.30517 13.1157 0.178936 -1.01199 0.106669
1752 1 22.6467 17.5631 -20.2243 -1.89475 -0.102596 -2.59418
1753 1 -22.9857 -17.7171 -22.2179 0.916215 0.0699778 1.47193
1754 1 21.9637 10.7925 -20.5331 4.44015 -1.24836 -3.47874
1755 1 -9.4449 -1.50213 -9.15847 -0.10064 -4.40594 0.593439
1756 1 -13.3198 4.09279 9.35538 -0.098703 3.19464 4.96005
1757 1 16.7771 -16.0774 -7.49388 -5.0822 1.99759 2.08947
1758 1 19.3477 -23.3969 5.52457 4.95821 2.87993 -2.29591
1759 1 19.2331 8.63197 12.21 3.49983 -3.87627 0.0821735
1760 1 -17.9785 -14.7727 -22.0494 -1.70708 4.04217 1.54759
1761 1 20.546 -19.2574 -21.9831 -4.72648 2.0205 5.16833
1762 1 1.63364 18.3668 3.03226 -1.33046 -2.71124 -2.32064
1763 1 -0.284587 5.6364 12.8742 1.2819 -5.76378 -0.323673
1764 1 -14.3014 17.8633 -12.7036 2.44507 -8.3594 -3.10782
1765 1 4.08044 -18.6727 -2.16286 3.33415 -0.376996 1.88486
1766 1 -18.4516 2.85073 19.1074 -1.25941 -2.94863 -0.689619
1767 1 10.2661 26.0164 18.6936 0.776576 -1.30829 2.24956
1768 1 11.8978 -2.84106 8.34665 -2.05316 -1.06388 -3.21353
1769 1 -22.043 17.9977 16.1684 -1.10771 1.58083 -2.06759
1770 1 -10.7419 -4.42457 17.2932 -1.50892 5.36001 -3.16261
1771 1 -1.28437 23.2307 10.8758 4.87993 -3.21909 3.41009
1772 1 12.6143 -22.4455 1.51371 -1.09601 -3.08664 0.166208
1773 1 14.5514 13.7663 5.13369 -0.656698 1.12383 -0.735023
1774 1 17.9041 -20.1267 22.1695 1.25783 -3.13969 -0.0767774
1775 1 10.8446 13.4163 -10.6106 -0.389812 -2.23636 -3.03834
1776 1 11.9171 13.4699 -4.01703 8.80028 -0.689788 -1.35341
1777 1 -22.4143 -12.3863 15.8306 -3.33228 -2.50538 -0.218058
1778 1 -16.5031 -6.95983 -11.3099 -2.21286 1.12561 -0.0731132
1779 1 9.21895 5.83624 -9.65008 -0.651518 -1.89107 2.54666
1780 1 6.35889 2.97969 -6.54051 -0.33 3.6764 2.93465
1781 1 7.04039 19.6768 -21.5524 -0.252371 -5.92596 2.31516
1782 1 -22.7294 -13.0012 -10.7916 -0.486313 6.50121 -4.72999
1783 1 15.6769 4.57339 -6.03251 5.24112 0.574477 -0.821116
1784 1 -11.0589 15.9842 13.0745 -1.58659 -4.04229 -3.51055
1785 1 -6.40214 6.67732 -10.0017 -1.38329 -2.11619 -0.982143
1786 1 -3.00048 0.640348 -3.60388 -2.36552 6.935 5.8755
1787 1 7.87597 18.0721 -11.7546 3.7277 -1.13675 1.92157
1788 1 -14.1118 -17.8288 15.8363 -2.21785 -3.144 -0.800505
1789 1 21.2555 0.370276 -8.30892 0.136809 1.44148 -0.162761
1790 1 9.6493 5.21328 -13.7062 1.52327 -2.7019 3.91672
1791 1 0.912423 -6.55268 -14.0329 -0.300989 0.699118 1.47628
1792 1 -14.0329 6.03272 7.32016 1.91351 -0.641251 3.26418
1793 1 17.8583 7.79515 -22.9607 -1.74998 -1.05186 0.708545
1794 1 16.7961 4.56708 -19.4098 0.562101 -1.24058 -0.832199
1795 1 16.3271 -0.467297 -15.0529 0.617128 0.679446 -4.00435
1796 1 -21.8973 -11.641 -21.6207 -2.04821 0.700768 -2.78116
1797 1 1.80706 16.5715 19.4779 -0.622377 0.408615 -2.52981
1798 1 19.832 -6.02413 -16.0219 -3.51451 1.70678 1.49478
1799 1 -11.9387 11.0752 -13.4915 4.73989 -5.47073 -0.974635
1800 1 1.31038 1.41367 8.0567 -1.09395 -2.42032 1.12724
1801 1 -10.1197 -19.0727 -4.74686 -2.61362 -0.330017 -3.70275
1802 1 -19.248 -19.5541 -9.92601 -1.04733 -1.13547 -1.52443
1803 1 -14.6103 13.3431 -9.00415 -5.64184 -4.11624 1.60327
1804 1 -2.59089 46.6165 -12.5042 -0.0903371 3.86813 -1.60192
1805 1 11.9677 2.66207 -7.15233 4.84739 0.381654 4.14437
1806 1 10.9372 -3.00675 16.4147 2.02054 0.927396 -2.14091
1807 1 -15.995 -8.84883 23.1535 2.47291 -0.237365 -2.81206
1808 1 18.7073 -11.7471 17.8088 1.78233 1.50553 2.03226
1809 1 9.24146 19.7836 -1.56353 1.14072 0.0946549 4.21908
1810 1 13.2563 -23.9986 -7.03725 -3.15347 1.74798 -1.94339
1811 1 -1.19527 2.82391 20.6739 -0.128113 0.831893 0.75877
1812 1 -11.6444 -0.947151 -23.3696 6.4383 1.22588 -0.122964
1813 1 -16.7743 10.3766 17.1774 -0.554011 0.114026 -1.53901
1814 1 13.3034 5.25267 -12.0325 0.67431 1.99401 -2.70568
1815 1 11.4708 -5.58921 23.324 1.90557 2.85257 -0.0506488
1816 1 -0.273112 16.2155 -11.1906 -1.70039 2.68229 0.78174
1817 1 -1.7026 20.8502 -17.2212 0.822208 -2.80745 1.19441
1818 1 23.3701 -9.20262 7.99765 1.35916 -2.79361 -5.30604
1819 1 -12.8077 -13.3019 22.0824 -8.3432 -0.205341 0.562453
1820 1 15.7591 11.3195 -13.2805 -0.544558 -0.0909599 -5.26245
1821 1 19.7892 21.4638 9.46475 -5.42802 4.80266 -2.77017
1822 1 14.3214 -2.96349 0.166974 -2.60866 1.17286 -2.76433
1823 1 8.81639 45.8703 13.328 5.7718 1.91023 -1.99603
1824 1 -17.3834 -20.3967 7.14335 -2.32107 1.61125 -3.67067
1825 1 6.86806 -10.8619 -6.63509 0.0657326 -0.453887 1.24269
1826 1 18.2787 9.37085 2.16234 -0.350079 2.37353 -2.55779
1827 1 17.3867 -23.0424 -4.50485 -2.17512 3.68119 0.0962972
1828 1 -14.0789 -22.2148 -21.6721 -1.64391 -0.0921343 -4.12263
1829 1 0.26212 18.9163 8.93955 0.28637 2.2591 6.06983
1830 1 -18.5689 4.61987 -16.0348 -3.86209 -1.81537 -3.68858
1831 1 13.3603 -11.7031 -5.86525 -1.72809 2.78663 -3.70387
1832 1 -22.1798 -13.045 23.8205 -0.51175 -0.0550785 2.00361
1833 1 -9.21218 3.27692 16.5564 -0.751499 0.320423 -7.40174
1834 1 7.69367 -7.43039 -19.6288 -4.98234 5.34335 7.53463
1835 1 5.20225 26.913 17.7579 -0.610518 -5.01873 1.3014
1836 1 -11.7167 -23.3329 -18.6548 1.26173 1.14211 -0.608668
1837 1 14.8722 -19.6514 8.79334 1.62426 -0.655604 -0.0506269
1838 1 18.4072 19.8614 1.22999 -1.67987 -2.32187 -2.95561
1839 1 18.9543 22.9817 5.31843 -2.57822 0.478629 -1.83651
1840 1 -22.9195 -11.2312 2.86771 -1.46937 5.92325 -0.78648
1841 1 8.40026 -23.4247 -10.452 -0.18406 -3.29368 4.51275
1842 1 13.2463 -19.0961 2.91581 0.522232 -1.23424 -7.95795
1843 1 9.27231 -4.8925 -20.0237 4.1135 0.678866 -2.64913
1844 1 -3.16243 -1.75725 6.31225 -2.01319 -0.846395 -1.85818
1845 1 19.2911 24.9844 22.6131 -1.12598 0.701241 4.63217
1846 1 9.93139 -20.8157 5.03828 0.975317 -1.79002 4.29879
1847 1 18.6993 -14.5274 17.6954 3.08274 -2.01035 -2.096
1848 1 6.77053 5.33858 -17.1933 -1.33211 -5.27536 -1.52002
1849 1 15.2828 -23.7547 -11.8221 1.73599 -1.01722 2.31884
1850 1 17.084 -21.1013 -8.79761 -4.05504 2.05202 0.893653
1851 1 -8.24859 6.08109 -1.42931 -2.96764 3.2823 3.775
1852 1 -0.155384 2.12998 -20.2174 4.19195 2.43452 0.100796
1853 1 5.90177 -10.7929 6.92878 4.73973 -1.64574 -1.68329
1854 1 7.34478 45.9589 10.9055 -1.8589 3.23612 4.06324
1855 1 0.904082 25.0845 -15.3499 1.58987 0.434679 4.64315
1856 1 6.64768 -4.65317 -18.7473 6.49457 1.73935 -0.736361
1857 1 1.01203 -21.3751 2.03617 -2.96156 -0.220104 2.68052
1858 1 1.0806 -16.4737 -12.2496 0.17121 2.39138 -0.0612378
1859 1 7.66709 -18.0988 -17.4299 0.332579 -0.21949 1.20807
1860 1 5.98101 1.92435 8.31103 1.95512 3.26451 -4.20304
1861 1 -15.4207 -21.3356 -17.0148 5.84666 -3.98869 -2.05784
1862 1 -11.7016 -3.23306 -9.70768 -1.28026 -1.33339 -0.383778
1863 1 -5.26892 -12.9399 -6.31736 1.38523 1.77553 5.79361
1864 1 -6.93155 13.1266 21.2337 -1.70391 -3.26526 0.46357
1865 1 -11.2771 -4.22303 5.17803 6.67636 -3.73512 -0.0397849
1866 1 7.18053 23.2161 13.6237 -0.513138 2.10071 -1.69693
1867 1 6.97105 -8.27271 -0.955358 -0.844912 0.905232 0.453298
1868 1 -8.58084 6.09336 16.3796 -0.277931 -2.16792 -1.4102
1869 1 -1.60915 24.7988 17.224 1.11911 7.69169 -3.24973
1870 1 -15.3797 9.66567 13.2448 -2.52385 1.00487 0.733657
1871 1 17.369 -8.96988 7.33912 1.05408 -2.50845 2.63799
1872 1 -3.33 -9.75198 -14.2478 7.57756 1.05434 -1.40522
1873 1 -10.3979 17.1009 7.80426 -0.368294 -6.21143 -0.458329
1874 1 -12.3395 -14.344 -22.968 -0.80347 4.97518 0.615507
1875 1 21.5295 -7.17238 -10.9601 1.06631 -2.02463 -0.721809
1876 1 -22.5768 8.211 -21.3219 0.611073 0.602524 6.39751
1877 1 -15.714 -7.40274 8.96138 1.50872 3.40121 -0.187062
1878 1 19.9447 23.9585 0.336153 1.93677 0.735282 3.48226
1879 1 -17.6662 -17.0086 -16.4344 0.796469 1.85373 3.52904
1880 1 -0.824292 24.6998 -20.3714 0.0219008 -0.457149 0.240895
1881 1 9.63494 3.1977 20.5143 1.31393 2.43836 1.35624
1882 1 -10.3703 10.044 18.0381 4.57234 -2.6586 -1.56066
1883 1 -5.56009 -13.5711 -3.33869 2.12315 1.43248 2.34487
1884 1 13.1105 12.9522 7.40323 -3.03628 -4.48649 -0.632334
1885 1 -9.43171 19.2272 23.0701 0.64276 0.878546 -1.71995
1886 1 20.6047 21.5034 7.00083 -0.160719 -0.190879 0.842788
1887 1 18.0737 -5.34702 14.6029 -0.0181806 2.1856 -0.931067
1888 1 -7.92684 -19.4676 -11.7697 -1.30435 -6.72855 -1.66723
1889 1 -9.6012 -1.0111 10.1223 -3.429 -3.4296 3.8631
1890 1 23.2197 9.96444 -22.9999 0.392617 -3.46165 -0.436909
1891 1 -8.45486 -14.3214 -22.3942 1.17378 1.2688 -0.231838
1892 1 -2.22462 -15.7595 -18.1281 -3.48747 -0.752637 -1.9258
1893 1 3.05757 1.22577 19.766 -1.68196 4.13737 -1.38594
1894 1 -0.203916 -18.0462 -2.8167 2.7847 -1.11684 0.380682
1895 1 -20.185 -10.4001 15.0464 1.12599 2.02099 3.35822
1896 1 14.4378 23.2976 -3.1484 5.8321 0.927218 2.26562
1897 1 -13.3117 -23.5806 -6.49045 -6.95222 0.628382 3.63655
1898 1 -22.3762 18.5857 13.335 -4.10135 0.399938 1.13266
1899 1 -6.50129 20.1087 -5.5867 0.94138 4.09394 4.46231
1900 1 -12.3806 0.625566 4.04083 -3.42545 -0.128075 5.27709
1901 1 -10.4968 -8.17794 -17.0472 -5.49172 -1.87352 1.24203
1902 1 20.2178 1.89658 -18.2166 0.122528 3.46801 3.6068
1903 1 -0.476881 -16.2205 -15.9531 -2.37142 1.08365 2.49062
1904 1 -10.3129 -20.9278 19.2483 1.91801 2.52354 0.512369
1905 1 -14.236 7.87321 -6.43807 -0.202734 -4.36457 -0.706948
1906 1 -17.6094 -22.999 10.965 -7.05144 -0.141568 -0.929711
1907 1 -19.6384 -12.6149 13.1235 -3.13108 1.29455 -6.43388
1908 1 -16.1885 -5.9914 1.66148 1.44696 -0.268255 2.04424
1909 1 8.11294 -10.636 12.7808 -4.09629 -3.86252 -0.585438
1910 1 -7.22984 -11.2803 14.2938 1.83656 1.38468 3.11426
1911 1 23.1785 -0.985825 -6.39906 -0.516727 -2.27253 1.99586
1912 1 -14.6829 3.18352 1.06116 1.33462 -0.828234 -1.98102
1913 1 -1.5838 20.0278 -0.432108 5.56191 -1.74349 -5.40497
1914 1 20.8177 6.73905 4.53799 1.73192 -6.14881 -1.71091
1915 1 18.4857 -18.96 -15.4653 -5.15155 0.182076 -4.95554
1916 1 -7.031 12.9583 5.67442 -0.627614 -3.32423 2.70744
1917 1 -24.0512 23.4546 19.1384 -3.38054 1.32092 -6.48818
1918 1 -17.5863 -0.707226 -19.787 1.06397 1.51008 -0.372431
1919 1 -19.7202 10.5015 -15.3464 4.39517 2.78168 3.76781
1920 1 21.9076 -16.3211 2.25725 -5.96049 -1.0934 5.53215
1921 1 19.0053 12.7339 -5.09666 -1.60002 2.83921 -5.48781
1922 1 5.26139 17.1382 20.1696 1.90203 1.9481 0.557248
1923 1 13.889 0.951254 -10.9657 -8.89546 -3.24002 4.73267
1924 1 -24.2263 -19.3934 -0.290969 -2.45975 -2.9388 -4.15235
1925 1 22.9249 -23.644 16.6315 -0.0479239 0.342729 -0.80822
1926 1 15.5192 -5.88451 -6.97233 -4.94311 4.3604 -1.24642
1927 1 -8.81737 -20.8 -20.8338 -4.02604 0.83728 -3.01027
1928 1 -23.1951 -3.19633 3.90835 -0.146853 0.674397 0.0753639
1929 1 6.6921 19.9992 3.04933 0.599218 2.89284 2.76776
1930 1 -6.01867 -15.2349 -17.1946 3.28624 -2.41685 -1.22279
1931 1 -9.45997 4.45421 -3.4376 -1.52226 -3.67929 -5.56058
1932 1 -2.91665 18.6029 6.41319 -2.11823 -5.81122 -1.06984
1933 1 -4.19013 19.9349 -20.0385 -1.07438 5.46795 3.65404
1934 1 0.289492 -13.3611 -2.4782 -0.046096 -1.46359 6.61648
1935 1 17.1813 -16.1298 2.55779 3.53964 -1.69601 0.113424
1936 1 19.429 -23.9007 19.4697 0.570661 2.91775 -0.346467
1937 1 2.64464 3.62961 18.029 -2.19837 -4.99911 0.665711
1938 1 -1.35888 6.28414 16.8974 0.108374 0.515815 -5.50295
1939 1 8.11227 11.416 0.944861 2.29579 -5.83586 1.73325
1940 1 -19.017 46.7559 5.30365 0.697831 -3.44629 1.36944
1941 1 -0.67648 -23.6117 -10.4646 -5.13863 3.5756 2.24837
1942 1 -2.65 11.7048 -5.17567 2.25762 -2.94277 1.89143
1943 1 5.05288 17.1413 -6.09435 2.60993 -1.02569 -1.82933
1944 1 -21.0583 -23.7519 -2.296 -0.0779921 -4.17369 -2.47347
1945 1 -21.1704 -20.9223 21.4133 -7.17424 -6.30299 -0.0278639
1946 1 9.01853 8.69959 -7.53124 -2.78073 2.50628 -1.68679
1947 1 -16.9233 12.7068 -15.1407 -1.51355 -1.49972 -3.56202
1948 1 15.4085 4.94373 -15.526 -0.498017 1.00473 -3.08868
1949 1 -8.57499 -6.79286 -11.0758 -0.485873 3.69619 3.95186
1950 1 -22.6984 18.9651 -2.99384 -1.41067 0.234209 -1.73511
1951 1 -6.5691 -15.897 13.345 -0.0967163 -0.117781 0.0229128
1952 1 7.72116 -16.4377 -14.8837 0.951923 0.69521 -5.64867
1953 1 17.0093 -17.9782 -2.58035 4.14306 3.51486 0.954102
1954 1 5.04617 7.97604 11.3217 -1.58035 0.482159 1.97635
1955 1 -13.9283 -18.612 22.8323 -3.73506 0.091132 0.173654
1956 1 -6.52205 0.186383 3.08084 2.19746 5.25592 -4.08051
1957 1 13.6741 17.8671 9.02233 -4.00442 1.676 5.19054
1958 1 15.7972 8.26948 17.118 -3.99496 0.89338 2.06595
1959 1 20.9772 -4.80908 -2.53585 3.19891 0.440443 -1.83723
1960 1 -17.5015 -5.0087 -21.5025 -2.71421 1.43508 0.694366
1961 1 15.582 -13.5492 -6.1488 2.66584 2.62135 -3.32221
1962 1 -0.8255 -11.7321 -6.36664 0.441263 2.38763 2.84768
1963 1 -1.37276 16.7283 0.219277 4.68722 2.18851 1.6981
1964 1 20.1602 25.5641 -14.9455 1.37104 5.22118 -1.19549
1965 1 17.6056 -6.65266 20.9816 0.848396 1.87606 0.775849
1966 1 -21.7662 -18.3143 -9.42757 -3.0452 -1.42733 0.907578
1967 1 -13.3358 -23.7422 17.3779 1.19852 -0.271528 -1.55175
1968 1 -22.9319 13.3039 11.417 -0.963295 1.07546 2.56563
1969 1 -1.76457 -9.29316 10.2766 3.49491 -0.559033 -3.7212
1970 1 20.2388 -7.45765 -0.193904 -7.178 -4.39385 1.81032
1971 1 22.9968 -4.87478 5.63139 2.42156 2.01724 -2.24976
1972 1 -2.43291 -7.87265 3.93603 -1.83346 -2.72731 -1.29592
1973 1 13.0866 -16.294 21.5156 1.5082 -2.83754 -0.115885
1974 1 15.7956 -8.45908 11.117 -2.81578 -0.838858 0.259482
1975 1 11.058 -20.9986 -17.941 2.34526 -2.39944 -2.04316
1976 1 20.03 -12.2925 -21.9187 -0.77313 5.97934 2.54272
1977 1 15.019 -10.8241 13.9766 -1.11168 2.24917 -0.269144
1978 1 2.49455 -1.15397 21.4019 1.28935 -4.01042 2.19645
1979 1 -1.79106 25.2285 12.828 -3.1829 3.89191 1.69989
1980 1 -22.3512 6.80184 -18.7671 4.04921 -3.78417 -2.06132
1981 1 17.166 26.0029 -3.40503 -2.37772 -5.73347 -0.0821583
1982 1 -19.6992 -8.20377 19.1144 -2.25367 4.47496 -1.42322
1983 1 17.1174 -8.6259 -5.39704 0.080905 3.42973 0.456238
1984 1 3.22649 21.9141 19.9367 0.959777 -0.0298208 -3.96761
1985 1 3.7786 -22.6219 -8.72641 -0.907522 -1.71359 -3.36813
1986 1 14.8685 -5.28761 3.12474 2.86013 0.936172 5.86238
1987 1 -20.341 2.27613 10.045 -5.63599 -1.4239 3.80765
1988 1 5.08265 20.0226 9.5522 7.03326 -4.59459 -2.07224
1989 1 -12.3998 -16.5143 10.4421 -3.09658 1.38437 -3.55621
1990 1 19.3898 -16.5116 -6.28169 1.20885 3.2084 -0.494721
1991 1 -21.2965 -23.7682 21.3993 4.94147 -1.85722 -0.237994
1992 1 11.58 20.1447 2.68325 5.83272 -1.59506 -1.90235
1993 1 2.01344 9.98011 -13.1996 3.45723 -2.40172 -2.39501
1994 1 23.2915 -19.4259 4.74249 3.33705 0.511198 -3.73533
1995 1 1.92395 0.951618 14.3636 -1.23556 1.36566 0.555468
1996 1 -12.4853 9.17075 22.2013 1.97581 2.53523 -1.2471
1997 1 23.4705 22.6345 6.24451 3.09057 -0.987814 0.648523
1998 1 -16.1995 9.62391 -2.73848 -2.71004 3.27673 0.34194
1999 1 -0.763083 -13.0211 -23.709 -0.0591104 -2.2781 0.975305
2000 1 5.08188 5.80171 -19.5866 4.20717 2.12001 -2.12055
2001 1 -10.2637 -13.429 -2.89905 -0.489899 -1.73192 3.78441
2002 1 -22.2591 21.0768 -6.39505 1.603 2.66472 4.34966
2003 1 10.3051 -2.75507 -12.5228 7.16674 1.81743 1.73563
2004 1 0.00635397 -23.3377 -22.6447 0.708262 3.03678 2.95082
2005 1 5.93398 -1.69874 16.8437 4.64277 -0.457822 -1.92678
2006 1 6.48007 -13.3927 -8.27002 2.37086 -3.9901 3.05659
2007 1 -9.85681 14.8375 -12.5129 -4.71373 -5.78312 -0.121732
2008 1 -10.35 25.2949 13.2171 2.03233 1.96254 1.35037
2009 1 -3.91302 0.722315 -0.895628 3.343 -0.189526 1.09764
2010 1 -7.52366 3.28441 21.2108 2.82227 -7.93357 5.19082
2011 1 0.384203 10.7408 16.5781 -3.68658 0.370123 -2.8655
2012 1 17.3471 -19.9562 14.3871 1.16945 -0.40757 3.76116
2013 1 -13.6026 23.2857 3.75339 -0.66793 -0.53245 1.65693
2014 1 -10.5105 -8.67829 13.2373 1.66871 -3.44788 -1.12983
2015 1 -1.70703 -7.50735 -5.11248 -0.878349 -1.88033 -4.17827
2016 1 -5.50951 -16.5443 -3.81421 -1.1116 -2.25821 4.45214
2017 1 13.9519 10.2142 20.8473 -0.262553 -4.94613 3.70691
2018 1 -16.9472 -4.77445 6.27084 -3.93446 -2.08784 -1.87936
2019 1 2.10428 26.415 21.1476 -1.77497 1.32958 3.32311
2020 1 9.52253 -15.2779 -17.1379 1.51986 -0.739625 1.25981
2021 1 -5.24367 17.5898 13.3408 0.451056 4.99399 -0.272765
2022 1 17.0539 21.539 10.0184 1.9883 -3.12944 2.28326
2023 1 -22.4426 -11.0241 8.23208 6.00524 0.395144 0.137422
2024 1 7.98766 11.2688 10.4414 4.9933 0.228148 -3.44103
2025 1 3.08515 -13.2371 22.6996 3.19276 3.66748 -2.18405
2026 1 5.29321 24.6624 12.1121 1.66348 -4.58143 0.113577
2027 1 5.74734 16.5021 -12.3754 6.23671 -3.37747 -1.03184
2028 1 -0.441144 -5.82077 -20.9446 -0.196395 0.313191 0.7617
2029 1 15.8898 -9.4824 -2.50736 0.123412 -2.74874 2.43361
2030 1 11.7805 -17.9848 -22.9667 -0.932193 0.809691 2.66969
2031 1 -5.70382 -20.0889 -8.60043 1.69904 -1.03302 -2.57716
2032 1 -7.97338 4.1652 7.61092 1.88989 -9.70455 -0.500977
2033 1 10.4819 17.6987 -0.223376 -1.99365 -1.7565 -4.47494
2034 1 -10.2801 1.3163 -17.1976 -2.50119 1.49616 0.602786
2035 1 16.3284 -18.5409 -23.4543 1.1611 2.11078 -4.71941
2036 1 -14.3271 9.34122 -23.4162 -1.4583 -0.339675 -1.26211
2037 1 -15.9854 6.75431 9.34384 0.349729 -2.71691 3.85115
2038 1 21.6071 -1.42169 11.9574 -1.78494 -0.00958811 4.29955
2039 1 7.66229 -22.2073 -23.4589 2.02463 -0.882535 -2.95762
2040 1 -5.04045 -23.5728 -5.88195 -1.44023 2.71789 -1.97441
2041 1 -17.1706 -14.9441 20.184 2.59094 -2.75567 0.340619
2042 1 6.71551 -21.7488 21.1273 1.61039 -3.51248 -1.0408
2043 1 20.0555 11.1054 11.3511 -2.8783 -1.07279 -0.393107
2044 1 0.924382 -6.63935 0.396101 -3.18904 0.688138 -3.83623
2045 1 5.24497 -19.5305 -17.5936 1.54796 1.07242 0.161729
2046 1 -7.75576 18.4501 18.3381 -0.629706 3.89206 -2.3949
2047 1 -3.94237 -13.7067 5.70034 -5.97356 -0.0825963 4.95872
2048 1 2.63522 15.403 -16.6476 -1.20631 -4.23438 -2.14483
2049 1 16.3175 20.9847 -20.1336 -6.40127 2.35831 1.79925
2050 1 -11.7816 7.78944 -7.83662 2.47897 2.00526 2.61002
2051 1 -21.3157 8.36216 -8.95946 4.49091 2.74372 -5.20214
2052 1 -9.02429 5.38645 22.846 2.30564 5.84478 -3.09774
2053 1 -23.6201 13.9662 -17.3646 1.52514 4.11678 -0.0821875
2054 1 15.732 5.34195 -3.14305 -0.415889 -9.97429 0.908583
2055 1 2.05122 16.7908 7.8993 -3.06067 2.93483 -1.97543
2056 1 -4.58166 26.5425 23.492 0.084362 2.73547 2.57127
2057 1 16.2854 -2.21174 6.31871 -1.57733 2.86158 0.514759
2058 1 20.7661 9.66196 -11.6395 1.04343 3.12402 -2.95721
2059 1 5.42838 -9.32128 22.3785 -4.42239 0.522964 4.19331
2060 1 -6.27198 -1.07585 -4.03646 -3.2498 -2.2114 2.16416
2061 1 -15.4206 45.419 -22.8429 -1.63205 -2.37713 -1.22805
2062 1 -18.8775 21.6191 -8.2295 -1.67164 1.4 3.28289
2063 1 -12.8122 -9.9211 -19.946 1.02369 1.83086 0.0488399
2064 1 -16.0411 -16.7578 11.0224 0.827265 -0.591541 -3.05702
2065 1 14.3706 -21.6008 22.7745 -0.990483 -2.79177 2.20379
2066 1 17.9828 4.37401 10.0744 2.6043 0.159427 3.80622
2067 1 21.4415 9.57408 20.3977 -3.8142 2.94259 -6.94895
2068 1 -15.6602 10.7933 -6.45808 0.92635 2.26289 -3.25013
2069 1 21.5353 -23.6863 -12.7776 -1.04707 -3.15581 -6.44055
2070 1 23.0962 0.720644 -2.33427 0.530805 0.784626 -1.20351
2071 1 -23.6811 -15.6474 23.923 -1.13393 1.35387 -0.411923
2072 1 -18.5015 6.70761 20.2874 -1.56702 -2.40806 -3.54771
2073 1 -18.2637 7.99791 -14.5823 1.10115 -3.98454 2.99015
2074 1 3.81963 10.9683 -10.9906 1.86412 -1.66435 1.27839
2075 1 -6.48807 -14.963 23.2706 1.29059 -1.47317 -2.40615
2076 1 -12.4013 23.7722 -8.66269 0.236658 1.93827 4.82819
2077 1 -19.1159 -4.21852 4.69025 -0.507315 2.33383 2.4753
2078 1 -15.2008 2.57043 -22.9062 -1.14956 -1.73036 1.14923
2079 1 8.33916 -13.7066 -20.5667 -0.518453 2.77997 0.351217
2080 1 23.2957 -23.3806 -17.5266 1.53291 1.41224 4.43273
2081 1 22.6358 20.319 -9.75626 -0.384629 1.82186 0.460632
2082 1 -5.52332 17.8049 2.71043 0.562725 0.936337 4.8918
2083 1 17.2295 11.3237 -8.94082 0.646016 1.83363 2.72997
2084 1 12.7659 18.6158 18.3219 -1.4567 1.49419 -0.123952
2085 1 -22.1375 -23.1435 -8.35568 -0.727838 -1.6824 -1.61019
2086 1 -10.9813 -14.7678 5.71988 -4.96273 -3.71592 -1.44727
2087 1 -10.8829 7.96593 -20.2787 3.61401 -4.40058 2.78279
2088 1 3.94734 23.9903 21.5215 1.27333 1.29632 -4.76681
2089 1 8.01309 14.508 -20.5566 0.698786 -0.0562211 3.35634
2090 1 13.0033 8.81602 18.3515 -2.816 2.38764 2.1165
2091 1 -8.35749 11.5845 11.4907 -2.48078 -0.31287 7.9273
2092 1 -17.5859 24.9209 -22.4647 1.51704 -2.56103 2.76538
2093 1 -6.52378 15.5709 -2.88237 1.2595 -0.207013 -0.794302
2094 1 22.2974 14.232 -0.429139 -0.392785 -0.52043 -3.13131
2095 1 -24.2508 -9.10574 4.34888 -0.672609 -2.33641 -0.0572934
2096 1 10.6656 -4.29649 0.160691 0.525424 4.97189 -1.06439
2097 1 -3.36009 7.43162 9.92306 -0.94352 -8.10463 -2.97344
2098 1 -17.187 -14.4971 -4.94627 -0.724272 -0.48753 -3.07417
2099 1 15.2779 -10.296 5.70826 -0.492473 -0.672495 1.0409
2100 1 -1.22279 -3.8358 20.2096 5.98685 -1.72369 -0.657088
2101 1 -23.6229 -7.81187 20.1227 2.58477 0.4993 2.02037
2102 1 6.46344 5.50428 -8.59728 1.68528 2.1194 -0.402385
2103 1 11.9478 -16.5016 -16.6327 -1.36159 3.84934 -2.38286
2104 1 -20.3851 -4.28581 19.8512 1.40769 2.15296 2.77323
2105 1 14.8773 10.6088 -10.8233 0.743088 1.03106 4.14254
2106 1 -19.0322 -18.3112 -20.3891 -2.58416 -1.00073 1.10927
2107 1 -7.36554 6.32395 -13.4254 -0.812028 -0.236418 -3.54727
2108 1 -10.9494 13.0313 0.93149 -4.81848 -0.391076 1.43016
2109 1 -4.2354 15.0718 22.7522 -1.84403 -0.890535 0.99195
2110 1 2.39359 10.7396 3.66176 0.332467 4.41661 -0.391749
2111 1 20.1147 -10.8235 20.1594 -5.03162 -0.133007 3.94882
2112 1 -9.97509 5.30335 9.09498 -3.90335 4.82133 0.747807
2113 1 -18.207 -2.89357 21.0375 2.12152 -3.1287 2.55642
2114 1 -1.18543 -24.3047 21.1981 -0.0649026 0.473045 1.97425
2115 1 15.3305 -16.3978 -10.2873 5.37281 4.31203 -2.66167
2116 1 20.8492 -3.35765 6.60463 0.817373 3.03739 0.415069
2117 1 23.201 21.4221 3.8439 -8.5567 4.65102 1.5538
2118 1 -9.16807 -0.296501 -4.10708 -1.62172 1.64595 2.47677
2119 1 -9.37531 19.4933 3.63066 -1.8975 3.32955 -2.16907
2120 1 16.2578 -19.1091 12.0539 1.20746 -2.08412 -0.852684
2121 1 9.23023 -20.9074 22.2952 -2.6213 1.39742 -3.32785
2122 1 10.876 9.26613 -11.3151 -1.15403 3.38146 1.93439
2123 1 21.3314 -8.76187 -16.6505 5.2287 3.72861 -1.39728
2124 1 22.8033 0.716236 -18.0759 -2.41509 5.44197 -1.57911
2125 1 -0.708923 -12.3189 14.743 -1.3301 -2.57978 3.83341
2126 1 14.3189 -8.34571 -5.30627 0.601584 1.52965 4.90697
2127 1 22.7677 -8.97561 -18.9028 -0.3323 1.46089 -3.12952
2128 1 -18.4155 -20.177 -0.916266 2.64454 2.1946 -2.66158
2129 1 -13.2913 -22.7574 12.4356 4.14766 1.00237 -0.905061
2130 1 21.8413 10.7076 -8.02954 -1.43627 2.20012 0.923827
2131 1 18.6849 -6.50854 -2.66644 4.97703 3.17992 2.39323
2132 1 11.6385 -22.4666 22.2236 -1.2707 3.63605 1.87978
2133 1 -16.1853 -12.4624 7.31648 0.258947 -2.82169 0.89512
2134 1 9.61148 20.2906 6.80731 -0.942063 -0.922961 -3.3564
2135 1 15.8045 10.7823 18.6115 -1.53395 -2.96677 -4.54069
2136 1 -5.35496 -20.9587 5.14864 -2.16709 -0.529951 0.298157
2137 1 15.2801 17.9664 23.3679 -3.18873 -4.94042 -3.95589
2138 1 17.5551 24.6156 -15.7651 4.77706 2.40786 0.121902
2139 1 -10.627 5.00437 -20.1493 -3.56196 3.42263 -1.32862
2140 1 10.121 -15.7301 18.7109 -0.163032 -0.765487 -5.30133
2141 1 -22.3717 -24.3922 1.66184 -1.16521 -2.54987 1.16794
2142 1 -13.9395 -9.86668 15.7088 0.0401341 0.704003 1.915
2143 1 19.6023 6.57957 -14.9804 1.31211 2.6475 -1.77386
2144 1 4.23299 -1.23318 2.72978 -0.688524 -0.309627 -1.14828
2145 1 21.3132 12.4667 21.0973 -1.01375 0.865742 -1.67004
2146 1 3.73213 9.58428 21.0698 -4.79592 2.34472 5.18987
2147 1 3.95034 5.3707 14.1877 -3.25305 0.448653 2.92528
2148 1 11.3996 45.9689 18.4715 -1.01992 -5.36595 1.04352
2149 1 22.4308 -6.82807 -4.1112 1.97374 0.810251 -4.07363
2150 1 18.6192 -6.32723 2.05659 -0.541672 -1.21096 -2.43268
2151 1 8.82534 3.48268 -11.4387 2.14385 6.81133 4.33866
2152 1 9.11587 22.0533 -4.45214 -0.826311 -2.05115 0.849341
2153 1 -7.67108 -10.1727 -1.24122 6.81341 -3.05903 -2.28761
2154 1 -11.9445 20.25 -21.916 2.05542 2.78037 -4.41477
2155 1 17.2077 4.92183 21.0701 4.78768 -4.48292 -1.94651
2156 1 -20.2953 18.9667 -7.60269 0.00964926 -1.00719 2.77938
2157 1 -1.69887 17.5439 21.1087 0.876603 2.03528 -0.275354
2158 1 -17.4559 13.151 14.264 1.49005 2.3041 0.284992
2159 1 2.91104 -21.8895 12.7435 -3.00236 4.16638 -0.803491
2160 1 -21.4846 -1.58944 23.6093 1.97297 -0.704356 1.29915
2161 1 0.154728 10.8732 -5.76713 -2.29261 3.8034 0.587463
2162 1 21.0441 12.5444 -2.18231 1.38757 1.12453 -1.19032
2163 1 6.06349 -5.95664 14.2634 5.50232 3.83762 0.143722
2164 1 17.4124 -0.251555 -11.1319 -4.69886 0.466829 -1.30627
2165 1 20.322 21.0522 -16.539 -1.36142 -0.00256117 -2.04594
2166 1 -14.5533 19.6842 -14.657 -2.6539 -2.32316 -1.96364
2167 1 -15.553 -11.0691 -17.4972 -3.00514 -3.62204 -0.479515
2168 1 -19.5484 20.0624 4.37094 4.2651 0.371497 -6.71348
2169 1 11.5424 -6.32841 -18.8867 -3.2028 -1.05818 1.07997
2170 1 -8.20566 -14.649 1.09356 2.76204 7.56389 3.64395
2171 1 -2.79152 5.01136 2.64639 1.00228 2.05212 -0.179085
2172 1 1.94472 19.8896 -5.08324 -1.7566 0.403409 4.0304
2173 1 21.2062 3.22653 -13.977 3.53965 -3.38176 -1.01533
2174 1 5.83671 9.8813 -4.8244 -0.986506 6.88155 4.16545
2175 1 11.2926 46.3572 11.717 4.5307 1.32025 5.30431
2176 1 11.3493 -18.7016 15.0387 0.871143 1.36851 -1.26256
2177 1 18.6476 16.5836 15.8461 -4.20432 -1.40611 -1.93076
2178 1 15.2268 -18.3265 -6.96261 -1.85701 -3.53044 -2.4563
2179 1 8.95551 -3.75014 7.72047 -1.06858 -2.23347 -2.60769
2180 1 10.4798 -5.53344 -11.7828 0.977208 -4.86271 -0.981548
2181 1 -15.1169 -21.8593 18.3229 3.4043 -1.79582 1.40107
2182 1 -3.67206 2.47527 10.448 0.542894 -5.04953 -2.85442
2183 1 3.80134 -2.97886 10.8805 -5.22303 4.16477 -0.718971
2184 1 14.0795 16.875 -22.0353 3.19298 -0.985941 2.15089
2185 1 9.26432 6.85422 17.944 -2.24055 2.06723 -3.22176
2186 1 3.06814 -9.75385 -16.1655 -0.679165 -0.363789 2.65814
2187 1 13.9417 -3.91621 10.2225 2.21013 -0.0961842 -0.25409
2188 1 -11.187 2.62795 8.29115 1.21482 -0.750959 1.89252
2189 1 2.79222 18.7244 -9.9813 -3.13073 4.36901 1.08221
2190 1 -1.30258 2.82075 -12.4874 3.85978 5.28976 -0.925082
2191 1 12.2555 9.80609 5.52943 -0.647145 -6.27966 -3.95032
2192 1 -2.06177 2.25542 23.4657 0.904343 2.3215 2.02853
2193 1 14.4774 -14.4006 -16.9296 -0.77364 -3.06738 2.60882
2194 1 -20.3695 4.73503 23.3342 0.128763 -4.22539 0.484468
2195 1 -10.6085 -16.6227 -8.38139 0.421855 4.40828 1.12923
2196 1 -4.18742 6.08844 -11.7659 -2.86845 2.58456 -0.522072
2197 1 14.9253 24.2367 18.762 0.645436 -4.94396 -2.99547
2198 1 3.45768 14.2783 -3.19842 1.53487 2.73558 1.59974
2199 1 -17.6115 6.93943 -0.270067 -4.23222 -4.16806 4.50967
2200 1 -3.44614 -22.1269 1.61347 2.37622 4.29364 -1.08155
2201 1 17.5657 -13.8198 -22.6154 -0.0157522 -2.86363 1.72694
2202 1 18.9177 -20.9402 -17.4873 -1.29093 -2.79305 -1.23704
2203 1 8.48958 0.921088 -2.9558 0.102159 1.68496 -2.48097
2204 1 6.1638 4.57532 -0.859998 -0.14951 -0.670767 2.05057
2205 1 -21.5101 9.12323 -17.1693 -1.64676 3.91285 0.859272
2206 1 -1.94875 -5.80313 -14.0101 5.16902 2.66149 -3.67973
2207 1 22.8198 -1.58252 -0.805803 3.09331 4.94908 3.55743
2208 1 16.0674 22.8518 -7.18766 0.0469826 -2.96656 -4.30354
2209 1 -23.9779 25.2593 21.2985 -5.46356 -1.32363 1.30096
2210 1 20.9333 -18.5957 0.624596 -3.64179 -4.03566 -2.04186
2211 1 -19.4816 5.87453 -19.2734 -1.79059 0.809042 3.171
2212 1 -16.999 -4.3778 -4.34073 3.32077 2.99388 -4.02917
2213 1 18.2523 7.75755 -5.49235 2.17623 -2.75237 2.27254
2214 1 10.1052 9.27512 19.1191 3.3302 -4.11106 2.7429
2215 1 8.47588 17.8279 -3.47885 -1.97852 2.62682 4.36957
2216 1 4.04125 -1.65464 -13.0587 -2.12063 -2.47514 -1.73384
2217 1 11.3693 -14.0334 20.7954 4.11216 3.09349 -3.47904
2218 1 -16.2016 -5.10595 21.0023 -7.61723 3.32719 6.37781
2219 1 -10.6512 -23.1304 16.2985 5.55051 2.55804 -1.98981
2220 1 1.63927 14.3747 -12.2209 1.25814 0.774439 1.08669
2221 1 19.7755 3.98251 19.1646 2.98336 3.33702 1.90907
2222 1 2.27557 8.08889 5.01126 -1.0431 0.702802 1.80319
2223 1 -22.9017 11.059 -20.7573 -3.13997 -3.29993 3.55351
2224 1 -14.115 14.2865 -3.86678 1.29338 2.993 0.917913
2225 1 1.40935 -19.1182 -23.5091 0.220861 6.25732 0.127474
2226 1 20.6426 1.94713 16.2918 4.11875 -0.507544 0.0573409
2227 1 9.28711 3.18269 -6.24181 -2.21223 -2.09413 -1.65236
2228 1 -8.89013 -4.25231 21.7735 2.26339 -1.73091 4.69484
2229 1 19.3347 4.58987 16.4264 1.29661 7.14538 -0.684332
2230 1 -0.11631 22.7911 -5.59682 0.221573 2.54531 -0.0987174
2231 1 -12.9097 22.88 8.29835 -1.387 1.01737 4.33827
2232 1 -21.3062 23.1886 -15.7083 -0.539737 3.04886 -0.827072
2233 1 -11.1615 3.98749 -17.5483 2.23229 -1.85217 -0.148526
2234 1 -6.02356 -1.10626 -1.31064 -0.887629 2.07353 0.473221
2235 1 10.4125 -22.0241 12.7952 2.26017 1.12605 -0.807042
2236 1 21.4966 4.5198 -17.5821 -1.19091 -5.01756 -0.0322101
2237 1 -0.664648 -22.9852 -19.5282 1.54077 -2.1489 -0.0743476
2238 1 14.6376 13.7429 -16.3047 0.152948 3.69862 -0.0213903
2239 1 -13.1332 -9.56848 23.7843 -4.93004 0.381816 1.07362
2240 1 14.9598 19.1133 15.5149 -3.14744 -1.41401 -0.875433
2241 1 -22.6429 -2.82019 -16.0187 -4.1443 3.34415 -1.51081
2242 1 -15.0769 -14.9298 -22.9083 3.67031 -1.62493 -1.22785
2243 1 9.19709 22.974 -11.0437 -2.09325 -3.2001 -2.775
2244 1 21.2662 21.4748 -12.1731 0.110265 4.5793 -1.62772
2245 1 20.283 -19.1711 11.1236 1.08368 4.8655 2.36405
2246 1 1.35019 21.2126 -14.4499 -3.00047 -1.39482 -3.29855
2247 1 -24.0533 -12.3743 11.7585 0.884568 4.01618 0.328666
2248 1 -2.16208 -6.70559 -11.2092 -1.43064 0.737877 -0.639554
2249 1 -15.2079 11.2336 -17.0424 0.324172 0.422331 -1.23464
2250 1 0.607029 -1.15369 6.81635 2.46166 3.01534 0.344823
2251 1 -9.0109 -7.12795 -14.9789 3.75254 -0.156009 -1.68839
2252 1 22.7902 -14.5606 -1.32068 -2.81151 0.83371 -5.12529
2253 1 2.86717 -17.0992 -6.17065 2.96733 1.45385 0.0016585
2254 1 5.30963 18.0572 15.4191 1.77118 -2.39137 1.97665
2255 1 3.59924 -2.52153 -21.7122 0.83592 -1.31123 0.459943
2256 1 14.0922 21.2246 -22.0154 -2.99267 3.80292 -4.75226
2257 1 -0.289941 4.13734 -8.61749 3.23804 -0.257418 2.67811
2258 1 -11.8933 16.4326 -22.7335 -0.509487 -1.19317 -5.47732
2259 1 -19.6918 -9.75347 21.7546 -2.76292 3.59987 -1.76177
2260 1 21.2939 16.9033 -17.6865 0.358456 -7.1618 1.18517
2261 1 15.8751 -5.86299 -9.97948 2.31605 3.74697 4.57984
2262 1 18.3589 -23.447 -1.73825 4.0623 2.18975 0.356513
2263 1 -1.36007 -16.2458 -4.92688 -1.25298 1.30653 -0.0570847
2264 1 -2.73857 18.5389 3.69539 0.545586 -4.85317 0.734861
2265 1 0.234217 0.587329 20.2983 -0.207035 0.876133 0.0117847
2266 1 -23.6471 7.80108 13.5097 0.944099 -0.240968 -3.07162
2267 1 -10.8763 -14.4089 -0.0910258 0.261262 -0.645041 0.176837
2268 1 14.9769 0.778663 -1.91159 0.90964 -2.07098 1.94899
2269 1 15.9111 9.5959 -22.3925 -0.370079 0.998465 0.906422
2270 1 -8.42296 18.9592 0.687873 -0.455693 6.72493 -4.50653
2271 1 21.1922 -18.1312 -9.12138 -3.50806 0.441192 1.40826
2272 1 -1.73791 13.0758 12.8537 -0.848318 2.68851 1.92902
2273 1 -20.6142 -18.9289 16.0006 -9.09717 0.967124 -4.26281
2274 1 -6.94621 -0.0548001 18.075 7.80799 1.83677 2.80112
2275 1 -12.6098 26.6193 -13.7348 -9.56084 -0.763495 -2.80035
2276 1 -1.40173 10.4363 3.29519 3.79227 0.332821 1.91018
2277 1 -13.2369 5.82579 17.6051 3.20725 -2.88064 2.62818
2278 1 -13.1541 -13.2149 -3.81896 -2.25644 -0.0417737 -4.04037
2279 1 -12.3279 -0.132571 8.567 -0.904829 0.502129 -2.18467
2280 1 9.16455 -11.6876 -5.011 4.94238 1.93209 2.84308
2281 1 18.9724 13.177 19.6884 -0.56996 5.46221 0.986951
2282 1 -8.6535 23.5065 6.94961 -2.12001 0.21096 -2.16215
2283 1 20.1887 -9.77407 7.55199 1.96656 -2.30837 1.61284
2284 1 -20.2644 25.4709 -22.5754 1.86185 -0.280116 0.49087
2285 1 -20.18 17.4179 1.37021 -2.30516 0.153752 7.2136
2286 1 4.79809 -8.35489 5.53549 -0.383826 -0.672069 -1.60626
2287 1 21.3832 15.9048 13.2284 1.95894 -1.05992 5.58349
2288 1 -22.5697 -10.6537 -4.7305 4.38926 1.5935 -0.0119834
2289 1 -2.30018 14.8844 -21.778 0.262477 5.71339 6.08972
2290 1 14.7462 -8.0292 23.1422 -0.225684 1.70441 -1.1858
2291 1 0.332971 21.2564 19.9507 1.0454 1.3261 -3.46097
2292 1 -13.8837 -10.5177 -2.54898 -0.145057 3.82126 1.61096
2293 1 1.08387 7.74542 14.1162 0.462867 -0.889394 0.338055
2294 1 -18.7348 9.61249 -18.2528 -1.85 3.36922 5.8066
2295 1 -12.7434 13.1954 22.0258 -1.76165 -1.89684 0.387221
2296 1 -21.9462 -10.251 -15.648 -1.85987 2.95035 2.66832
2297 1 8.50048 6.98912 -23.5029 -0.177699 -3.5294 4.05472
2298 1 -1.30051 -21.3725 -6.4263 -1.96854 1.76239 1.29511
2299 1 7.02573 -12.173 -3.13349 2.39569 -2.63816 1.222
2300 1 6.02021 11.8602 -0.797663 5.33079 -2.1733 -2.60951
2301 1 5.51432 -24.1733 21.8237 -0.119506 -2.54408 -3.89692
2302 1 16.6946 11.8265 -17.6197 2.9397 1.06305 -4.12613
2303 1 -11.7609 19.2996 -12.516 -2.89684 5.1434 2.1726
2304 1 6.69458 18.182 10.789 -2.93409 2.63562 2.68415
2305 1 -15.9197 17.5084 15.5362 0.783402 -2.28908 -1.91538
2306 1 4.50439 -2.45163 19.845 0.346721 3.38426 -3.06614
2307 1 -17.4638 13.4924 23.3654 -0.385681 3.25589 2.75507
2308 1 7.23758 2.42648 -18.3293 3.22307 7.73685 -2.01973
2309 1 18.4687 18.5771 20.3349 3.2096 -0.235506 5.48536
2310 1 5.52385 -17.6915 9.00148 1.28016 1.91735 4.12923
2311 1 7.07576 2.19392 4.30533 -4.09486 -2.7845 -3.95626
2312 1 -20.6337 -23.6259 7.25401 -3.04994 -2.26797 -0.42535
2313 1 -6.25939 13.5792 -19.2707 3.72619 -0.673736 -0.180336
2314 1 -17.3365 4.96271 7.73878 -0.312895 0.689351 -5.46492
2315 1 -12.6755 12.4656 17.1765 4.75817 0.543098 0.938959
2316 1 -18.0353 -11.1986 2.58826 0.414887 1.10161 2.00505
2317 1 -4.64578 -13.5187 -10.949 -1.04127 -2.14566 -3.02691
2318 1 20.039 -8.5399 -4.79065 -1.27789 2.1778 1.40419
2319 1 6.55473 -9.78658 9.55066 -2.59458 3.49542 2.18933
2320 1 -23.7193 4.32945 -15.6573 -1.12247 1.3765 3.24251
2321 1 -2.0422 26.0072 -23.6472 -1.15377 -0.639662 5.02816
2322 1 -4.567 22.6857 20.8337 -1.72348 -1.43354 -1.33023
2323 1 9.54933 -4.42071 -4.282 3.80603 1.9021 -0.826888
2324 1 9.55321 -19.1534 -19.2469 -4.26796 6.0055 -0.613238
2325 1 16.0579 -23.6246 -17.7822 1.49751 0.430787 0.893338
2326 1 22.1221 -9.7885 -11.4323 -0.615986 -2.2527 -1.25999
2327 1 12.6251 2.16305 -17.4189 2.47691 4.14291 2.9092
2328 1 -10.3517 -10.4265 -2.22887 3.31413 -4.44232 0.600138
2329 1 4.09334 8.19419 13.9879 0.790122 3.48959 -2.7957
2330 1 12.7541 45.5075 15.9406 1.75046 -3.96325 -5.40787
2331 1 -16.6439 -15.7193 13.6626 0.786513 2.24106 5.57574
2332 1 18.391 -16.1108 9.2207 6.70567 -1.57274 -1.71769
2333 1 13.8827 -19.5939 -15.7096 -2.77823 4.66984 -1.57054
2334 1 -14.4273 19.6935 14.2116 5.89829 2.93226 0.115843
2335 1 -5.94885 17.9077 23.8064 -1.80567 0.351179 3.0456
2336 1 14.6434 -10.3803 -19.2782 6.38626 0.416566 -2.4759
2337 1 8.60735 8.60414 1.37197 -2.50956 5.57725 5.20093
2338 1 3.15716 -4.08824 22.2812 -1.37734 -2.08432 -1.12649
2339 1 9.87615 9.24725 -4.9337 -0.641283 1.20128 -4.81157
2340 1 6.8191 8.58935 15.1118 3.3583 2.08443 -2.51909
2341 1 5.67868 -20.4798 -21.4441 -3.03956 0.684537 2.82785
2342 1 11.4293 -11.564 -1.58181 4.60502 1.17392 0.0272236
2343 1 9.63403 22.3234 2.05424 -3.43448 3.39516 -3.00168
2344 1 12.6339 24.6588 4.74215 2.95551 5.19792 -0.501762
2345 1 6.33012 14.1539 -13.7822 1.38927 0.987149 1.1847
2346 1 -3.88636 -20.2534 9.39237 0.543105 0.179796 -3.33263
2347 1 -14.0379 9.92454 -14.8925 3.02028 -3.90474 0.0515007
2348 1 9.376 -2.02663 3.35795 3.27841 -0.324204 0.569319
2349 1 -10.7188 23.0332 16.9461 2.34551 -0.860461 1.68
2350 1 15.727 5.65797 -9.38684 -1.13148 -4.91986 3.86843
2351 1 17.9296 10.7493 -15.0405 3.55615 -1.30802 -1.84043
2352 1 -2.53894 20.1428 -22.5402 -2.32867 3.46487 -2.14927
2353 1 13.5594 -2.10566 6.11741 -0.441704 -3.74301 -0.122802
2354 1 18.2825 -20.7429 -22.6872 0.139979 -4.16831 -0.667915
2355 1 -6.79509 3.78409 0.287523 1.97876 5.66764 1.04586
2356 1 16.4189 -23.7461 -9.13796 2.84893 1.29307 0.921848
2357 1 0.429479 -1.4625 -1.97553 -0.55372 3.32917 -0.00186547
2358 1 1.3761 -12.1446 -12.6794 -0.875014 2.3128 -0.525306
2359 1 9.92151 11.2334 8.01628 7.96808 -3.8957 -0.0136657
2360 1 12.8986 15.9414 2.23314 -0.0859149 4.00849 0.0147619
2361 1 -20.5876 9.63377 -11.69 0.279054 -2.60003 0.546221
2362 1 -21.8866 10.4241 13.1217 2.90544 1.81528 -0.993705
2363 1 18.5084 -9.5147 -1.59102 2.79022 0.267721 -3.30049
2364 1 5.38227 1.80379 0.155578 3.65983 -6.24969 1.94365
2365 1 23.3021 -10.2687 -2.74593 6.28609 -0.315875 -1.33539
2366 1 12.1717 5.35375 0.596865 -0.487314 -1.37379 -0.0507242
2367 1 3.6001 21.1152 13.8161 3.62412 -4.87038 1.3957
2368 1 -5.46552 -17.9179 -6.4286 2.60882 4.93861 4.6369
2369 1 17.5024 2.12587 16.1137 -0.210603 -4.38067 -0.0816682
2370 1 -18.9739 -9.78943 -5.04616 3.48739 -0.597513 -1.84215
2371 1 16.311 -19.3224 -0.185014 1.36964 1.06737 -0.980716
2372 1 20.9692 6.19979 -2.54525 1.41549 4.18835 -0.875423
2373 1 11.6638 11.3928 14.6371 -1.94599 0.256092 -3.34934
2374 1 -5.47831 5.60357 -1.28553 2.42085 -0.230287 1.51835
2375 1 9.68908 24.2576 14.6172 -0.695376 0.58241 3.31414
2376 1 -12.4644 2.01567 22.2511 1.08462 0.513378 -2.82689
2377 1 -1.97104 -12.8007 -10.0993 -3.92565 -4.12003 -1.03899
2378 1 5.72557 0.129023 19.3642 -4.13236 2.39242 -4.36639
2379 1 -23.0272 14.4882 8.58729 3.22211 -6.78046 -0.385871
2380 1 9.31594 -14.5511 23.2918 -1.10436 -4.89274 4.89499
2381 1 13.0483 -10.081 -3.49711 1.2633 3.04401 1.02181
2382 1 -15.6976 17.4636 -16.2552 -1.56409 0.15467 -1.35145
2383 1 22.918 -18.803 7.91699 -5.11875 2.59438 2.11457
2384 1 6.80635 -14.7161 -22.9154 -4.78848 -3.6185 1.78753
2385 1 -3.42735 9.54096 -3.46254 3.18374 -3.61348 0.387421
2386 1 0.268063 -3.03382 4.38697 2.93269 -1.58623 -0.834013
2387 1 -14.5126 -5.3265 10.9165 -2.5215 0.0763899 -2.02835
2388 1 8.64808 26.049 20.9328 -3.30077 -0.74484 -1.69964
2389 1 6.50234 -8.8224 14.3818 -0.0365963 3.52964 -4.09886
2390 1 -19.045 -7.89463 -7.56249 -0.909685 1.14212 -1.05665
2391 1 -7.15828 -1.94152 6.36375 -1.81052 2.80787 2.2009
2392 1 7.82317 -21.0834 -12.1046 0.0769069 -4.96742 -0.967006
2393 1 4.09701 -17.0151 21.4537 -4.32967 7.65118 1.01159
2394 1 17.2552 15.2197 -4.59162 2.04036 2.16703 -1.82744
2395 1 4.79036 19.4142 18.1888 2.16988 1.00918 5.3188
2396 1 -15.6235 -20.1898 -0.150512 2.03564 2.32655 4.1614
2397 1 -16.7833 -7.34762 19.0414 4.75783 -1.90603 -4.03383
2398 1 -7.3818 -2.78886 10.7116 -0.110384 3.12883 0.169418
2399 1 -12.6995 -9.6404 9.05135 5.39145 -3.83961 -5.43568
2400 1 14.2296 -4.17618 17.1334 -1.35368 -6.1592 3.74777
2401 1 -18.4178 21.153 -5.0029 -3.83937 2.89351 -6.10743
2402 1 14.2414 13.6507 -20.0675 1.83472 0.0116269 -0.609139
2403 1 -11.4767 -2.51221 22.0801 -4.59438 -2.77946 0.463772
2404 1 -21.3761 -7.55128 -21.5733 3.71551 2.15395 -0.215214
2405 1 -5.13584 -10.2532 -20.7945 3.51695 0.660353 4.12469
2406 1 22.2733 7.20439 -11.3644 -3.59109 -0.420745 -4.65813
2407 1 -13.7323 -13.6983 13.4735 2.27944 -0.971716 -1.98948
2408 1 -18.9118 -4.54311 -13.2056 -2.18275 -3.67978 -2.38464
2409 1 7.56703 11.2964 15.3465 0.012154 3.49549 -0.562716
2410 1 6.19586 46.444 -23.3635 -0.196739 1.60788 1.88495
2411 1 8.46111 11.7772 -19.9311 -2.03595 1.63353 1.63264
2412 1 7.63439 18.8519 18.3421 -3.41076 3.29826 4.54662
2413 1 -7.47148 21.5448 2.32526 -1.62639 5.32171 4.54647
2414 1 12.6666 -7.87507 -8.94501 -2.41666 -0.0612637 0.825944
2415 1 22.698 -22.2801 22.5073 -2.17588 3.72933 7.22214
2416 1 5.75207 12.0831 7.44068 1.48778 -1.41969 4.02121
2417 1 -3.372 -5.45664 2.93269 -0.162706 0.596789 -0.0523238
2418 1 13.6314 -1.29428 -7.22634 5.71962 5.24936 0.00152605
2419 1 21.3211 7.41602 -17.4168 -7.31376 -1.87429 -0.338664
2420 1 -2.16113 -8.78717 -8.9664 -2.14523 -2.04013 -4.41269
2421 1 -22.3162 15.9533 -7.81422 0.258496 -4.11962 0.563107
2422 1 -13.5407 5.04276 14.0291 -1.63121 -5.08001 3.19247
2423 1 12.3799 20.422 5.32103 1.32547 0.293268 -2.66037
2424 1 23.0111 15.4859 6.25674 -2.21565 0.233172 2.85229
2425 1 -14.8061 12.1369 23.5994 1.19802 -1.67005 -0.327438
2426 1 -1.35036 15.6627 23.2779 3.92353 -0.0876305 1.37206
2427 1 14.6978 1.71607 5.27341 0.161658 -1.5348 3.82021
2428 1 13.3802 -15.0669 14.9719 -1.31383 -0.00900125 0.988431
2429 1 -6.54887 -6.71378 -16.2625 -1.27499 4.49166 -1.01066
2430 1 -11.113 -10.3217 15.3955 3.30965 -2.36244 0.761043
2431 1 -19.9919 16.4545 -9.71133 -0.44948 -0.00211854 -4.49244
2432 1 16.9609 14.5978 -18.0587 2.53541 4.67149 2.6955
2433 1 21.8544 46.3036 18.9008 0.242039 -1.12715 -1.43218
2434 1 0.850034 -21.9256 -0.712308 0.481514 -4.27699 -0.729025
2435 1 -13.3965 22.1233 11.195 2.0278 -2.79097 3.41379
2436 1 -4.80578 10.6146 18.1386 7.40837 1.83754 1.77542
2437 1 -10.2385 -6.18828 9.96572 2.4008 3.24926 0.800838
2438 1 -2.65287 46.3022 -23.2155 -0.637815 -0.523768 -3.8435
2439 1 -14.7055 17.925 10.6824 2.96005 0.125244 1.23684
2440 1 5.78313 -1.62547 -15.3274 1.43638 3.15066 -0.459563
2441 1 -23.9719 12.11 19.2022 -4.16273 -2.34495 3.93497
2442 1 -2.28188 -10.4928 -21.2177 4.5973 6.57596 6.41322
2443 1 9.80516 11.4919 -23.797 1.83775 4.28838 1.14019
2444 1 10.1101 23.298 19.0717 4.24488 1.84046 -1.25292
2445 1 0.983545 4.59069 20.195 -2.84538 1.91147 -1.12552
2446 1 -5.28256 -7.5601 14.4763 1.91802 3.31679 -1.94491
2447 1 -0.202949 -12.734 17.6839 -0.999933 7.55307 -1.36245
2448 1 2.6757 -14.0031 -8.52238 4.89573 -1.27599 -2.22402
2449 1 18.641 -23.0038 12.7915 1.525 -1.37644 1.26748
2450 1 6.41587 9.67196 22.2524 -0.117473 -2.21758 4.34163
2451 1 7.37441 -22.027 4.10708 -1.86741 -0.623222 -4.47763
2452 1 14.148 16.4919 -13.0791 2.5738 8.43216 0.0839368
2453 1 -2.53575 10.8881 11.1247 -0.229773 -7.92601 3.94687
2454 1 -3.98372 9.5908 -15.2505 -3.69395 -2.06544 -4.64231
2455 1 9.54191 9.40506 11.537 -2.36889 5.46518 -3.90044
2456 1 17.3462 21.1225 19.8372 1.38676 -1.05298 -0.0902068
2457 1 -3.38646 8.58466 12.5796 -1.69438 1.99482 -1.22142
2458 1 -20.9293 20.9876 -3.51445 0.43377 3.04184 -0.818579
2459 1 -18.2492 14.9619 -7.92819 2.22729 -2.10801 2.48252
2460 1 9.70779 11.9541 -13.8347 1.2274 -1.06065 2.82349
2461 1 -20.0934 18.2493 -1.40195 -1.40053 -0.384295 -2.92323
2462 1 -13.0751 25.6229 2.08507 3.92909 1.42157 -0.0839351
2463 1 -14.4678 -19.8103 20.3371 -0.204388 2.21465 -4.4484
2464 1 8.70446 19.6028 -14.1824 0.507528 0.910967 -2.41891
2465 1 -8.78906 -13.4882 -10.4197 1.04171 0.186013 -0.275002
2466 1 3.22712 5.44838 -1.08703 5.2644 1.52652 -1.84995
2467 1 1.368 -18.5429 13.2996 -3.11979 1.73013 0.951878
2468 1 -17.8481 46.6287 -5.89073 -1.53268 -3.08176 -1.64755
2469 1 10.2883 -23.5872 -23.2667 -0.896063 -0.394763 -0.879021
2470 1 12.1532 -18.6955 -7.16029 0.0416086 3.347 1.1647
2471 1 -0.0645117 27.1697 -21.772 1.97518 5.94459 1.04288
2472 1 -16.9794 0.924997 17.5106 2.46404 3.61864 1.55019
2473 1 14.762 8.26738 -8.6231 -1.23647 1.59235 -2.91508
2474 1 -7.18228 -10.1652 -18.6264 -6.7368 -0.403358 -4.27385
2475 1 -17.2985 9.44842 9.37344 0.837027 1.4856 -3.14922
2476 1 -8.076 -19.8952 -17.9699 -1.40151 -5.37499 -3.79795
2477 1 9.79389 10.8502 -2.48594 -0.822603 1.16886 3.15005
2478 1 -3.50067 -21.7225 -1.26681 1.11627 -0.859761 -0.943827
2479 1 -21.7672 -6.76213 1.56861 -1.64884 -2.26574 0.635365
2480 1 1.29302 17.933 -7.37586 0.312734 -3.34811 -3.96127
2481 1 -14.8135 -9.60801 -6.03548 0.750618 1.64243 -1.80492
2482 1 9.14911 -2.98423 -1.86377 0.742421 -1.42538 -2.67681
2483 1 0.1151 8.49381 -9.79581 -0.622751 3.21867 0.673892
2484 1 0.7813 -17.0979 -8.05434 -0.590317 1.02398 -2.49251
2485 1 0.409632 -18.57 4.66163 0.232313 2.40756 5.6042
2486 1 -3.83267 -18.8226 6.76546 3.05216 -0.122516 0.268029
2487 1 0.592223 21.7531 -2.98999 -0.98232 -4.32064 -2.20642
2488 1 -11.5047 20.0353 20.802 -2.65273 0.395543 1.22003
2489 1 6.9936 19.869 -9.92896 -1.53644 -0.69666 1.85052
2490 1 -12.4619 24.8256 18.0075 -1.92103 2.96994 -3.14999
2491 1 13.129 -21.8802 -1.05515 -0.259807 -1.06589 -2.18153
2492 1 22.9228 12.7462 1.79769 -5.62742 1.07161 4.72643
2493 1 20.9494 22.0061 -20.8069 0.337502 0.194815 -3.4438
2494 1 -16.52 -17.1186 -21.6936 1.03439 -2.16615 -0.570867
2495 1 12.0257 -10.3715 -12.101 -1.48099 1.05712 -0.225182
2496 1 4.79135 1.90792 -19.6335 0.47961 2.13403 -0.518392
2497 1 6.69814 7.18462 20.5794 -0.428734 1.68098 -2.91193
2498 1 -4.88331 6.01067 4.28902 -0.606085 6.91757 2.25352
2499 1 23.1822 -14.7273 9.89988 7.10002 2.01241 0.408536
2500 1 9.08064 22.2065 8.86096 -3.81258 -2.11996 -1.36352
2501 1 4.66594 15.4663 3.96415 -4.7006 -6.84549 -4.80572
2502 1 -5.71319 -11.5958 9.63359 1.36059 1.14748 -1.66605
2503 1 14.4973 15.1843 -1.79671 -0.223077 6.14243 -1.84351
2504 1 9.17869 13.5831 9.30851 -3.718 1.06278 -2.90542
2505 1 -12.3511 18.8311 23.4492 -2.47552 4.13505 -3.92513
2506 1 22.1793 11.8201 -10.8248 1.66119 0.805826 0.643196
2507 1 9.06009 0.841367 -14.9391 -0.496023 2.01105 -2.87311
2508 1 12.8287 25.7018 -6.27667 -0.735663 -1.68011 0.849004
2509 1 0.507718 -7.75964 3.89541 3.47624 -0.949564 -0.477933
2510 1 -22.9444 2.89549 -1.61029 1.34657 -1.18258 2.75571
2511 1 3.79507 6.58075 21.4809 -0.161442 -1.66682 0.733964
2512 1 -11.4163 11.2006 11.6189 0.307672 -6.96747 -3.82822
2513 1 22.1578 4.8181 5.90655 -0.957461 -0.524852 4.18477
2514 1 19.8083 12.9399 23.7443 4.86948 -4.49362 -1.7572
2515 1 3.37713 -21.3168 3.64029 1.06415 -1.84616 -0.665908
2516 1 5.57678 10.2125 -20.5639 -1.18948 -0.555897 -2.55985
2517 1 -11.7627 -14.1483 16.4568 -2.71331 -1.1554 -2.04052
2518 1 -1.51053 -5.53097 0.839699 -0.869031 2.61545 0.896249
2519 1 -22.2666 21.4519 13.4549 4.74523 1.79537 -1.85393
2520 1 -22.2955 -2.85174 -5.97171 -2.5089 -2.25911 0.32466
2521 1 11.4418 7.80686 16.2248 0.760691 -2.9272 2.72291
2522 1 -6.07715 10.6142 -3.14042 0.0346893 -3.40049 -0.810586
2523 1 -16.0424 45.913 -20.1467 5.44704 -0.641462 -2.55206
2524 1 11.4061 23.7635 -19.9149 1.49874 0.065767 0.458015
2525 1 -15.2357 -12.4666 -5.54203 -0.86677 0.873127 -0.894454
2526 1 -10.5258 -1.65236 -17.0611 1.93252 -0.191782 2.42383
2527 1 5.79833 4.84655 9.30476 -1.6398 -0.193798 -1.93753
2528 1 -9.20619 12.9811 9.03545 -1.085 -2.37183 -0.641868
2529 1 -19.522 -8.15244 -2.7242 -0.43492 0.489536 2.50504
2530 1 6.8415 -15.6138 -18.7308 -2.12175 0.0649969 -4.81032
2531 1 -17.263 -9.70299 -15.5944 -1.0533 -4.40925 -1.20012
2532 1 -13.6344 -15.4584 0.475906 1.89757 -1.40954 -5.07656
2533 1 -15.0068 22.9445 -1.44201 3.052 1.10414 -1.22505
2534 1 -20.5356 -11.4737 -0.304749 -0.563751 6.60061 -4.95313
2535 1 16.6587 -3.93686 12.7207 -0.977147 -0.987201 -0.676633
2536 1 -24.0033 -20.0428 -23.5128 -0.439942 5.7097 1.3661
2537 1 -0.229132 -24.2028 13.9549 0.743462 -0.877116 -5.51529
2538 1 -6.78535 6.83262 -23.7488 0.298774 -4.92192 -2.88515
2539 1 14.039 -7.15282 16.626 2.45533 0.159528 4.71258
2540 1 22.9733 -8.7805 17.5244 -0.129186 4.27567 3.76281
2541 1 3.82136 6.16039 16.9368 -1.52865 -1.31335 3.98853
2542 1 -11.379 -7.66018 -21.5177 3.20714 -5.13243 1.84086
2543 1 -15.607 -5.25221 -6.6892 -3.03032 1.41813 3.06485
2544 1 11.9346 2.85198 7.99945 -1.41548 -4.85559 1.98039
2545 1 -10.9842 12.5143 -20.002 1.37726 -1.49445 -1.08466
2546 1 -12.7514 0.838511 12.9797 0.471686 -1.10896 -1.29647
2547 1 -13.9305 -2.86413 5.93225 -2.97803 0.810062 -1.64078
2548 1 16.9715 -8.2514 -8.51559 1.83972 -0.825678 1.62675
2549 1 8.06554 11.623 -17.019 -4.42365 3.05545 -1.08542
2550 1 -20.0376 -17.4017 -18.0288 -1.62811 2.05794 -0.447637
2551 1 -6.42832 16.0719 -15.2473 1.91334 3.75524 3.49302
2552 1 -0.560948 -15.747 9.11493 0.859192 0.408216 -0.387861
2553 1 0.795801 26.1641 16.1158 -4.98715 -3.08873 0.163879
2554 1 19.4352 24.7763 -7.05339 -3.44699 2.84798 4.4338
2555 1 8.07268 15.9053 -8.60481 -2.91616 -3.76574 -0.183254
2556 1 -10.5381 -14.2009 9.52957 -2.31414 3.42749 2.91301
2557 1 18.7442 -23.5066 -13.7889 -2.25256 -2.87476 -1.25519
2558 1 -19.7171 7.98494 -21.2852 6.02952 -1.23555 -4.79819
2559 1 -16.5228 9.38601 2.64642 -2.67664 3.58126 -1.06981
2560 1 20.1844 -21.0504 9.09742 3.09806 -2.59526 2.86093
2561 1 -10.4686 -3.06109 8.10625 2.97233 -0.73835 -0.603357
2562 1 -19.2793 -4.88133 -7.55866 -4.56937 -5.12019 4.32385
2563 1 19.2557 -2.07454 -19.1149 7.14527 0.497741 -0.660456
2564 1 -10.4872 -15.6306 -10.8974 2.70706 0.988421 -1.10358
2565 1 12.6953 18.9435 13.4609 5.35377 -1.54941 -2.0754
2566 1 21.2095 -10.5651 14.2861 5.71419 3.60219 1.13944
2567 1 -14.7515 1.14923 -18.1042 7.43287 1.78666 0.79278
2568 1 18.6356 -11.411 -18.4959 2.19253 -2.02127 5.3714
2569 1 -22.3162 -16.5367 -14.2692 -1.33026 5.11795 -0.755924
2570 1 -23.8609 16.7787 -16.0563 0.671823 0.905992 2.85039
2571 1 14.4297 1.78111 19.7498 -1.57582 -1.27083 -0.179777
2572 1 -22.6755 -18.5672 -3.89083 -3.40124 1.26245 0.643475
2573 1 19.972 -24.1358 -5.60464 1.85534 1.07372 -0.060038
2574 1 -19.3797 -23.2531 -7.72852 1.01454 3.33406 0.570771
2575 1 1.81353 15.5024 2.91927 0.0203066 -2.57503 -2.71929
2576 1 22.6383 21.1001 14.0181 3.48332 0.881581 -2.64879
2577 1 13.7555 23.0253 -5.87723 6.89191 -0.97405 2.19161
2578 1 -18.848 -16.7713 -3.47895 -1.66025 -1.41404 1.6532
2579 1 -8.42939 7.38481 1.15175 -1.40075 -1.37895 -1.30258
2580 1 21.6155 13.3478 -21.9863 0.54171 -3.48543 0.103516
2581 1 -6.30955 16.2409 21.3475 2.31361 0.241104 1.66413
2582 1 12.7733 24.29 9.78525 2.11993 -1.28578 -1.9463
2583 1 7.73935 20.7684 0.402383 1.66122 0.611401 -1.57219
2584 1 -11.2118 -20.4009 -9.5695 5.2842 3.23162 0.606637
2585 1 17.8544 -14.0242 22.2602 -6.74424 -1.26699 3.49207
2586 1 -15.2716 13.9368 12.9946 -3.02896 -0.780178 -1.28014
2587 1 15.5593 -11.7686 8.17258 -5.20126 -1.85999 4.10251
2588 1 17.695 1.06018 -16.969 -0.851493 -0.656162 -2.71199
2589 1 1.42112 -9.1882 8.23112 1.49822 1.13736 1.67837
2590 1 15.3757 3.31789 -11.3348 -1.9815 -0.240595 4.3787
2591 1 -0.152432 45.9416 11.1207 -1.85302 -0.346817 3.58556
2592 1 -0.0299851 -19.8067 8.83227 1.91835 6.75964 3.22642
2593 1 -23.0554 -6.97099 -23.8871 2.43102 1.22869 -4.19538
2594 1 -22.7798 -7.43071 15.9662 -0.48841 -4.03644 -0.164738
2595 1 -0.97861 -18.8309 -20.1381 2.33126 0.876262 5.23229
2596 1 -14.6475 11.5324 -21.1266 -3.46341 1.61092 -0.114768
2597 1 -17.8285 -2.1845 -17.4039 0.0925438 -3.78314 -3.48286
2598 1 15.2582 -0.629459 -4.46206 -4.79812 -0.843282 5.11735
2599 1 -5.84343 2.53573 8.44714 -0.204958 0.343779 -0.810958
2600 1 4.23574 23.2546 1.66772 2.45058 7.65151 -4.80132
2601 1 0.0270013 7.70216 6.66208 -0.121442 -1.59035 2.08121
2602 1 -1.85074 -11.3383 -3.57169 4.34261 -1.3919 1.27275
2603 1 22.8824 17.6043 -7.03378 1.87844 2.01302 -3.4124
2604 1 15.3867 -12.5505 -9.11477 -3.85877 3.62414 -0.831299
2605 1 -17.2465 5.62493 -5.25952 -2.68173 11.6632 -4.64099
2606 1 16.2195 16.4035 20.3536 0.828197 0.18636 -2.72522
2607 1 14.9278 2.19755 -22.7659 -0.867601 2.04082 3.22917
2608 1 14.0174 -19.9469 -22.5492 -2.2419 -0.464777 3.56767
2609 1 -13.8373 -3.08644 -19.0018 -1.88574 0.196723 2.29821
2610 1 3.80147 2.19139 -16.228 -2.4273 2.51803 0.271216
2611 1 -21.4054 24.3321 -19.7872 -0.346486 -2.07484 3.83313
2612 1 -12.8812 -18.2788 18.4053 0.444652 1.69498 1.01886
2613 1 -24.2572 5.76166 18.2242 0.136921 1.27581 0.780478
2614 1 -12.7813 12.5276 -17.3756 2.23319 1.14951 1.02429
2615 1 -3.46988 0.14666 15.7984 -0.147617 7.02773 1.79524
2616 1 -21.2824 -3.50515 -9.02858 -2.71593 -1.20608 3.02657
2617 1 -4.83125 12.32 -15.2242 0.739715 -2.17597 3.05786
2618 1 -6.79559 -16.0252 -13.3126 0.864341 -1.44846 0.33907
2619 1 -4.47359 9.83564 -20.8527 1.21145 0.346028 -2.55776
2620 1 -10.3356 14.49 6.76787 -0.958132 0.241137 3.04208
2621 1 3.81108 -23.5952 5.6483 4.71181 -1.26833 2.89596
2622 1 -2.35688 -16.374 22.7698 -5.31418 1.75943 -2.63979
2623 1 -17.6589 18.4654 -17.905 -2.48744 6.09032 -1.74218
2624 1 -17.0073 18.8715 -6.24669 -2.24962 -5.57678 1.31624
2625 1 -9.10031 -3.22868 19.2436 -0.188532 -3.37352 0.454763
2626 1 -3.59713 -0.132513 23.6714 4.35418 -1.38483 -1.1984
2627 1 14.2602 22.206 8.81449 2.43897 -1.39644 0.791701
2628 1 11.4566 -9.00506 -20.3847 -1.91293 2.52139 2.00504
2629 1 -22.2288 -2.70139 7.72215 -3.90996 3.60751 0.668017
2630 1 -12.9847 -9.23353 18.5287 -5.06906 0.739893 -0.797082
2631 1 17.3327 15.4024 1.08383 2.65427 -1.85684 0.372125
2632 1 20.0385 -0.891873 -16.6524 6.56522 0.155324 -1.83653
2633 1 -5.05791 -19.3121 -11.4323 0.932178 5.17387 -2.30244
2634 1 -6.91731 10.4094 -23.6753 -0.233638 -8.41367 0.346702
2635 1 2.44498 12.1028 21.2303 -3.35827 -0.0817568 4.2462
2636 1 -12.7647 -20.2339 14.4556 -0.520903 1.94158 5.05695
2637 1 9.51225 -16.2481 -19.9024 -0.410654 1.82214 -4.01405
2638 1 11.9295 2.67011 -3.09313 -3.64119 2.63362 -1.88551
2639 1 -2.68795 -8.37747 20.945 -3.85666 -0.0503077 0.371668
2640 1 6.65075 14.0337 -16.6588 2.05456 6.44833 -2.66657
2641 1 -22.1631 8.94538 -14.2126 -1.843 -3.6294 6.36789
2642 1 -5.21225 -18.7233 3.66151 -1.01589 -1.91864 -1.35781
2643 1 -3.38119 -16.5162 -22.2625 -2.44295 -0.549545 4.4306
2644 1 17.7507 -20.7249 -13.4291 4.80994 -1.17307 4.31638
2645 1 5.5931 -23.4121 15.2184 -1.06025 1.61804 3.31002
2646 1 -7.99855 9.06749 -1.28218 -0.713475 -0.0969119 -1.34746
2647 1 -11.6706 5.19932 3.81485 -3.31963 4.85494 5.00406
2648 1 19.4029 0.473901 -0.794305 3.19732 3.60205 -4.6093
2649 1 -18.3133 20.3351 -10.805 -1.5814 1.71657 -3.12414
2650 1 -2.10878 10.4701 14.6353 -1.66872 0.358274 -4.40737
2651 1 -15.6294 -19.9875 14.0416 -4.78757 -0.419963 -1.88507
2652 1 -14.8924 -5.8413 -15.281 -0.971792 1.44256 -1.93893
2653 1 -10.59 9.16103 -2.62892 -0.160422 0.670591 -0.899515
2654 1 20.6296 -10.9687 -2.96109 2.54619 1.67911 0.55044
2655 1 -7.17793 -8.82321 1.18238 -1.6748 -2.42413 -1.24575
2656 1 -3.54897 9.00779 -18.0449 4.26222 -2.66761 -0.640835
2657 1 -7.23166 -7.26094 5.79025 -1.72747 -6.28707 -0.914007
2658 1 -5.15594 7.30253 16.8383 -5.12786 -1.40517 0.484476
2659 1 15.1478 -5.14177 -20.8681 -3.55038 -4.91416 -0.553477
2660 1 -12.7736 23.7304 13.5402 2.29887 3.19432 -1.61992
2661 1 7.0657 4.3852 21.2533 1.60838 1.46799 -1.42186
2662 1 -21.5826 -24.2734 11.3468 -5.3069 -3.36617 -3.4739
2663 1 -5.70974 8.84907 22.01 -4.22363 4.81233 2.62758
2664 1 -17.7602 18.0199 -22.7719 0.932877 -0.501947 1.28347
2665 1 22.0806 5.6801 0.326656 0.144948 -1.31394 -0.652944
2666 1 19.9533 -23.5731 0.714419 -1.34899 -2.75212 0.306337
2667 1 -7.33306 -7.0675 -5.31991 -1.40586 -2.58256 0.0741934
2668 1 -8.84342 -18.4928 -22.6763 4.59157 -4.40582 -1.5907
2669 1 -1.08694 -7.82327 18.7301 -2.79622 -3.00589 4.83278
2670 1 23.5777 23.2037 -15.0687 3.24634 0.0531382 -2.96496
2671 1 7.95587 20.1384 20.865 1.40121 -1.55434 4.82521
2672 1 5.73407 -5.1076 10.3649 2.25566 -4.0848 3.7351
2673 1 -12.8294 -22.1655 -1.86014 -0.0425346 -3.1616 -1.63374
2674 1 -7.7147 -20.3652 -3.55903 -2.1303 1.28089 -0.0614776
2675 1 20.1402 2.55439 -11.6415 3.05375 -3.96667 -1.84084
2676 1 21.8427 24.1684 -17.0892 2.53255 0.266024 0.344132
2677 1 -1.36151 -22.8873 3.17306 -3.08079 5.83392 0.770581
2678 1 2.00351 -21.2564 -17.3918 -1.74758 -4.3906 3.57726
2679 1 10.5266 -0.811581 -2.74518 0.436676 -6.4435 1.63087
2680 1 12.0058 -2.46897 -10.3328 2.19534 4.24933 -4.92868
2681 1 -15.2251 -6.9546 -19.4881 -2.48176 -1.85436 -4.08282
2682 1 -19.4716 1.07041 14.2745 0.720338 1.32269 -3.15254
2683 1 -17.6089 7.15411 -17.4939 1.61069 -0.933351 2.39339
2684 1 21.4686 -12.8087 4.13606 3.18647 5.31608 -1.96737
2685 1 2.24288 -9.28368 5.71374 -2.9817 5.05963 1.37956
2686 1 6.97425 -22.9255 -18.6864 3.1428 -5.67055 -0.36803
2687 1 19.1998 -15.6579 -9.09559 -0.286135 4.20918 2.78268
2688 1 -17.9084 -4.48425 -0.199726 -1.16611 -1.16452 0.812944
2689 1 -7.55473 -3.20327 -8.2213 3.42137 5.42926 -2.202
2690 1 -13.1347 -9.57501 -16.9429 -4.05276 3.81821 0.285103
2691 1 -19.4054 46.6889 19.6301 2.14878 4.92103 -3.53164
2692 1 4.60098 0.678539 -9.854 0.0202656 -1.90944 -2.2127
2693 1 13.0769 18.4296 -19.6364 0.120416 -3.06572 -1.97697
2694 1 -4.79541 -13.3936 19.1654 2.55798 -1.95266 0.2546
2695 1 13.7862 8.17055 11.674 -3.16894 1.82054 4.0527
2696 1 22.7412 -17.8503 22.2864 2.04504 -1.32302 -1.48194
2697 1 5.59136 1.51248 -2.88367 6.0287 -0.403091 -5.25659
2698 1 13.3112 -12.6421 22.6696 0.677302 2.06378 -2.76977
2699 1 -14.5335 14.846 -0.955172 -3.37436 2.41896 -1.01059
2700 1 -7.91462 -18.6807 2.26816 1.08536 4.713 -3.22402
2701 1 -21.0286 22.8675 -0.631216 0.742424 -3.29181 2.57074
2702 1 -7.424 20.274 -17.0673 -0.602089 -1.38726 -3.37346
2703 1 14.906 -3.12368 -10.6097 -0.303928 2.87358 -1.01228
2704 1 4.21997 -23.5121 1.3076 -0.74642 -1.84978 0.728951
2705 1 -2.49432 -6.91232 6.76415 1.5609 -1.95655 1.54979
2706 1 2.81276 -23.8597 21.6413 0.213099 3.74193 -2.55575
2707 1 -10.0806 -13.8974 3.31287 -3.27913 -2.06243 -0.923402
2708 1 -9.69061 1.37384 22.4238 -3.27259 -0.977361 4.0245
2709 1 19.8593 -5.70888 22.529 2.95086 0.802198 -5.846
2710 1 -2.91458 13.6843 20.4702 -0.260007 -5.36713 0.167641
2711 1 -14.7745 -4.31359 23.2085 -0.879271 -3.47212 -1.66103
2712 1 14.5288 12.0329 2.73007 -1.29862 -2.42208 3.17111
2713 1 -22.913 2.47148 -5.61248 -1.65119 -2.76087 -1.70107
2714 1 -19.6045 5.78774 -9.14421 -8.22697 -0.00316986 1.99807
2715 1 -9.19194 11.8099 15.9523 5.72677 0.887365 1.90792
2716 1 16.4606 12.6557 0.79006 1.02677 -1.9604 0.504491
2717 1 9.17408 22.3534 11.6291 -1.46294 -2.07521 -2.12047
2718 1 12.1197 -15.1374 -23.673 -0.953824 -3.56559 -0.421368
2719 1 16.7413 -8.72045 2.56919 -3.76589 -4.58076 1.74456
2720 1 -15.879 -9.74149 -19.8626 -4.00194 -4.34707 -1.90404
2721 1 4.54204 -11.1479 11.3284 -0.848883 -2.24998 -2.24267
2722 1 -10.8776 18.3067 -6.69448 -6.25163 -1.22013 3.5723
2723 1 -4.52663 18.9074 15.9155 5.35146 0.181908 -2.25163
2724 1 -5.1514 3.31042 5.72307 5.40207 0.392793 4.16162
2725 1 -0.960112 10.2122 -15.1134 0.792399 5.3309 4.16664
2726 1 -12.4052 -5.55668 -22.9485 -0.845292 1.59879 -1.60847
2727 1 -13.4362 -19.2461 -1.67567 -1.70142 -2.09554 -2.84369
2728 1 20.3803 -3.86766 13.6037 -1.82607 -2.45852 1.63732
2729 1 -3.34537 -21.8156 -19.9611 -0.40445 -2.48697 1.48037
2730 1 -7.6674 -15.5394 9.26842 -2.4078 4.00695 0.337301
2731 1 -23.6637 25.4496 -6.11269 5.26286 -1.42741 2.36745
2732 1 2.0718 4.07681 3.9554 -0.360305 -1.45354 1.55594
2733 1 -7.87682 10.0462 -17.6882 -2.59719 2.50131 1.3495
2734 1 17.2644 -9.13206 22.4326 1.5097 -2.24914 3.13139
2735 1 -4.7265 6.72263 -14.7222 3.386 4.26943 4.56312
2736 1 18.5314 15.1279 21.9598 2.04735 1.85252 3.51383
2737 1 -20.6071 -18.9287 0.930667 -0.369446 2.00021 0.036768
2738 1 -7.28992 8.47896 15.2484 1.45897 -2.71236 -2.82235
2739 1 -14.0714 -7.06358 19.7659 -2.79616 -0.747263 -0.81584
2740 1 -13.8956 -14.9176 -20.0114 0.98915 -0.166155 -0.311162
2741 1 -8.67388 5.09182 5.01146 3.46059 -0.808798 -1.04132
2742 1 -13.1153 13.9702 6.73067 -0.669943 6.18913 -0.265185
2743 1 3.87106 -19.9195 -6.29333 3.50998 4.27858 3.49273
2744 1 -16.2867 -19.4598 -23.2968 -3.63424 4.4067 3.13941
2745 1 -11.9925 22.2945 1.3467 -3.79858 -1.74171 -2.17787
2746 1 6.04685 -13.385 -5.52227 4.36696 -2.91317 4.64202
2747 1 0.374026 1.42664 17.4924 -0.542712 -2.18226 -2.19606
2748 1 -3.29824 -0.713564 -8.44077 -2.88342 2.4975 1.61237
2749 1 -13.1959 -6.89191 22.4768 3.07052 4.99299 -1.44281
2750 1 -13.5797 24.7671 -19.8665 3.95132 3.26355 -0.471957
2751 1 6.57372 -22.7158 6.79598 -5.36419 -2.23352 -5.50579
2752 1 -9.93081 18.7629 -10.3734 6.66667 -4.92317 -0.594009
2753 1 -1.75109 -6.78684 11.4212 1.03339 3.67586 1.90809
2754 1 -12.7318 24.2576 -0.402983 -4.75404 0.893962 4.84014
2755 1 2.17665 -14.4982 17.6598 -3.26046 -1.73984 -2.76239
2756 1 -23.9348 10.608 21.7357 -0.624 3.10482 -4.04805
2757 1 19.8173 -16.239 21.4037 0.515455 2.31382 -1.96842
2758 1 23.4953 -17.6661 -10.5041 1.89643 -1.08269 -0.0332074
2759 1 -18.6721 -15.6788 10.1014 3.67166 4.68713 -4.17448
2760 1 0.0878416 13.6702 -16.4503 3.64967 -1.34982 -4.26686
2761 1 -5.48027 -16.3296 19.1156 -0.527129 1.64981 -0.609288
2762 1 -12.7586 9.99351 9.64522 -3.35493 -2.48984 -0.736973
2763 1 -5.34278 -12.5588 16.6247 1.57742 0.257776 -1.69568
2764 1 8.65831 22.3584 -13.7938 -2.34781 0.365864 1.2023
2765 1 8.81457 -18.4641 -22.0373 3.37002 -2.0559 6.73844
2766 1 6.46448 12.105 20.3956 -2.27405 -5.72978 -4.49396
2767 1 -10.1001 -18.3193 -19.8388 -0.584936 0.817746 1.62112
2768 1 -6.50655 22.7851 -0.0695569 -4.95844 3.39682 -1.34398
2769 1 -18.108 17.0418 17.1787 -0.493605 -1.99566 -0.00194514
2770 1 20.8926 10.7623 2.56394 -2.15732 -6.56151 -5.1801
2771 1 -15.1342 -16.2938 -17.3339 1.79771 -2.05669 -0.637643
2772 1 -12.7636 17.6872 -20.3245 -0.936155 -2.39544 -6.99586
2773 1 8.80281 22.3831 4.82442 -2.25263 -3.73518 2.61117
2774 1 -22.5739 -0.43719 -14.2973 2.34584 -0.979324 -1.30498
2775 1 -4.32399 -19.864 13.9501 -2.04662 -1.51411 -3.02314
2776 1 13.4473 4.85949 -7.8066 -2.27614 1.31667 -3.06535
2777 1 -13.492 14.7776 4.01379 -0.559824 1.25238 -1.07947
2778 1 -23.7732 16.8269 19.5258 -0.725454 1.51587 4.77083
2779 1 23.0636 14.1601 17.0685 -3.95246 5.04974 0.201392
2780 1 -12.615 0.198922 -7.77121 2.17255 2.28998 -4.44604
2781 1 14.9253 25.5923 10.7811 -2.78637 -3.63568 -1.8453
2782 1 8.98767 -7.67579 15.3549 1.55944 -2.99998 -2.56284
2783 1 12.0061 -6.7626 -14.1407 -1.92617 2.67812 2.43859
2784 1 -11.5006 0.400315 -2.43442 -1.65246 -0.256577 -1.18214
2785 1 -23.8248 -0.970811 -11.6951 0.883132 -0.162357 -0.315844
2786 1 6.10157 -4.14491 1.60712 -2.1524 5.66201 5.62
2787 1 -11.6967 14.3423 -1.85289 -2.5861 2.35409 4.57506
2788 1 -18.2841 13.8031 9.81671 4.42399 -2.30805 -2.41559
2789 1 11.9236 -7.06251 -6.30901 -3.07904 0.475057 -0.556141
2790 1 -7.96135 -2.56562 -16.3523 -1.69577 -3.54367 5.38831
2791 1 21.6449 13.6591 -5.08525 0.193032 -0.857302 4.18292
2792 1 -8.16105 -4.6889 2.30226 0.697265 -0.836402 -2.42863
2793 1 -5.14489 -0.0821096 7.73411 1.12799 2.78769 1.48424
2794 1 9.62984 16.0389 -10.7926 -0.00373935 1.69497 -3.02635
2795 1 15.7806 16.426 -19.8869 0.483186 4.8976 -2.34743
2796 1 18.3887 -17.1413 12.0326 -3.66987 -0.152419 2.06339
2797 1 18.3241 -9.69648 -20.9395 -0.156871 -1.72512 -2.26453
2798 1 -20.3051 -1.46009 -4.27815 -5.31767 1.49202 -0.847112
2799 1 -1.60311 -18.2644 -6.84316 0.463632 -2.50634 -0.63715
2800 1 -8.57571 -14.0681 -15.9546 -3.9279 -3.40062 7.13166
2801 1 0.65336 15.2092 5.81089 -1.52558 -3.78974 -0.922705
2802 1 8.88358 11.2483 -11.0928 0.364592 2.42884 0.228847
2803 1 23.2838 -3.58536 -12.3661 3.49971 0.0419774 1.5207
2804 1 -17.3574 14.0026 -10.4482 -2.00687 -0.148917 -0.347473
2805 1 -14.9545 5.14015 -9.54582 -2.88713 1.03209 4.04258
2806 1 -4.52898 20.8809 -17.1954 3.32672 1.82592 3.68503
2807 1 -20.4183 20.2194 0.860525 4.05382 4.38344 5.75217
2808 1 2.93565 46.8143 -10.4883 3.06957 -1.2165 -1.39035
2809 1 -12.441 17.5124 14.9632 0.880877 0.385869 -3.17196
2810 1 6.0076 22.9617 -14.6373 -0.164184 1.04067 4.36566
2811 1 -13.7436 12.3262 1.9449 -1.69584 -8.78752 -0.265008
2812 1 -12.7753 -0.960691 19.172 -1.48676 4.79983 -3.29193
2813 1 -2.20261 -7.72595 -16.0554 -1.71537 3.77151 0.966518
2814 1 22.6972 -6.40228 -6.85127 -3.42896 -2.16682 -2.61012
2815 1 18.9813 8.39434 8.25068 -3.94338 -6.36538 -5.49348
2816 1 2.16208 -17.0401 19.0838 2.87375 -2.73685 0.410309
2817 1 7.44433 -18.5228 22.993 1.3759 -4.62452 -1.7758
2818 1 3.83577 -0.825704 -0.0408548 -0.70847 2.64246 1.79432
2819 1 15.6544 13.4577 13.9013 2.96292 -2.83789 0.735991
2820 1 -15.9629 21.9328 10.2613 0.108178 -1.81664 3.32229
2821 1 17.4241 -16.726 -14.3375 0.439625 1.63518 1.66607
2822 1 -15.7324 -4.02182 3.61317 1.95565 1.13676 2.19294
2823 1 14.0408 -15.1098 7.80986 -2.38529 6.96068 3.07852
2824 1 5.10186 12.688 15.6818 -2.75082 3.56862 4.37923
2825 1 15.8908 21.2072 -11.3942 2.4965 0.274427 -0.381086
2826 1 9.44119 -17.6763 -4.07011 -1.72157 -3.30532 3.50695
2827 1 2.86469 -11.6075 -22.554 2.56532 -0.983882 -1.68981
2828 1 2.41839 -5.33466 -21.3465 1.67308 -4.7104 4.7151
2829 1 18.1984 -22.6599 10.1278 -2.53643 2.01581 6.65295
2830 1 -23.3587 7.31306 0.387335 2.9995 2.03966 -2.53398
2831 1 17.8756 5.90711 -12.8 1.3287 -0.705904 3.38762
2832 1 22.7346 -18.8524 -6.67091 1.08065 4.42709 -2.13168
2833 1 -22.2136 2.08133 5.67979 -3.87162 5.58838 -0.000771077
2834 1 -12.2482 -16.4131 21.8754 0.500446 -1.2707 -0.440111
2835 1 0.248027 5.52723 -1.90753 1.09206 -0.30905 -3.86971
2836 1 -14.3432 20.0572 -7.45665 0.726754 -0.623086 -0.317453
2837 1 -17.1076 13.2336 -5.97754 -5.61814 6.03494 -3.42396
2838 1 21.6322 -12.8646 21.9591 -1.09195 -1.31264 3.24218
2839 1 -18.3211 -2.25887 -21.9157 1.04943 -3.005 -0.855941
2840 1 3.68387 -20.9332 -23.3422 0.813845 -2.22703 4.51436
2841 1 14.9349 -19.3349 -4.36113 3.34158 1.17489 0.696024
2842 1 -5.19159 -12.4421 -13.4838 -3.01994 -1.43421 -1.82344
2843 1 14.7418 6.55955 -20.6323 -3.43773 -2.36532 2.95008
2844 1 20.5289 16.7898 6.93339 0.413145 4.04412 -4.87277
2845 1 22.1365 3.09081 -21.1029 5.12588 3.28409 1.43773
2846 1 -20.3191 0.484892 3.89295 -1.87411 1.46673 -3.57659
2847 1 7.73747 14.1592 -1.56477 -1.07687 3.37874 -3.20368
2848 1 -18.4942 46.8676 -10.2216 1.43551 1.73514 3.7119
2849 1 -19.6109 -22.8451 12.9989 -2.31292 0.0992324 9.24434
2850 1 2.18201 4.74073 -9.97413 0.346905 0.063672 1.06561
2851 1 -6.86189 25.2219 19.1753 -0.226766 -2.47991 -1.52106
2852 1 6.40036 -2.42904 -0.963331 -0.630963 -4.51237 -2.20899
2853 1 -0.72654 25.9094 21.6883 -0.630814 1.89842 -4.0507
2854 1 6.43208 -6.69134 -3.26797 3.7113 3.86423 1.67903
2855 1 -18.1805 -6.35619 -19.06 1.64604 -3.03327 -0.816789
2856 1 16.389 -13.5585 1.26948 -3.80573 3.16175 -0.608845
2857 1 18.0126 13.2813 7.80237 -0.727798 7.80472 -3.74034
2858 1 11.1061 -2.84785 -21.7623 6.40541 0.502413 0.580166
2859 1 -22.4108 -23.2837 -19.1295 -4.2816 -2.07647 -3.31544
2860 1 -22.4217 8.44105 20.162 -1.25816 3.82495 -1.43134
2861 1 13.1239 13.3632 20.8408 -5.45203 -2.96139 2.64486
2862 1 11.4294 -0.141769 -16.3386 -6.10325 -2.11545 -1.54657
2863 1 -22.6516 -18.6058 -17.6405 0.804358 0.382354 0.601376
2864 1 -16.7313 14.2474 17.1058 3.10983 -4.20003 -0.487938
2865 1 4.40706 11.8484 1.75843 -2.56497 -1.94888 -0.741758
2866 1 -18.3508 23.8423 -6.09613 -2.61148 3.23606 -1.31052
2867 1 -20.6411 15.344 -13.2865 1.88222 -3.96903 -0.502289
2868 1 1.12048 45.8758 20.0179 -0.0914988 1.91539 -4.35438
2869 1 -18.9871 -13.0003 19.2222 0.449731 5.74175 -1.97151
2870 1 -12.4774 14.8865 -10.6269 0.31932 -2.04455 -3.24064
2871 1 -16.2787 20.409 -21.806 -6.41458 2.64076 4.35654
2872 1 5.13805 10.7063 10.0846 -3.16737 0.527312 -1.02142
2873 1 -11.3744 -1.45865 5.76224 -3.04289 4.92639 -2.09552
2874 1 -1.18598 -10.8245 -12.0205 7.23024 0.619687 -2.02419
2875 1 -23.2921 -7.96602 -8.28508 -5.15436 -1.84865 -1.59377
2876 1 21.7582 -23.9157 -23.1595 -4.51487 3.21887 -8.38254
2877 1 10.3256 -4.92158 5.06827 0.691039 2.1852 0.210887
2878 1 -17.9763 22.6456 -12.2848 6.48085 3.46406 1.21497
2879 1 -0.693644 16.9585 2.89333 2.12064 -0.411925 -3.89878
2880 1 -0.984647 0.186498 14.0671 -3.08444 1.58705 2.12977
2881 1 -15.8473 13.4766 -19.3472 0.89209 1.70175 -2.03283
2882 1 -21.7607 -17.7466 18.919 0.688531 -3.28393 6.19734
2883 1 12.747 -10.7193 0.952593 -2.94257 -2.77174 -7.99921
2884 1 8.43337 -7.83396 -22.2141 0.163688 -4.26061 -3.2584
2885 1 -5.70152 4.58644 -4.0701 -0.220354 -6.80251 -1.15902
2886 1 11.9044 24.2472 2.00796 1.8126 -0.119579 0.583632
2887 1 21.8314 18.8804 19.002 -0.906595 -5.54633 1.96979
2888 1 -12.5396 4.30137 -23.8099 -6.55723 -1.6697 5.02683
2889 1 3.46378 -2.18593 6.70815 -3.63057 0.870742 3.91094
2890 1 -6.21629 -5.49398 22.9381 -9.96189 -1.04829 -5.27254
2891 1 9.45669 -5.10444 19.3209 -3.25457 0.0347482 1.10647
2892 1 18.9417 21.5953 -10.5884 -3.24127 -2.12437 -0.236534
2893 1 -10.1797 -16.1129 -23.9259 -2.75663 -7.41228 -0.338367
2894 1 -7.06685 6.36846 18.7729 -2.66838 0.592863 -1.56381
2895 1 -18.7445 18.0687 21.2016 -2.70836 1.26641 0.540393
2896 1 -12.0517 3.58114 15.8401 -5.67546 -2.22797 2.97827
2897 1 -3.17756 14.4644 -0.176595 -2.04954 4.50955 1.15825
2898 1 -9.00804 -8.33007 -22.8721 0.319773 -2.36245 -0.307859
2899 1 -4.79338 -23.6603 17.45 2.83509 -1.4777 0.660693
2900 1 17.3471 5.06216 23.8895 1.35538 0.985705 3.05606
2901 1 -10.777 -15.8509 -15.2638 2.64196 4.4896 0.0568701
2902 1 -21.5203 0.605257 -20.649 0.64974 -0.259712 -0.864574
2903 1 -15.325 -14.7601 4.40191 5.70381 6.51277 -0.799302
2904 1 -8.7146 11.7486 -0.491623 -1.17584 -3.29209 1.63266
2905 1 -18.6918 21.7362 22.2457 7.1031 -5.10367 -3.91175
2906 1 12.9425 3.23872 17.8089 -4.20613 -0.928024 -3.98016
2907 1 -15.657 23.9322 -5.78056 -1.18738 -0.410913 -1.00788
2908 1 -4.90468 13.134 12.6958 0.613769 -4.87988 1.66368
2909 1 -6.49076 -2.42826 22.7144 -1.36156 -3.03978 -5.15533
2910 1 -12.4042 11.3468 19.8552 0.945444 1.88288 -4.37635
2911 1 0.26857 4.59894 -18.5602 -2.3314 4.00919 6.61207
2912 1 11.885 -17.2219 -10.5629 2.23604 2.57372 -0.634161
2913 1 12.8958 5.14767 -2.09828 2.22739 -1.14719 -4.97974
2914 1 -2.28043 -0.115218 10.1435 -4.95439 -5.17706 -6.50577
2915 1 -13.0295 -11.5876 -22.2767 -5.10541 2.4458 1.87976
2916 1 22.1247 22.7476 -3.63972 2.09363 1.90425 1.15414
2917 1 -5.81736 6.00818 7.21394 -1.93474 -0.00860137 0.417173
2918 1 19.1472 7.34702 -8.04171 -0.887141 0.827663 -1.80569
2919 1 22.272 -18.6875 -2.81365 2.812 -2.57367 1.10819
2920 1 21.8167 13.9562 4.27121 6.12417 3.1935 -5.90698
2921 1 -18.5295 23.4775 9.97881 1.81732 -0.235552 -2.01612
2922 1 -17.3294 -22.048 23.6943 2.00585 0.111939 3.91955
2923 1 -14.3841 2.11911 16.7767 1.99811 -3.90822 -0.725053
2924 1 -0.620673 -17.254 -22.5484 2.89476 3.33528 0.241001
2925 1 18.0174 -8.02032 14.9075 1.82572 2.95628 1.64683
2926 1 -9.24315 7.80656 -15.0627 3.47288 -2.08299 0.196217
2927 1 11.4199 5.10771 3.78191 -3.62452 -7.55068 -1.5339
2928 1 -22.6942 45.1631 -8.4406 0.960087 -0.32773 4.36626
2929 1 9.02105 -13.8254 9.91798 5.47909 -9.82043 -1.97051
2930 1 -20.2448 4.95024 -4.81662 -4.50932 2.42847 1.43244
2931 1 0.571653 -10.2687 23.8779 0.948789 2.00252 4.31747
2932 1 7.21848 22.8688 19.8235 -2.13759 -3.33797 -0.896391
2933 1 -23.7639 -4.95732 14.8997 0.462082 -1.699 -3.04594
2934 1 10.691 1.38107 -22.0667 0.836223 -0.442903 -2.59702
2935 1 8.45636 24.1556 0.130114 3.34554 8.40208 -2.32928
2936 1 -23.8556 8.09592 -5.29295 6.45918 2.97928 -0.442379
2937 1 -18.9503 4.30316 -13.06 -2.35586 2.48211 1.21198
2938 1 -5.42246 -6.61902 -1.57848 7.297 -4.19067 1.51704
2939 1 -12.1289 19.4796 4.71276 -0.538748 3.74559 -1.28341
2940 1 15.1366 17.8505 -0.612606 3.05835 -2.60517 3.70666
2941 1 -3.81055 1.99213 -9.93481 -1.78748 -1.65672 -4.29493
2942 1 -21.5234 12.0393 22.943 -3.8457 3.10339 -1.03877
2943 1 22.5461 6.2722 8.3254 2.37586 0.771784 0.410395
2944 1 8.03407 46.7625 15.8923 5.99276 3.75248 1.19387
2945 1 -6.60496 13.9514 -8.60875 -0.518217 -4.96986 2.06491
2946 1 9.77182 0.624741 11.2637 2.27996 -2.85395 -2.48319
2947 1 15.2343 -16.7901 -21.1492 2.44124 3.55169 5.10934
2948 1 1.58607 -19.0189 -0.624978 -2.06033 -0.0893125 -1.38736
2949 1 -8.53619 -21.0616 -23.7017 -2.99877 0.0785584 2.631
2950 1 -22.536 14.5038 4.69016 -1.50182 4.06523 -4.79788
2951 1 13.0613 -12.804 -13.1592 3.87929 -1.42788 1.71865
2952 1 -12.8159 22.9677 -21.9914 2.48418 1.71825 5.26014
2953 1 16.1952 4.00014 2.10637 0.0723621 2.8521 3.355
2954 1 -15.1786 -1.47022 10.8451 0.613669 -0.882534 0.860844
2955 1 11.5688 -8.61371 16.3189 -4.69779 -1.16318 2.59145
2956 1 -15.735 19.1947 -1.89661 -2.37633 -0.453543 -0.717606
2957 1 0.0300348 -20.3983 16.3176 2.67629 -1.30895 -3.84121
2958 1 8.12733 -11.0113 -9.47945 -2.65854 -1.57565 -2.45546
2959 1 -15.5379 18.18 -20.0483 -6.13796 4.06632 -3.06249
2960 1 -14.227 0.174251 23.7858 -3.34165 6.78419 -4.24803
2961 1 -10.3592 -12.3961 -21.3684 3.73878 -4.4477 0.996861
2962 1 -5.92762 2.3647 -15.5571 -1.34211 -2.98916 -3.89412
2963 1 -23.4481 10.4114 -3.83817 2.3335 -6.10054 -2.67993
2964 1 0.737952 -20.8973 -21.2582 6.21009 -4.54247 0.578137
2965 1 21.129 0.260194 -14.112 4.76212 -1.08482 4.99567
2966 1 -2.13402 -23.4383 18.6641 -0.795465 -3.68034 2.53702
2967 1 -0.704138 13.9477 10.316 0.384342 5.21195 -4.07906
2968 1 -0.881254 -14.1006 2.31183 3.36572 2.59727 0.872945
2969 1 -6.61717 2.19022 15.9188 2.49232 0.375454 -1.33885
2970 1 21.8107 -14.7152 -13.5522 -0.273779 3.51207 2.459
2971 1 -4.61053 19.5854 8.5424 -1.66744 -2.22316 -0.235037
2972 1 -8.86405 10.4345 -10.661 1.62332 0.708769 3.7406
2973 1 -14.2433 16.9745 19.876 1.89804 -0.674716 0.611827
2974 1 19.7554 -2.67374 22.1362 -1.45412 -1.83939 -3.60266
2975 1 14.8271 9.25812 -1.4044 2.31488 3.79051 -4.75918
2976 1 -21.6549 19.9396 -13.2097 1.51369 -3.655 -1.60878
2977 1 5.11927 -10.4752 -1.75474 -4.35928 -3.26286 0.404148
2978 1 14.557 17.1954 -17.5063 -0.980106 -0.376477 2.98478
2979 1 6.92574 6.12772 16.3385 -2.32618 -6.24187 0.682128
2980 1 -5.10243 13.4118 -4.04753 5.3765 -1.78572 -2.44213
2981 1 -14.9627 8.26188 17.5055 3.63065 6.6766 -3.7067
2982 1 -12.5744 -6.61693 6.66506 1.50134 5.378 -0.166263
2983 1 -9.45686 15.085 -22.8911 3.30592 -3.17459 2.12299
2984 1 0.0353358 -1.12111 23.3866 -1.38896 -2.01338 1.50251
2985 1 -13.4831 -14.1163 9.23284 0.967461 1.99614 -0.124777
2986 1 -6.05671 17.9934 -20.239 1.58756 -3.86996 -1.24484
2987 1 -22.2777 45.2738 -5.45225 -4.21755 -0.130878 0.635514
2988 1 0.840134 -22.1386 -4.83216 -0.626299 1.78479 -5.37773
2989 1 22.6326 18.4171 -11.8855 0.068918 -3.55829 0.888609
2990 1 13.7876 -17.6701 16.4348 -1.90835 -0.0537056 4.58902
2991 1 5.8572 2.18655 14.1066 -0.326577 -1.82606 -0.831877
2992 1 19.8631 13.3808 -12.0775 2.58826 -1.82903 -1.83538
2993 1 20.9763 18.0142 15.1662 2.90552 2.48826 -0.901927
2994 1 15.9181 0.286298 14.3633 0.677911 -1.49183 0.839361
2995 1 -2.34667 14.1631 -2.91817 -0.768258 -2.3157 -2.25282
2996 1 8.05005 3.38387 6.82351 -0.860897 -0.860641 2.26947
2997 1 -6.83511 -16.9524 5.37574 -0.237816 -0.428559 0.826667
2998 1 3.27497 -15.2195 14.9662 -1.93817 -0.623104 0.782897
2999 1 14.0333 -17.9774 0.532559 2.37326 1.477 -2.97921
3000 1 -2.13612 14.3088 15.9014 3.16877 1.93637 -0.194945
3001 1 10.5447 15.9578 8.0405 2.18201 0.770351 -2.51317
3002 1 -20.611 20.2763 17.4101 -1.06433 -1.46452 2.22694
3003 1 17.3822 12.2172 12.0083 -2.45244 2.68963 2.16914
3004 1 18.9851 18.7029 -17.4496 0.195911 4.17939 1.32832
3005 1 3.84582 1.94021 -5.30574 -1.97915 -1.19551 2.75661
3006 1 17.44 13.5297 -22.4066 4.39226 1.96635 0.15568
3007 1 -9.39719 -23.5844 -20.4006 -0.990957 4.40087 -2.69715
3008 1 -3.53826 -20.8097 -23.4603 -0.610962 -2.1697 -1.05288
3009 1 -14.8109 -23.6974 7.68285 1.73783 2.73088 -4.46233
3010 1 -16.8447 -18.4385 -13.9055 -0.914769 -0.219575 -1.35023
3011 1 -5.71314 -1.0247 -12.0822 -2.05939 0.0618054 -3.31131
3012 1 1.4144 45.4134 -21.0796 4.81634 0.734932 0.748927
3013 1 13.147 -19.003 20.065 2.57536 -2.40399 -0.986622
3014 1 23.4148 13.0539 23.4082 3.22244 -0.161309 1.5681
3015 1 -5.45716 8.79719 7.11446 1.59735 5.46015 1.42525
3016 1 19.0438 -14.8607 -17.6626 -0.676419 0.467694 2.46134
3017 1 -16.7297 5.08899 18.881 -6.72011 0.652136 2.32781
3018 1 -19.2074 -2.03946 -10.6946 -3.13879 -4.66274 2.52315
3019 1 -20.1959 -19.1072 12.4136 -1.13716 3.31839 -2.24379
3020 1 -15.3145 -9.66443 7.22212 -0.334849 -1.17157 -1.08816
3021 1 -18.9373 24.948 -3.33019 -0.700953 1.27456 2.7223
3022 1 14.5137 -11.8229 -1.49815 2.57702 0.66305 1.22901
3023 1 2.62115 17.175 -4.2242 1.01779 -0.330718 4.71802
3024 1 -22.9732 8.33895 3.11379 3.57011 3.20884 1.38682
3025 1 4.07603 -22.5932 8.4949 -1.98801 -1.99988 -1.26599
3026 1 6.24192 -19.2341 4.19903 1.2737 -0.875322 -3.58265
3027 1 12.6535 0.899403 11.029 -1.09448 1.83021 1.7385
3028 1 -9.61041 12.8822 20.7369 0.773504 -2.59754 4.66208
3029 1 6.88411 4.92376 13.5551 1.5099 -5.54081 -7.9131
3030 1 -16.3617 18.1019 -10.6969 5.08302 -1.47671 -0.018643
3031 1 -22.8585 -8.11276 -17.3728 -2.1554 -2.02502 2.99991
3032 1 17.7137 -11.344 -6.32047 -0.492806 -1.1103 -3.42063
3033 1 -10.7182 2.93931 5.50339 -0.305665 4.97376 4.41788
3034 1 -16.1594 -4.58305 -17.6626 -1.2321 0.549324 -5.60041
3035 1 18.1983 15.5482 5.92404 -0.861619 -0.865237 -7.19074
3036 1 14.1972 18.7397 20.7864 1.24267 -3.23388 -0.0285948
3037 1 -2.20807 -9.86993 7.40484 1.74965 -2.17834 -3.43398
3038 1 -16.5055 -23.4683 -15.3886 -0.315103 -1.75009 2.56027
3039 1 15.5119 -20.7145 20.4434 -1.22726 -1.60521 0.592599
3040 1 6.8414 -20.9637 14.1494 3.1625 0.669051 2.35094
3041 1 -21.1797 23.568 2.45978 2.31524 -0.979975 8.10766
3042 1 -10.3199 19.4216 15.8011 0.476192 0.250833 -1.38996
3043 1 4.15913 -13.7098 -17.997 1.17949 -2.72216 -2.38565
3044 1 -5.62993 17.173 -5.12866 -2.841 3.34706 -3.46176
3045 1 0.358672 -5.80388 6.06909 -2.65098 -5.10663 3.48632
3046 1 16.5779 -8.05139 -14.3706 -0.21615 -0.452816 -0.919394
3047 1 4.54463 18.5862 6.85795 1.86401 -0.305883 -1.24662
3048 1 6.62711 -11.9076 23.6665 -4.43492 0.857369 -2.25573
3049 1 -10.6152 -19.6516 -14.4039 -2.571 -1.1684 -0.766276
3050 1 1.91372 46.3521 17.4576 2.63869 -3.47411 0.359149
3051 1 -15.6308 1.39961 -12.3707 0.32649 -1.50379 4.39927
3052 1 -21.5408 12.3521 -13.9702 -0.543197 -0.898714 1.72925
3053 1 22.5457 -23.6505 -0.634241 -1.64015 2.02585 -3.07933
3054 1 19.3227 -5.18174 -22.53 1.96661 0.434724 -1.996
3055 1 20.9796 2.17141 0.960293 -4.26295 4.94485 -2.24842
3056 1 -22.4489 12.9397 14.3713 -2.04374 4.49364 0.968503
3057 1 19.605 7.14426 17.503 3.53971 1.65501 4.704
3058 1 11.0012 -4.33301 10.6856 0.380313 2.41366 -4.17459
3059 1 -10.8388 -23.4516 -5.48302 3.29867 -1.96957 -0.215335
3060 1 -21.1662 23.8703 -6.11388 1.01547 -1.66737 -2.06195
3061 1 -11.3366 25.4306 -16.2509 2.76946 0.854628 0.299539
3062 1 -9.65332 15.4547 -17.1384 -2.42263 1.17624 3.87595
3063 1 10.5437 22.3731 -15.7631 -1.25494 -2.27928 -2.82244
3064 1 -1.14203 17.5328 -21.9558 0.105313 -0.585255 0.26675
3065 1 6.11744 -12.8787 -14.4193 -1.09877 -1.73359 -0.233308
3066 1 -22.4059 -0.984076 0.378041 4.02059 0.261252 0.183633
3067 1 17.2187 22.351 -13.7502 -2.28146 -0.059575 -0.0333987
3068 1 19.5428 17.3369 -2.94611 0.946355 0.0301177 4.48249
3069 1 8.48563 -8.48684 -6.63581 0.885933 -0.617426 -1.59945
3070 1 21.2769 -9.73274 1.09291 0.499281 -0.910829 3.79412
3071 1 -4.04048 -3.62586 -5.64086 1.28849 -3.20899 -1.25809
3072 1 -0.10089 9.18253 22.5816 1.54751 -1.04152 -2.04159
3073 1 2.52275 20.3985 -1.1554 -3.55895 -2.91781 0.655513
3074 1 -9.43384 -5.94387 6.97967 -1.56013 -2.02836 -1.83738
3075 1 16.4609 13.4008 22.5324 6.21372 -4.2138 -3.0376
3076 1 -11.359 20.7795 9.45492 0.896861 -4.38629 3.37576
3077 1 -15.3661 45.6509 -6.91934 5.43165 1.77243 0.954674
3078 1 -20.5653 6.66478 -15.6413 0.999649 -3.33869 2.94578
3079 1 13.4908 -6.21513 -3.50245 -2.73724 -3.23867 3.12536
3080 1 -20.8254 11.1395 -8.24906 -0.0100989 -5.53914 -3.87265
3081 1 -18.9337 7.93696 3.85257 -2.44792 -1.39125 1.41855
3082 1 -4.79948 3.80323 -23.3125 1.85578 -1.40539 -4.99811
3083 1 4.73754 -17.1583 -10.644 2.69987 3.11102 1.11538
3084 1 -16.7691 45.6847 6.52838 -0.81674 -1.12046 1.1149
3085 1 -12.9213 -4.38041 -7.08838 -3.84326 4.00207 -0.274777
3086 1 13.7921 20.1642 0.971315 2.82085 1.04583 6.8816
3087 1 -9.35771 -23.9363 12.1882 4.44314 -1.96427 -3.33315
3088 1 10.9669 4.68021 16.2892 -1.54856 -0.96897 2.64992
3089 1 9.49875 -22.2324 15.3663 4.14269 -3.29693 -0.187005
3090 1 21.6911 -3.27694 -4.90061 -2.1105 -0.30922 -1.05721
3091 1 -1.95955 -1.14804 21.3163 0.273771 -2.60095 -1.18555
3092 1 -8.77608 -8.23254 18.7846 -0.100367 0.631763 -2.63166
3093 1 -14.5996 6.26199 -23.19 2.35719 5.05608 4.64188
3094 1 13.4827 6.05098 19.1777 4.19077 -1.45406 0.0715383
3095 1 -14.8968 -13.1696 -1.25444 1.59667 4.77597 2.07395
3096 1 3.37058 3.87864 -21.2405 -3.9484 -2.92193 0.46168
3097 1 -7.96538 -10.5885 -21.4714 -6.43201 2.37506 -2.60862
3098 1 -11.9184 -18.9509 3.70371 2.12922 6.32857 1.28488
3099 1 -18.8727 9.68784 20.0639 -4.68928 0.163145 -1.489
3100 1 16.8919 -8.35023 -18.8446 1.58758 0.63752 -1.55969
3101 1 -24.441 -16.9999 -19.6623 -3.60242 -0.60576 -2.26393
3102 1 4.17288 4.94766 23.7977 3.03954 -0.428056 -0.759701
3103 1 -5.24338 -12.65 -22.8505 5.49966 -1.16756 1.946
3104 1 -23.1839 -7.20325 6.42022 -0.0773948 3.65156 -0.909206
3105 1 22.4095 -5.56267 20.865 -1.77519 -5.35398 -1.74317
3106 1 1.78936 -12.9217 -6.11587 -1.67553 -4.10931 0.139903
3107 1 20.427 -16.958 -23.7671 -2.67596 -2.59549 2.11411
3108 1 10.1807 -16.6905 -6.74226 -0.118427 -4.99102 -6.48989
3109 1 6.68439 3.80787 1.97826 3.43773 -0.45813 -1.47911
3110 1 0.992182 9.5075 1.15884 1.05488 -0.290613 -0.350184
3111 1 9.83849 -22.0933 -13.7613 -7.14873 3.5334 2.72262
3112 1 -0.0119817 -15.4688 -20.1271 -0.0075424 -1.06555 4.17793
3113 1 5.29982 -11.4187 -16.6724 -1.05038 -5.46799 3.9114
3114 1 2.99849 3.95804 -18.1008 6.57785 -1.48616 3.71161
3115 1 -21.397 18.6054 -15.9027 3.33287 2.468 4.29171
3116 1 -11.1596 17.0383 -1.22711 2.49356 4.05423 1.64062
3117 1 10.192 -14.3309 -11.0117 1.57467 -2.2342 1.8784
3118 1 5.2818 4.87149 6.50564 3.92736 -1.00047 6.2675
3119 1 -9.75807 -6.65745 4.06822 3.89276 0.646251 -0.8591
3120 1 -10.4669 -2.10078 -19.8726 1.59809 -2.56419 4.64014
3121 1 -2.71751 -24.0707 15.2379 0.44806 0.630858 1.10706
3122 1 -13.7151 22.3929 21.4098 -4.48221 1.40352 -0.495581
3123 1 13.8047 16.632 12.0623 -1.85351 1.04906 -3.57646
3124 1 -15.4966 10.4913 -9.36054 -1.45348 1.78009 -2.76352
3125 1 -3.63528 -14.8809 2.11949 -1.48028 1.67723 -3.87583
3126 1 6.43926 8.02384 -6.88683 0.00482477 -2.07857 4.01368
3127 1 15.0411 4.46535 4.84015 -2.53686 -4.54943 2.41646
3128 1 3.52865 11.368 -15.3365 5.36311 6.92659 -5.15648
3129 1 -0.0919066 -10.849 11.7426 7.82174 -0.239878 -1.53416
3130 1 20.7906 -7.8162 13.721 0.677188 0.573065 -2.89053
3131 1 -11.046 15.4198 2.71934 1.21565 0.0275243 -3.97406
3132 1 -0.505017 10.7094 6.06614 4.65361 -3.14233 0.37575
3133 1 -0.172928 11.9734 -12.5938 2.70551 4.23238 3.81616
3134 1 19.5399 8.73174 -2.07553 -3.96071 0.0653477 2.77786
3135 1 -20.1213 -13.9922 -1.694 0.621434 -1.93118 -4.62515
3136 1 -18.0288 -21.9548 4.67242 -0.996459 -4.67376 -1.01759
3137 1 3.63658 -8.52984 -19.0993 5.22408 2.68587 1.09007
3138 1 16.7717 -2.61683 -20.9956 2.94867 2.76842 -0.771305
3139 1 5.59096 8.1258 -11.2239 -4.17015 0.383627 -4.58165
3140 1 2.73844 20.3845 -18.9853 2.14298 0.604821 -0.253809
3141 1 13.0929 -4.37857 -7.09328 -6.67923 0.527125 1.12185
3142 1 6.60028 26.2088 -20.4604 -3.09334 0.59019 -4.40283
3143 1 22.826 23.7525 -22.1727 1.68857 -1.57111 -5.39711
3144 1 -5.83356 10.9065 -0.317783 -3.58884 2.34982 2.0195
3145 1 15.6502 -17.0422 9.58606 -4.55403 -0.847761 -0.62127
3146 1 -1.93775 8.81448 -7.59665 -0.0774849 2.47361 0.175208
3147 1 -0.237001 -18.9306 1.90363 2.06681 -2.09563 2.35907
3148 1 7.20777 -5.24678 4.91111 2.37202 -1.15257 -3.92785
3149 1 9.88182 6.69948 -18.6393 -0.484623 -1.03903 4.97503
3150 1 -22.321 14.0225 1.85676 -6.01468 -5.22459 -2.04834
3151 1 -11.275 -23.2806 -15.9801 -1.86864 -2.8108 0.0188298
3152 1 -13.1591 14.6271 -19.711 -0.0956905 0.65047 -0.299435
3153 1 14.3676 5.04306 -23.1418 -6.29413 4.4753 -2.035
3154 1 2.72234 19.6294 5.04365 2.23411 -7.88368 -1.5923
3155 1 -2.06815 -12.2898 4.24423 -2.07623 -3.19498 3.64429
3156 1 18.7518 -2.69167 9.59294 0.181829 -2.6859 -3.18521
3157 1 9.82149 2.71917 3.54205 1.59643 -6.32273 1.92884
3158 1 20.6418 -22.7215 -8.17924 2.50551 2.41084 -1.63189
3159 1 17.9301 4.81816 -7.93244 -0.734223 -0.253533 5.7296
3160 1 -12.0352 -22.3831 23.9528 2.89951 1.85741 0.424052
3161 1 -8.45516 -17.2107 -6.14764 -1.69606 -2.97581 -1.94255
3162 1 -14.536 -12.7281 -12.4737 2.59981 0.798191 -0.691366
3163 1 22.303 -0.566363 16.2968 0.79631 0.276975 0.00523944
3164 1 -20.6275 2.01844 20.6379 -0.282252 3.1441 4.60993
3165 1 -6.18378 25.0995 -15.5573 -2.9448 4.44001 -6.68341
3166 1 15.5056 -8.66732 18.4018 4.3617 0.00434991 2.06
3167 1 21.0466 -18.3095 -18.9416 -2.67518 -3.16003 1.24359
3168 1 -16.1961 -22.0691 15.8303 -3.09616 0.0945066 1.24252
3169 1 13.1087 -22.3877 -20.8126 -3.36312 2.51964 1.72132
3170 1 6.41679 26.8728 22.7623 2.90094 -2.41041 1.3738
3171 1 -6.97456 13.5091 -22.2394 0.219164 -2.20384 1.85041
3172 1 -7.97654 2.15363 4.98787 -0.731837 -3.50861 -6.21156
3173 1 9.19242 19.6476 10.8551 -1.3155 1.02038 -1.10237
3174 1 -22.5663 11.6507 -10.4082 -4.2132 -1.02029 2.43588
3175 1 19.5846 3.98958 -5.89743 1.21727 -0.824598 3.81276
3176 1 22.881 3.95328 15.9301 -2.68103 -2.09127 -1.10985
3177 1 1.43957 -14.9586 -23.2213 -0.0122914 -3.19692 0.739775
3178 1 16.8152 18.8044 13.3456 1.05703 0.782995 3.98332
3179 1 0.86926 -2.21388 19.1165 2.03917 -2.68428 0.235355
3180 1 -4.14795 11.2928 4.20174 -6.14304 -0.551388 -1.49246
3181 1 -19.9635 -12.4474 22.1402 2.19072 0.554955 2.87983
3182 1 -17.0909 44.946 20.6575 -4.77507 0.449839 4.73508
3183 1 21.998 16.3078 -4.61616 1.40372 0.827815 1.02083
3184 1 12.6469 -3.83267 4.14967 -0.0508736 -2.9015 -1.14958
3185 1 -15.9314 21.784 -19.3309 -0.883402 -0.996488 -0.399643
3186 1 -5.99413 23.2114 5.80608 6.27164 -3.1528 -0.0315055
3187 1 -22.4131 -14.0931 3.56504 4.12951 0.00322518 -0.305816
3188 1 -18.1512 16.318 -12.1689 -1.37195 0.130514 -0.504348
3189 1 15.3812 11.6807 8.15384 1.29411 -0.739798 3.80017
3190 1 22.7059 19.4925 -16.7453 0.301339 -4.143 2.25602
3191 1 6.81749 -5.64207 -6.15963 0.159983 -1.78528 0.551092
3192 1 22.9742 9.91819 0.564773 8.12188 -1.65743 -1.19936
3193 1 -18.2878 22.2026 0.474658 -3.55178 -5.79983 0.58252
3194 1 -19.4916 -8.60198 1.36308 -1.23038 4.80497 0.221583
3195 1 -16.486 -1.45053 4.92384 1.92838 -2.55707 3.50009
3196 1 -0.0130749 -2.84663 -4.45814 0.111345 0.269191 0.641209
3197 1 -2.43178 7.84115 4.75483 -1.02495 -0.305825 0.562945
3198 1 12.7055 4.96483 -16.7013 -2.36918 -1.12115 3.59448
3199 1 15.1037 -22.9267 6.44402 -2.01331 -5.49629 4.62195
3200 1 -23.4502 -4.27019 -3.78009 -1.76699 1.75358 -3.93325
3201 1 -13.8357 -3.20099 20.6226 1.48131 6.36517 -1.47451
3202 1 -17.3173 -11.2395 -9.97162 0.890176 -6.23063 3.16555
3203 1 18.7261 10.3156 19.5116 -3.49199 -0.943034 -2.37444
3204 1 -18.1363 -8.06139 10.5081 0.150967 -4.33081 -6.81233
3205 1 -12.9422 2.65604 -5.07374 -1.99906 2.87552 -0.648551
3206 1 15.6698 11.7405 -4.04196 0.55174 4.29402 -1.88147
3207 1 1.16507 -3.54772 -23.2525 -3.00009 1.46544 -1.45324
3208 1 2.95834 -9.48551 0.450654 -2.41561 -8.30676 -4.24982
3209 1 15.9694 -16.3797 22.2883 2.61006 -2.57134 -0.677605
3210 1 -14.3685 11.6049 -2.91714 -3.91216 -0.393618 4.9559
3211 1 -2.61453 21.055 12.4726 0.581897 1.04624 -0.355936
3212 1 -13.8847 7.94264 -20.9076 -2.84658 -2.71253 -3.45589
3213 1 -0.366358 1.10161 -14.6811 -1.54976 1.9082 -0.978642
3214 1 -5.51998 16.2536 18.5178 0.210262 -2.18939 -2.72406
3215 1 9.44052 3.66488 12.3412 -2.4 -0.0734782 -1.25387
3216 1 -24.0767 -0.573444 8.6032 1.29363 -5.03948 5.82998
3217 1 9.46066 2.95044 9.46358 2.16506 4.59354 1.20076
3218 1 -5.83839 20.3969 -8.50418 3.20901 1.19554 -0.753191
3219 1 -8.5997 -22.1003 -16.2813 0.915762 2.10095 -5.02258
3220 1 -2.896 -10.0738 17.8302 -0.698501 1.44754 -3.23088
3221 1 -2.38262 -5.79208 -1.70737 1.72164 -0.209371 -2.4416
3222 1 -16.4755 -18.5481 2.32123 -2.19919 0.405871 -2.86231
3223 1 21.3571 6.78745 20.0371 0.357779 -0.864884 -1.67168
3224 1 -2.54538 -9.83803 0.554594 -2.86099 0.211289 -1.97266
3225 1 -8.31331 -5.87302 13.7247 2.19267 -2.53737 -1.08829
3226 1 -23.1337 26.8292 -8.57462 -1.67821 -1.31107 -3.30377
3227 1 6.47578 22.2804 -3.58274 -4.44097 3.90168 3.41967
3228 1 -11.579 10.233 -9.24541 -0.0367848 3.97615 -0.68352
3229 1 -5.53533 1.77975 -4.40738 1.58342 -4.40447 2.22769
3230 1 22.4499 18.1578 -23.0395 3.17692 -3.56298 0.807839
3231 1 -18.344 -17.213 -0.72725 2.99954 -2.8561 0.290707
3232 1 -22.4182 12.104 5.86682 6.77377 1.73687 3.02629
3233 1 -5.66157 17.4035 6.96354 -1.33846 -1.82301 1.93002
3234 1 8.59182 -6.32799 -13.8751 2.91646 1.40679 1.17644
3235 1 -7.03361 12.766 -11.2675 0.0875269 -1.12704 -6.41747
3236 1 16.4053 19.004 8.41293 -0.357817 6.92 0.57353
3237 1 -3.19103 -11.8156 23.3162 1.55794 -6.63471 -2.49963
3238 1 20.2948 19.7514 -4.37995 -0.657674 0.274214 -2.41844
3239 1 -14.7352 -20.9729 8.30882 -1.62495 4.33215 4.89678
3240 1 -13.1447 -17.4098 -15.6038 -0.897595 -1.11849 -1.16402
3241 1 -0.160755 -23.243 16.6415 0.827457 -3.45112 3.72227
3242 1 22.1036 -11.0065 -15.1585 -0.754242 0.319135 4.08601
3243 1 7.13825 20.8766 23.4138 -1.18402 4.60121 -5.53631
3244 1 20.2675 16.3342 -15.0287 -1.02339 -3.54306 -0.55094
3245 1 -8.92615 20.8307 11.1836 1.28303 -2.10401 -1.45997
3246 1 19.2705 1.28385 5.08745 0.735047 -1.83204 2.14592
3247 1 -6.83869 8.82282 -12.0126 -2.3865 2.65357 1.48132
3248 1 8.74763 5.52115 -1.56058 -0.810694 0.716702 2.53707
3249 1 7.96973 -3.46216 10.3709 -1.56426 2.43725 -0.0179816
3250 1 14.5849 10.1096 -17.3275 -2.82101 0.631729 -6.1688
3251 1 -0.871401 19.4697 13.8611 -3.34581 -2.75181 3.03659
3252 1 16.8181 -22.7696 15.2233 0.364788 2.09608 3.33082
3253 1 7.97294 16.0369 0.609516 -0.97265 -5.45293 -2.27111
3254 1 19.7523 5.49287 -10.4587 -2.5028 -1.58283 -2.52985
3255 1 -18.7158 13.3685 -20.0599 -0.758334 -1.80037 -2.44272
3256 1 -7.62038 18.12 -8.71002 2.71575 -1.13272 -2.26796
3257 1 -10.9318 7.36997 17.4842 -3.94206 -2.15503 -2.44064
3258 1 -21.0929 -10.4783 17.7516 1.29355 4.31602 -0.0560682
3259 1 16.0043 19.671 2.74704 3.34716 -1.87703 1.26536
3260 1 18.9445 45.146 -7.4184 7.0844 -2.66018 0.540125
3261 1 -13.4456 -1.28607 -16.732 -0.289235 -1.24352 -0.0380107
3262 1 7.68314 7.48021 12.3627 1.45064 0.290579 -2.44441
3263 1 23.0784 3.35663 21.5379 -0.686772 -1.15368 3.25394
3264 1 9.38241 7.62715 21.6619 1.28284 -1.67244 -2.11769
3265 1 5.0296 -7.55628 -15.8138 7.04743 3.50236 -2.59856
3266 1 8.77239 -0.241196 22.5115 6.66937 -3.05117 -1.41014
3267 1 -14.6924 8.18979 0.336862 -7.15426 4.72265 3.21838
3268 1 9.93992 -21.9383 9.28802 9.34108 -4.75095 -1.53013
3269 1 5.37216 20.3517 -1.56309 4.50721 4.0901 8.33316
3270 1 16.0533 -15.3788 12.0826 0.978741 -1.6206 1.49692
3271 1 8.18074 -10.9108 19.0425 -1.18312 -2.0119 -2.65391
3272 1 2.43706 10.9972 -7.60287 1.1423 4.27193 0.717658
3273 1 -15.4997 8.15888 -13.1897 0.29938 -3.13459 -3.67794
3274 1 10.4621 -17.9819 5.41038 -1.14164 -1.69524 -3.20037
3275 1 20.0196 6.61361 10.1946 2.74844 1.23081 5.80251
3276 1 8.20419 3.48697 15.8687 -2.49665 -4.62527 -4.14229
3277 1 -0.773013 -16.1734 4.57006 0.66492 1.60506 -2.5046
3278 1 -3.48832 -6.58046 23.2227 0.10021 -2.95855 0.0465279
3279 1 8.65158 -0.833308 19.7258 -0.706937 1.10665 -3.6747
3280 1 9.93341 18.6579 13.3411 -2.66476 -4.94385 -0.954174
3281 1 -2.92469 -15.1189 11.7067 0.471711 4.57737 0.535407
3282 1 6.18195 0.491926 -12.2872 -2.47561 -3.10353 0.973531
3283 1 -2.21756 3.40874 13.0299 4.12493 -0.375475 1.04581
3284 1 15.84 24.7885 -19.936 -2.08111 -0.913157 0.206978
3285 1 -0.587128 19.2202 -15.2767 0.598242 1.83307 4.27904
3286 1 -16.2319 19.4867 3.19658 1.64247 3.78683 0.713457
3287 1 -2.84855 -15.7802 15.6327 2.08305 -2.76849 -3.22374
3288 1 1.37794 8.45175 -19.2742 -3.51606 -1.61022 2.779
3289 1 -16.3438 45.8196 11.0092 -2.40393 4.68377 3.25516
3290 1 -15.1031 21.8448 15.9022 -5.11494 -2.25641 0.196504
3291 1 21.8432 24.2004 -12.6528 -0.456231 0.938444 -0.34028
3292 1 -22.8051 24.94 5.29387 4.12288 -2.68328 0.937524
3293 1 -9.83053 10.2973 23.8547 0.956346 2.1706 0.44738
3294 1 -21.5313 2.23935 -14.9902 2.57225 5.97321 6.43397
3295 1 5.86397 -23.9968 -1.11319 1.75806 3.92012 3.26103
3296 1 -15.5643 -12.0383 16.6147 -3.8628 -6.96191 -1.06022
3297 1 -18.2095 22.0595 -22.8995 2.98298 3.70528 -3.47551
3298 1 6.32541 -10.0805 -19.1882 1.62804 4.90859 2.53553
3299 1 -13.4617 25.4113 -6.35489 3.08394 0.675838 -0.841243
3300 1 -1.6664 6.00693 -10.2263 1.75938 -1.3975 -0.0827953
3301 1 21.8734 7.75636 -7.36095 -0.0457255 1.6189 -2.52016
3302 1 -17.4608 -9.96736 -22.4435 -0.748181 1.23497 0.171883
3303 1 -24.1253 46.7481 -14.6255 -1.13704 2.27609 5.29832
3304 1 -1.18599 16.8725 14.7563 -1.08235 0.871507 -0.553884
3305 1 1.1047 4.51973 -4.54074 -2.95551 -2.51098 1.88977
3306 1 -7.07895 10.8063 -20.6456 0.0796439 -5.66669 -1.4931
3307 1 -17.9611 13.5915 20.6091 2.55118 -0.682684 -2.06186
3308 1 -14.7473 19.5695 -4.63926 -0.881408 2.58135 -2.64392
3309 1 2.49062 -0.633181 11.6288 0.286254 -1.13154 1.53972
3310 1 14.0081 22.4941 5.91217 4.40076 1.37523 -2.01568
3311 1 9.41073 0.624552 -10.4234 -3.08754 -1.12096 2.88909
3312 1 23.0229 7.7668 16.1647 0.146987 4.8526 0.280309
3313 1 12.185 10.5405 11.1574 -3.31856 -0.404175 3.89584
3314 1 -0.790798 -3.97988 11.1327 -0.845888 -0.557756 2.07035
3315 1 20.6654 -13.2284 -19.3316 -1.8025 1.51394 0.283641
3316 1 1.88764 -6.81077 -9.2106 0.710199 0.783939 2.91871
3317 1 0.916081 1.39686 3.22946 -1.12478 6.69224 -0.511192
3318 1 -10.0009 -0.336518 15.5347 -1.3828 -0.0771185 0.822972
3319 1 1.49138 0.188355 -16.6362 -0.360128 -0.974227 0.989391
3320 1 5.64613 4.13989 -14.8302 1.49888 -0.949629 1.60031
3321 1 -8.42846 -16.7982 21.6213 0.733687 -0.580438 -0.73836
3322 1 14.891 -12.3418 -22.481 -0.902649 0.330445 -1.10221
3323 1 -2.28412 17.083 17.599 -4.79772 0.458312 1.21837
3324 1 10.3517 -19.4262 -9.52792 -0.503226 -0.867867 0.559745
3325 1 -8.94616 14.6767 4.3617 -0.991265 -2.93954 -0.0731432
3326 1 21.4661 7.37868 -23.2341 4.53892 -7.01662 -0.899409
3327 1 8.53558 -23.6711 -7.62212 4.26005 5.1188 0.140532
3328 1 -2.03354 -16.9368 -11.6716 1.56287 -0.13445 -0.963547
3329 1 12.3537 8.52713 -14.8919 2.66659 5.95016 -0.275621
3330 1 -8.86696 18.0621 -15.8753 4.60459 2.42856 1.802
3331 1 -20.3839 -3.62766 -1.81613 2.8754 -4.41623 -2.51092
3332 1 -2.78446 8.13252 22.1667 1.73731 -1.32343 -0.134511
3333 1 3.5912 -7.04561 22.1424 1.08436 -3.66152 0.846872
3334 1 -19.9478 21.8448 15.0543 -0.373677 -2.8617 -0.642162
3335 1 19.099 1.22768 -4.91071 -0.154193 -1.85865 -3.22275
3336 1 13.821 -12.6396 3.11709 1.42968 0.262962 -3.95535
3337 1 -15.3288 10.8705 10.7449 -0.381408 0.649497 3.82292
3338 1 8.72985 19.9689 15.9055 -3.35354 -5.0757 2.29717
3339 1 10.3141 18.4204 -19.756 2.06766 -0.824198 2.3
3340 1 19.6371 0.530881 -20.5698 3.13553 -1.24661 -0.269889
3341 1 23.3455 20.3758 -14.2157 -0.855413 1.16328 -0.975079
3342 1 -1.88541 2.41145 3.55469 5.32013 -5.44411 -1.9406
3343 1 -22.6643 -4.84105 -14.1581 0.432937 -3.49483 -5.04011
3344 1 16.7327 -18.9184 18.4116 -3.68138 -1.80325 -1.6476
3345 1 12.5338 21.8069 22.9685 -1.09435 3.06953 4.83671
3346 1 9.91768 -22.956 0.424028 -1.2053 2.09401 1.09262
3347 1 -24.3073 11.913 -13.4009 -3.99579 -1.43744 -0.480805
3348 1 -10.4556 -18.698 1.10979 2.32863 -4.50758 5.54898
3349 1 15.9148 18.7538 -13.1223 -2.07791 2.75172 1.9129
3350 1 -5.80302 -4.82585 13.1901 -2.06696 -0.507243 2.58599
3351 1 -23.7596 -10.6365 14.0102 4.90353 2.61578 0.438042
3352 1 4.74482 15.7125 7.01549 0.51206 3.98167 -0.728438
3353 1 -23.5693 5.98147 21.0127 -2.39951 1.15088 -3.53764
3354 1 -14.0102 7.58425 -2.43964 3.16312 -0.86281 0.520027
3355 1 -16.1085 -17.7603 -6.00585 3.50479 -1.62578 2.49258
3356 1 -9.55656 20.9634 7.02738 4.88677 4.18435 2.34177
3357 1 7.18782 -6.02292 23.329 5.492 0.583025 4.27071
3358 1 -2.53523 21.4549 15.521 -3.31351 3.54906 6.47413
3359 1 -4.9936 22.8513 12.8116 -2.09838 -0.0710827 -3.07338
3360 1 -5.5598 -16.6449 16.0653 -1.39924 -0.244814 0.208353
3361 1 -6.01373 23.7934 10.4488 0.0423875 4.85434 -2.73625
3362 1 -5.94376 5.09921 -16.5626 1.34292 -1.23964 0.323164
3363 1 13.6385 -4.42947 -14.5884 0.8904 -2.84277 4.65886
3364 1 -21.4191 -8.82221 -0.806886 -0.916675 -1.76663 0.995746
3365 1 3.27785 -8.7528 10.3917 4.1037 9.04938 3.41405
3366 1 -19.7416 -23.8801 -17.956 -0.00366859 -1.35932 1.48187
3367 1 0.621864 -18.1119 -17.8417 3.07159 -1.77391 0.889334
3368 1 19.5373 -19.8263 17.8912 4.96361 -5.04492 -2.35948
3369 1 -2.93224 -1.77659 -10.9875 2.72943 -2.59885 1.66894
3370 1 -20.1562 -16.1582 -12.5559 0.819757 0.161423 2.46853
3371 1 -5.09812 3.1896 13.2478 2.31965 -2.00608 1.14821
3372 1 5.44018 -3.70212 -8.88667 0.326041 1.87557 -0.893446
3373 1 16.1047 -4.76906 22.3124 -3.58344 -4.46933 -2.15028
3374 1 22.9034 -14.2995 -20.924 -2.48061 1.42559 3.05076
3375 1 16.8613 -10.7212 0.403357 0.636232 3.28336 -3.59797
3376 1 -17.7065 5.75648 11.5899 -2.49069 -10.0842 -0.838059
3377 1 4.40561 -10.5613 14.1097 1.30357 2.29644 -2.72557
3378 1 -6.77034 -16.9316 0.356743 0.208957 -4.55834 -1.31764
3379 1 7.81691 -6.36618 7.73226 0.919923 3.36322 0.540155
3380 1 -0.000809021 21.613 -22.4394 1.68174 0.830403 -1.47304
3381 1 -6.75779 -18.4979 -20.3287 3.811 2.87632 1.26908
3382 1 -22.1428 14.2274 18.8815 0.0869189 1.73573 -0.402762
3383 1 -19.9371 25.0548 -17.482 -1.49102 2.06807 -5.67758
3384 1 15.0331 -21.7381 -13.7019 1.35517 -4.85835 5.52204
3385 1 -3.72383 -19.9135 -5.30664 -0.305743 3.84167 0.250005
3386 1 12.6422 -11.6762 -20.6578 0.558466 3.28526 3.56893
3387 1 -18.9672 -3.17915 2.05062 6.32528 2.92984 -0.67695
3388 1 -19.7726 -2.32796 17.7159 1.56976 0.339541 2.19217
3389 1 -9.80948 -11.555 -12.51 -0.335778 0.751801 -1.24979
3390 1 -21.5226 -21.0414 14.259 0.0564541 1.4165 -3.68953
3391 1 -8.50732 -11.8789 4.57713 3.91802 -3.04133 -6.82391
3392 1 -8.10098 5.35898 -18.7865 -0.982516 -2.69763 1.15597
3393 1 -10.1228 17.08 -19.2447 -1.84171 -1.01382 2.14592
3394 1 -12.3573 -4.03063 9.72929 5.83848 2.36554 -3.37991
3395 1 13.0044 -14.9092 12.1236 -2.20871 0.638242 3.73185
3396 1 -21.222 7.27453 -6.29996 1.41542 1.86474 -0.797332
3397 1 -4.6039 1.63721 18.2927 1.27235 0.202726 -3.6208
3398 1 -6.55944 -21.0785 -5.95549 0.56435 2.38284 1.17795
3399 1 2.08123 -2.97798 -0.174228 0.180805 1.00308 -4.68194
3400 1 16.6819 46.3818 -20.438 -0.136174 4.7666 -1.30369
3401 1 -21.4941 -24.3093 -13.513 -3.51893 -4.08774 1.9161
3402 1 12.3755 -18.4647 -18.9059 -2.95869 0.808732 -0.698213
3403 1 -13.8762 -22.0604 1.08771 2.22103 -3.6279 -2.38091
3404 1 -18.0588 -10.1788 -1.09914 -1.28767 -2.98072 -4.01826
3405 1 14.419 5.45107 13.308 2.56793 1.49572 -2.837
3406 1 2.46921 -3.39592 2.4779 -4.74295 2.22059 -3.04587
3407 1 10.5647 1.89748 -12.7239 -0.937771 -2.49771 0.816964
3408 1 -18.7986 15.2975 -22.7133 3.5454 3.09519 0.474624
3409 1 -5.38869 -20.0984 18.8203 -1.65883 -0.0905021 1.58751
3410 1 -20.9581 -8.50253 10.6089 0.0396675 0.403744 -4.38617
3411 1 -6.89234 -3.84047 17.7624 1.72365 1.56914 0.114581
3412 1 6.06878 -5.94412 -10.6321 1.53654 -2.07759 1.68253
3413 1 -3.20229 -18.4799 -18.141 3.90284 -1.23522 0.885209
3414 1 -16.5007 3.45412 -7.36425 0.398438 -0.575762 3.23073
3415 1 -17.4342 -0.750381 -13.971 -1.52999 -4.1787 -2.64415
3416 1 21.9537 -22.3257 -4.3391 -5.69049 1.07442 1.56755
3417 1 -21.4413 -11.2432 11.0642 8.04889 -2.7283 4.29632
3418 1 22.6608 18.6113 12.7972 -3.1209 1.45675 -3.67201
3419 1 -10.3203 -9.4859 4.89064 0.259495 3.73093 -0.55134
3420 1 -19.6375 9.99598 8.09185 -2.73602 -2.16599 -3.21684
3421 1 11.5556 19.3128 -14.0736 -4.54103 -3.39391 -3.9212
3422 1 6.27293 -14.7028 -1.87817 0.502864 -3.52481 1.56267
3423 1 -11.2292 2.98823 -1.53558 -0.695936 -2.35025 2.60929
3424 1 3.02125 -5.52695 -1.20365 2.9403 -1.16108 -1.3655
3425 1 21.9778 -11.7719 17.6818 2.82721 0.883026 -1.67932
3426 1 -21.1599 -7.28606 4.50414 -2.21326 -3.47353 -0.353775
3427 1 -23.01 11.1409 -18.1369 -0.25059 3.23665 -0.963595
3428 1 -4.60277 15.9022 15.627 0.827322 -2.0187 2.21163
3429 1 3.74444 -18.0472 15.1985 -0.82917 0.0411685 0.872806
3430 1 -14.1293 -15.8435 19.2891 -3.02641 -0.537759 1.55221
3431 1 -8.6539 -4.15762 -2.66185 -0.755628 -1.24029 -4.29821
3432 1 0.305208 10.3901 10.7567 2.32244 3.56103 0.00930197
3433 1 -7.15241 -0.616536 -23.1627 2.50036 3.49885 1.75175
3434 1 14.6824 20.7045 -8.59726 -2.4655 -4.12281 -4.4381
3435 1 -4.01508 23.1036 -15.4624 6.37834 1.34671 -2.47303
3436 1 -2.81268 8.89749 16.7744 8.25836 -1.84204 -0.282054
3437 1 13.8295 16.6635 -8.8383 3.34005 3.37305 2.43132
3438 1 -21.6406 5.14087 1.62586 -1.34461 -1.17769 -0.934428
3439 1 2.98074 -14.9971 12.0895 1.36626 -2.52323 -2.99577
3440 1 2.90617 21.6961 -8.96231 -1.59583 1.49725 -0.615009
3441 1 5.51864 -16.1537 -4.86283 -1.20217 -0.484997 4.51316
3442 1 -8.80737 -0.67624 1.46917 0.367011 -5.91593 -3.26158
3443 1 21.8449 3.40367 -1.73245 -1.61916 -2.10782 -2.76794
3444 1 -16.2953 13.6904 3.3094 2.14567 -2.90198 -2.25478
3445 1 -10.9564 2.80731 -13.0003 7.7967 -3.60545 0.312131
3446 1 -4.1695 -22.296 -17.2278 0.957681 -0.427948 -2.4422
3447 1 -3.90613 6.84423 -8.75056 -1.18453 -4.18654 0.70107
3448 1 -20.3536 3.43429 12.824 5.00233 3.29502 0.623436
3449 1 7.71153 24.3444 -18.7229 1.17754 4.68645 2.01729
3450 1 -3.39079 -13.8008 -15.187 5.86297 2.80549 1.75406
3451 1 5.31996 -13.475 -20.7871 0.0449138 -1.73613 -1.88369
3452 1 -8.56237 -0.291227 -11.6013 -4.10748 1.12159 1.10047
3453 1 12.5992 11.5652 -18.7846 -0.222771 -4.10957 5.50348
3454 1 -21.5505 19.9093 11.0157 -1.65965 -0.21867 0.223303
3455 1 -21.3313 16.8815 21.4872 2.23677 1.14368 -1.49382
3456 1 10.2945 24.9029 -17.3633 -3.11913 -2.80896 2.35891
3457 1 22.5019 15.0965 21.1185 -1.87671 -3.80705 2.45284
3458 1 13.4806 7.84688 -23.1862 -0.21954 -1.19355 3.54631
3459 1 -1.88447 19.5991 18.8754 4.6208 3.60214 0.47124
3460 1 -2.91879 22.3223 18.3263 3.32933 -0.464693 0.952923
3461 1 -12.7404 46.6645 20.1031 1.03077 2.18705 -1.97514
3462 1 -11.585 21.1858 -7.31424 -0.553619 -1.26691 -1.71698
3463 1 16.1762 10.5476 22.5305 0.83593 -5.08511 -0.101199
3464 1 -15.3245 -21.0675 11.2807 -7.26602 0.219373 0.949226
3465 1 1.65268 -5.24179 10.2338 -1.57735 4.73554 -1.07168
3466 1 -4.81961 3.43949 -7.84996 4.55775 1.35516 -1.17226
3467 1 10.5356 13.7064 13.6545 1.28311 -2.5995 3.51237
3468 1 -8.24965 -6.95654 21.49 -3.99027 1.14553 -4.7395
3469 1 0.751402 -9.26851 -1.28785 2.81506 1.3156 1.344
3470 1 -15.8041 -20.9794 -9.24857 1.16492 3.59937 -1.35009
3471 1 -16.9521 -19.5482 -18.8201 -0.243651 -3.53554 0.190988
3472 1 -12.9808 8.20725 -16.7203 -3.64602 -1.60155 1.40957
3473 1 -24.3567 24.8907 -19.7435 -0.900236 1.45932 2.85142
3474 1 18.8907 -5.07948 11.147 -0.670819 -2.18866 -0.602996
3475 1 -23.1058 -12.6552 18.7582 -1.22112 2.3643 0.733141
3476 1 3.4289 14.2776 13.9379 2.69604 -4.67156 4.95807
3477 1 -16.6034 -3.29381 -14.8766 -4.84222 -0.210799 3.82559
3478 1 11.5329 -13.9527 6.59228 -2.17111 -1.96915 -0.38953
3479 1 14.663 -6.54741 9.23671 1.37744 -1.13027 1.01509
3480 1 -24.0608 25.3722 -3.4419 0.427053 -3.83115 1.89703
3481 1 2.71252 -23.4851 -23.526 -3.06765 0.929689 -1.08565
3482 1 17.7373 18.8944 -1.26485 0.476151 0.253416 -1.35773
3483 1 13.2169 22.7886 -0.434772 -0.218424 -0.785533 -4.13894
3484 1 1.51992 12.2777 9.22336 -0.2852 6.79836 -4.2854
3485 1 3.3868 11.6223 -4.79705 -2.33654 0.120695 1.63682
3486 1 16.5977 23.5275 16.5441 -0.151689 0.383534 2.08205
3487 1 9.56934 -11.7207 -11.8761 -2.47616 -4.60421 2.8944
3488 1 17.803 17.6799 -11.1516 -7.47608 -2.13598 -2.46936
3489 1 18.1494 -1.30261 -4.07254 0.613526 0.793183 -3.13953
3490 1 -16.8905 6.71955 5.40273 -0.0489693 -0.568947 1.85523
3491 1 -9.89566 9.97435 20.9381 -0.777142 -2.38121 -3.34219
3492 1 20.9375 -0.807385 1.32003 5.8559 -0.652113 -1.04142
3493 1 0.437107 13.9143 17.1321 1.76109 -6.52838 5.13095
3494 1 -11.9588 6.30204 22.0725 1.19831 1.87234 4.22092
3495 1 -23.2904 -4.82964 19.0227 -2.09115 6.20198 1.27352
3496 1 -10.3911 9.05728 -17.6122 2.35671 -1.32558 1.72228
3497 1 -18.9127 12.1553 18.3728 0.46098 6.82163 1.85028
3498 1 -15.2586 11.9667 5.70338 3.33745 -0.768576 1.13914
3499 1 -22.6017 21.7074 -19.1258 -0.823167 2.90901 -1.39912
3500 1 19.9501 17.4994 -7.62887 2.30668 2.51864 -0.914992
3501 1 -16.0017 16.9011 -8.05973 -3.11264 -1.61688 -1.82717
3502 1 -7.01277 22.8891 -4.20965 0.312797 0.138912 -3.38908
3503 1 18.3573 -24.1269 3.04767 3.98813 -0.340124 -6.00962
3504 1 15.6275 -1.37528 2.32587 -3.41022 1.00346 1.39906
3505 1 3.29464 -14.22 5.53901 0.970885 0.260488 1.98041
3506 1 -23.4537 16.1722 -2.8454 -4.31709 -5.98941 2.02015
3507 1 8.19161 8.45216 -10.44 -5.52989 -2.36475 -0.137787
3508 1 0.350229 -11.7497 -19.5272 0.889748 3.61852 -3.28252
3509 1 -21.4623 -20.88 -23.3134 2.79273 -1.58889 2.12304
3510 1 -10.9579 6.47628 14.8787 4.36598 -1.53862 0.939017
3511 1 12.8624 10.7536 -3.25551 1.11406 3.10139 -4.03154
3512 1 -19.6077 3.17005 5.22805 -2.73054 -6.1833 0.162703
3513 1 -19.8209 -21.6715 -16.0438 0.746888 -2.69904 4.2891
3514 1 -4.84817 20.1234 -12.8167 1.5569 -0.307409 2.94099
3515 1 14.1747 -17.6018 13.2128 3.89046 -2.27141 -2.96635
3516 1 -21.4893 4.37428 -17.3453 1.29997 1.17228 1.51161
3517 1 -6.77005 21.5454 19.9013 3.36037 1.72132 3.3758
3518 1 -1.78296 -0.948645 -0.343634 6.11949 1.78668 0.967339
3519 1 -4.55607 4.44469 15.8768 -0.32179 1.44859 -4.01545
3520 1 -3.88111 -14.1303 21.927 0.520957 -2.9298 -2.85626
3521 1 3.60322 14.0437 -14.3267 1.07541 -5.69723 3.01479
3522 1 20.6409 20.5835 21.3796 2.44957 -1.04396 -2.88974
3523 1 -9.1864 -19.2754 7.77666 -3.07003 2.12434 5.51502
3524 1 0.555879 24.4772 -0.390401 -0.310899 1.79807 1.90481
3525 1 -16.151 15.6547 -21.1536 1.02658 -0.684484 4.37417
3526 1 11.6999 19.5006 -5.97597 0.803034 1.41095 5.52095
3527 1 -2.07231 11.8638 8.20833 -2.68676 -1.69791 6.43355
3528 1 -23.0481 45.8318 -0.746221 -1.81358 -0.082759 4.34405
3529 1 -18.6421 8.14046 17.5605 -2.33259 -4.74909 3.06579
3530 1 -9.51599 10.5779 7.27491 -1.50145 -1.71116 1.41766
3531 1 2.60662 8.95507 23.614 1.80394 -3.74408 -1.9066
3532 1 -8.85133 14.0152 -6.95272 4.03748 3.36536 -1.50346
3533 1 14.2152 9.34437 3.40515 1.21246 -1.5922 -0.166729
3534 1 6.01653 -4.47754 21.2675 1.86597 -2.67966 2.77132
3535 1 11.2016 -23.9208 -15.7263 0.718179 -5.30607 -6.23443
3536 1 21.1219 -17.0125 9.38231 -1.35906 -5.1971 -0.349648
3537 1 21.0602 22.9337 18.0728 -1.4384 0.552684 1.48586
3538 1 5.6362 -5.08639 17.0918 -2.78444 3.20104 0.171962
3539 1 14.0556 26.1551 -13.6853 -2.65137 1.47228 -3.19634
3540 1 0.861659 13.0827 -4.0945 -1.56163 0.398961 -0.572845
3541 1 17.9713 2.72859 -22.102 0.0806377 3.68018 2.87208
3542 1 23.1546 -0.958426 3.71139 0.40942 -0.593211 -0.292439
3543 1 -16.7706 15.3655 -4.09327 3.31859 0.0405959 4.09502
3544 1 -8.85643 18.876 -4.37441 -8.50134 -1.91649 1.08866
3545 1 1.43157 20.1483 15.4076 -3.34647 -2.55163 -1.70566
3546 1 18.6565 15.1538 -8.47123 -3.42098 3.01217 0.624708
3547 1 7.32718 -17.1515 -9.20515 -2.08067 -2.39645 1.29955
3548 1 10.6048 -12.7179 -22.6279 2.88933 0.131773 -4.12804
3549 1 -10.9797 7.93094 4.61103 0.246185 0.581524 -2.19815
3550 1 -14.2619 15.6612 8.7063 1.71356 3.26566 2.36986
3551 1 11.9506 4.61615 -21.2519 0.0149311 -4.3918 5.07755
3552 1 13.1223 17.9356 6.21015 -1.12284 -0.454219 1.17477
3553 1 -8.51171 17.3463 -1.93283 1.18739 0.681446 -2.14204
3554 1 16.0532 14.3438 -13.4673 -1.96823 -1.30356 2.73868
3555 1 -23.8141 -20.6449 2.14814 1.96857 2.94128 -0.10582
3556 1 -8.27774 -15.1914 19.1144 2.0547 -1.02485 -1.86015
3557 1 7.78723 5.9371 -20.6453 1.90688 -2.31729 1.79722
3558 1 -18.7765 -14.9288 0.845572 0.499218 -6.76909 1.44585
3559 1 11.7315 -6.07938 12.6263 0.206343 -2.29411 2.89555
3560 1 -19.3592 16.7691 -16.1935 1.69613 2.97343 0.305657
3561 1 -18.9409 20.6875 7.27617 -4.22846 -0.209184 0.229748
3562 1 17.5161 10.2021 -0.556733 -2.65434 1.59093 1.54215
3563 1 2.53727 -23.5886 -6.45746 -3.1523 1.66749 -0.178209
3564 1 19.6035 13.3351 -14.8557 5.66369 1.32654 0.501239
3565 1 14.221 -20.3969 -8.69036 -1.18315 5.6429 2.5392
3566 1 -12.5132 -17.1177 5.73147 0.118891 -0.774359 -1.203
3567 1 4.90979 -7.34036 8.32619 -0.434004 1.12814 -1.06778
3568 1 18.7882 1.1555 13.6873 5.28982 -4.19165 -1.45892
3569 1 -4.13043 3.27847 -12.182 3.42938 -0.473089 -1.6948
3570 1 10.7185 20.7934 20.6831 1.84947 -3.82066 -0.864156
3571 1 2.74428 25.803 11.1598 5.50636 0.172917 1.87295
3572 1 -14.6666 -17.7214 -19.6054 -0.950464 -1.31251 2.76737
3573 1 16.562 -2.36978 -1.81658 0.160192 3.19229 -0.988303
3574 1 -14.5135 -5.07785 -12.5376 1.26267 1.71555 -7.54835
3575 1 -10.5374 -11.6849 -9.17059 -1.18806 3.22143 -6.88686
3576 1 15.1777 3.76339 15.8482 -2.66642 1.60473 0.184644
3577 1 -8.05743 5.5143 -6.05061 3.27875 -0.438834 0.138046
3578 1 20.4208 3.15735 22.6132 -2.32011 -1.05367 1.22469
3579 1 -19.3385 -13.636 -6.54468 -1.3382 0.684092 -2.14212
3580 1 0.458982 -14.6944 6.62589 -1.77593 2.28953 -5.45404
3581 1 -13.8669 10.1462 3.75642 3.14734 -5.3277 5.44306
3582 1 -14.4056 -24.2812 14.7527 0.319032 0.403174 0.117739
3583 1 -16.1571 16.8162 6.56902 3.271 -5.8938 -2.51577
3584 1 11.7867 6.18466 22.6648 -3.24718 -2.3692 -0.961461
3585 1 11.2023 -0.0249713 8.62448 3.02711 2.77555 0.418957
3586 1 16.4142 -1.57175 -8.79695 0.047738 5.63507 -0.619362
3587 1 22.669 -13.0344 -17.0817 -3.46904 -0.399388 0.757833
3588 1 -20.9728 -7.50633 -9.84266 -0.980976 -5.45812 -2.05105
3589 1 -11.5174 2.45753 -9.41129 -3.03419 -4.8848 -0.301608
3590 1 9.2292 3.50625 -3.38302 -3.98188 -0.542176 -1.11203
3591 1 -7.96021 -11.8617 23.56 0.668478 -3.40774 3.9463
3592 1 -7.88432 -14.7675 -4.53627 -1.47968 1.18015 -1.29012
3593 1 14.6863 -6.44287 -12.703 -5.59144 -5.75796 1.93586
3594 1 12.0512 0.441518 5.8103 -0.660168 -0.242114 -1.47342
3595 1 -1.3782 -17.9735 10.8062 1.16692 1.47206 3.14287
3596 1 -6.15209 -11.4808 -9.38289 3.6222 1.16661 4.66179
3597 1 -4.75562 14.9578 5.42581 0.154298 -4.78519 -0.616327
3598 1 -17.689 -13.0345 -2.65682 2.09387 -0.935772 -4.04305
3599 1 15.8559 15.3265 -7.29872 4.91687 -2.76826 6.44995
3600 1 -18.1127 24.2388 -9.11539 2.62154 4.40675 1.77808
3601 1 -22.9456 -13.7252 -4.4592 0.154609 -3.40485 3.57984
3602 1 3.77323 27.7454 23.1837 0.683724 -1.65753 -2.44077
3603 1 -3.9784 -3.51466 8.69796 1.12038 0.877238 1.33489
3604 1 8.83842 16.4534 -23.8073 -0.190028 -2.97443 -0.226037
3605 1 19.4104 19.652 13.4325 2.54745 2.19671 -2.84068
3606 1 4.44126 6.4652 -13.5872 2.2427 0.50163 -2.09767
3607 1 -21.3522 6.69473 17.8863 -0.146331 0.931167 -0.368397
3608 1 19.1464 23.2782 -17.8097 -3.64317 2.19676 -0.896429
3609 1 10.3732 -11.8355 8.29155 -2.0983 0.121172 2.46439
3610 1 11.2081 12.0006 -21.2064 1.8569 -1.32115 -0.162077
3611 1 -16.7949 21.4949 -14.612 2.16421 -3.65573 -3.67936
3612 1 1.24364 15.2273 -6.09359 -2.62852 5.10268 0.182368
3613 1 0.840156 25.0219 13.4979 -0.295849 -0.13782 -0.578919
3614 1 1.53786 -6.17122 -5.70217 2.07332 -1.17453 -3.57679
3615 1 3.30021 18.4572 0.683871 -3.40991 1.09061 -6.63986
3616 1 -10.7031 -11.4184 22.64 -7.87854 2.0129 -2.00246
3617 1 13.0178 1.95705 -20.5646 2.74947 -2.23607 3.41592
3618 1 0.343776 -8.26262 -11.5588 -7.38524 -2.53975 -1.11939
3619 1 -1.13361 16.7546 7.56728 -0.772872 1.07414 -1.78183
3620 1 -3.16981 16.408 -11.4454 1.65362 4.43696 0.0241653
3621 1 -10.1567 13.2205 13.3628 -6.56288 3.89851 3.68947
3622 1 6.81932 -12.9368 11.5708 -2.52822 -1.12045 -3.31711
3623 1 11.1616 -1.77534 18.9311 4.0774 -4.01421 -0.0492273
3624 1 19.7911 -8.99393 3.30536 3.5078 -3.38758 -0.354704
3625 1 8.78156 -16.7277 21.3397 -1.55953 -2.92279 1.91866
3626 1 -14.931 1.22269 -6.68919 -0.187851 -0.169709 0.816988
3627 1 -7.10238 19.2257 9.95589 -5.49217 1.92423 -2.66273
3628 1 8.27132 0.127409 8.83296 -4.36159 1.79113 1.7275
3629 1 -3.04182 -1.90139 2.21147 -2.46231 -1.73489 -1.6427
3630 1 5.41098 -13.1172 0.309549 -5.76669 -1.72208 0.371217
3631 1 3.97333 8.66827 18.3025 0.434342 -7.41834 -3.62215
3632 1 -13.8087 -16.628 12.9325 1.31015 1.00709 6.28317
3633 1 9.83422 6.0321 -6.62386 0.204409 4.30021 4.42066
3634 1 1.59745 4.51543 9.63622 -0.0237054 1.48287 4.73358
3635 1 2.50497 -15.8245 -15.7556 1.35889 1.36682 1.13346
3636 1 3.9321 -20.2039 -13.7524 8.69388 3.70141 0.148479
3637 1 -5.30518 12.5553 23.4967 1.55475 -3.67356 -6.69421
3638 1 21.4954 -8.52229 20.9656 4.87118 -3.54897 -5.11613
3639 1 9.00679 -15.6438 6.37817 2.92647 0.494956 -2.86603
3640 1 17.2987 -19.4882 -11.0007 -3.55605 5.10028 3.69397
3641 1 3.68724 14.9616 20.7699 0.532405 -2.8309 -1.23032
3642 1 -3.15782 -15.8717 7.82482 -0.263733 -1.64939 -1.04049
3643 1 -0.776609 5.03986 4.70233 -0.820581 -1.10574 -0.568261
3644 1 19.9595 25.3026 -2.36173 -2.13114 -0.51526 -5.21821
3645 1 -16.1331 -15.2341 -7.66831 -1.54909 -0.803373 -1.56119
3646 1 15.3095 2.25275 -18.728 2.47189 2.31314 -0.0368019
3647 1 16.3769 -20.2018 6.33994 -0.940964 0.237689 4.18079
3648 1 -24.0582 -21.7395 -1.99079 -5.43902 -2.41287 1.30974
3649 1 -17.1742 0.411037 -16.4303 -6.48413 2.3406 -0.878584
3650 1 7.27863 -9.30524 -16.4238 4.41529 1.18133 -0.709546
3651 1 -9.04263 8.26576 9.14622 3.0767 2.58228 -3.58297
3652 1 21.5339 -13.5488 15.3552 2.78977 -1.50815 -0.532166
3653 1 0.426946 16.1918 -2.0974 0.372627 -3.68838 -9.25424
3654 1 -16.5089 19.7387 12.2296 1.6593 3.72832 1.29222
3655 1 -7.6761 25.1645 -13.1607 -0.249674 6.6745 -4.99851
3656 1 -10.7363 -18.6008 20.7053 -4.47507 -2.41939 2.0312
3657 1 23.4 25.0609 -10.3163 5.4529 0.676264 1.9216
3658 1 -23.9565 15.541 14.5885 -1.10719 0.690043 -4.00614
3659 1 19.5547 7.0685 -20.9342 -2.17155 -1.33542 3.1082
3660 1 16.6928 9.2976 9.23673 1.66508 -0.613813 5.46987
3661 1 22.2464 10.1909 -17.6648 -0.869736 3.01785 2.31872
3662 1 -1.08761 -2.30466 -21.9331 -0.688992 2.14616 -1.12558
3663 1 -21.3847 -15.4604 -10.1045 2.76828 1.49432 -4.76714
3664 1 4.82105 17.2736 12.6836 0.809186 -2.82463 -1.60741
3665 1 11.0043 -10.5574 -16.0464 -1.39377 -3.95722 -0.770307
3666 1 4.62382 -19.632 21.945 0.811874 -0.27079 0.717679
3667 1 12.4894 14.8354 -17.8766 3.36269 4.94449 2.85836
3668 1 -15.8558 -1.48533 22.1058 -3.58566 0.0872628 -1.13281
3669 1 1.8876 22.4402 0.776325 1.9587 5.59872 -1.33904
3670 1 15.3659 7.55434 -5.88761 -2.54231 1.57936 0.180558
3671 1 -3.15465 8.72715 -12.4485 3.29582 3.26036 -3.92315
3672 1 -12.7966 9.74644 16.5465 0.0662426 -1.70103 -0.354287
3673 1 -5.90785 -23.6567 21.9518 0.383407 4.5502 -4.48225
3674 1 -0.834919 -1.89547 -7.23554 -1.54616 4.22864 -1.46924
3675 1 -13.8848 19.7063 -10.2601 2.21189 -0.146316 1.37683
3676 1 17.7192 14.7738 -11.1787 1.52926 -0.961006 1.94501
3677 1 -8.40874 15.9043 17.1396 1.83421 2.48976 1.68277
3678 1 -17.8003 10.2173 14.3871 1.8345 -4.44951 -2.48612
3679 1 10.4004 -20.1989 -4.96891 -1.22128 -4.10649 -3.45087
3680 1 14.2891 4.83656 21.8378 -0.147727 -2.08938 -1.41051
3681 1 -5.70418 0.178906 13.8327 -1.81525 5.4334 0.57572
3682 1 -22.0283 -22.7197 16.4717 -6.07722 -0.188328 1.56748
3683 1 4.10516 12.5776 4.95266 -5.38181 -0.626985 0.454331
3684 1 11.4557 15.6689 23.3963 0.383532 -2.14378 0.81311
3685 1 7.84205 -0.0625481 0.0665603 -0.511396 -4.75395 1.57331
3686 1 -22.439 10.9884 1.55089 3.31129 1.70226 -3.94731
3687 1 9.04673 -18.1874 11.5965 -1.11646 4.41604 0.916702
3688 1 -10.0068 -22.2084 -0.391862 -0.609956 -1.13534 4.89969
3689 1 19.7257 14.743 -18.8475 2.23488 -7.05352 2.02349
3690 1 -7.45086 4.29637 -8.67995 -0.0908164 2.83277 -1.57205
3691 1 21.1921 43.3612 -6.38872 4.3195 2.54163 4.40106
3692 1 8.94338 3.34548 -20.7039 4.5043 -3.31679 -1.60529
3693 1 5.90771 22.9595 -0.529393 0.741615 -5.39947 -0.360532
3694 1 -18.9971 2.17793 -4.1891 1.70439 2.10798 3.62078
3695 1 -5.75151 -6.31847 1.33643 3.43184 0.351919 -5.28402
3696 1 6.23031 1.26471 -15.2089 0.0848702 6.22134 -4.00165
3697 1 8.09926 6.06004 6.07588 -1.46054 1.50899 -0.354014
3698 1 -22.1829 3.89031 14.8031 2.09051 -3.07957 -1.31124
3699 1 -7.52431 -5.88932 10.8784 -0.925369 0.114398 -0.10343
3700 1 -6.25996 -19.8843 -13.9529 -5.81913 -2.71922 -4.60727
3701 1 16.1013 -1.34211 12.1535 0.384533 -1.31436 2.69363
3702 1 -7.95386 -2.67391 -13.5317 1.29815 2.0343 0.102471
3703 1 20.9162 16.2391 23.5261 -1.13754 -0.0385354 0.597716
3704 1 18.8669 -0.0523091 11.2045 2.57616 0.860864 -4.7171
3705 1 7.15489 -0.33419 3.03687 -3.9771 -3.58329 -0.475343
3706 1 -11.6139 5.98868 -15.4688 1.25893 3.15982 -2.64473
3707 1 20.1599 9.23561 -14.2669 -1.4162 -4.41106 -2.55179
3708 1 4.45187 2.0381 5.67125 4.39636 -1.1868 -0.869408
3709 1 -20.6684 16.4989 5.48815 3.51749 -0.239054 0.629911
3710 1 -7.01216 -10.2277 17.397 -5.1504 0.529122 -0.492636
3711 1 -15.1761 12.1587 18.6031 0.74916 3.17803 -2.75758
3712 1 16.9923 25.5753 -6.04869 4.85529 0.433975 -1.38532
3713 1 1.06528 20.9436 6.89287 -1.12785 -0.445891 -7.36354
3714 1 -14.09 1.58346 19.5798 2.81115 -2.51623 0.168368
3715 1 19.2679 19.1048 17.2925 0.769662 -5.48195 -7.06076
3716 1 6.8457 7.37736 -0.524058 -4.52068 -1.97056 -0.00188716
3717 1 -1.67386 14.0022 -18.8027 0.665389 1.61736 -1.16546
3718 1 -16.748 6.04648 2.53108 0.355544 0.103687 2.03321
3719 1 0.237535 14.3334 -8.71243 1.02886 -7.46534 2.10702
3720 1 16.0197 16.8231 17.3024 -0.665994 3.07847 -5.35696
3721 1 -0.013305 18.9045 -10.6205 0.130869 0.226818 0.137369
3722 1 20.4375 -6.27813 4.3579 0.638229 -3.99231 3.47036
3723 1 8.9631 3.60762 -16.0782 2.00942 -7.04904 0.775616
3724 1 -3.60807 -3.15467 -1.4452 4.02705 1.91263 2.69409
3725 1 -14.3549 22.1739 -4.16959 0.252396 -1.90467 -2.92028
3726 1 -7.67873 -13.4724 -13.3857 -2.9263 -1.4212 -0.95464
3727 1 5.39699 -10.7791 -21.8345 -3.38871 -0.0979779 2.59012
3728 1 16.1033 -9.89814 -22.8864 0.483509 -0.418322 0.069431
3729 1 -21.4727 -9.79666 -11.8368 -6.32948 -5.14241 2.2811
3730 1 10.2732 -2.07211 11.9952 3.67087 1.65687 -0.900892
3731 1 3.52869 -21.0735 -19.8098 1.63329 0.721903 3.0205
3732 1 16.9319 19.1758 5.77259 -1.40822 -1.15606 -3.28265
3733 1 3.61854 -15.8768 -2.86077 -3.70907 2.61122 6.47871
3734 1 15.7995 18.3856 -7.26363 0.786831 -2.99805 -4.42863
3735 1 -3.81589 18.0693 -1.39609 0.603022 -1.16392 0.0753839
3736 1 -21.9768 13.4996 -6.55635 0.595251 -2.93436 0.232566
3737 1 5.71024 8.28997 2.08989 1.06639 -1.57057 0.894554
3738 1 -7.8444 -8.45572 14.8181 0.491423 -1.55656 -3.20162
3739 1 -1.22715 -0.61009 4.29051 3.12843 1.41275 2.09798
3740 1 5.86976 -2.09922 -19.875 -0.85217 -3.60312 1.39721
3741 1 -20.6762 9.49618 -4.29121 -1.58534 -2.93248 -3.08848
3742 1 -2.30758 -19.361 -15.4281 -0.147447 0.864233 1.81363
3743 1 5.07764 -12.8301 15.5074 -5.89449 0.602448 -1.14971
3744 1 -17.1469 14.7013 0.737113 -4.07016 -9.72075 1.91062
3745 1 2.96371 -6.35077 12.539 -1.77881 -1.59138 3.24219
3746 1 6.05147 -20.4528 -3.20899 0.718952 -0.831623 2.47843
3747 1 -17.2401 25.5093 -17.6496 -3.01423 -3.19509 -0.86645
3748 1 -15.4353 0.564699 -20.7539 -4.85569 -1.89844 1.67767
3749 1 -21.7567 -0.345511 14.6617 0.0904514 2.02191 -0.0110434
3750 1 12.7973 24.5587 -15.6377 2.92707 -4.80415 0.342181
3751 1 -5.01896 -3.55037 0.844418 -2.40111 0.947579 5.00226
3752 1 -20.966 14.153 -16.1785 -1.03173 0.323333 -3.09075
3753 1 5.51148 -3.78987 -23.4871 0.0551639 2.23248 -3.1934
3754 1 -8.32951 7.64434 6.29881 -4.29649 -4.17698 -3.19431
3755 1 17.8869 2.45652 -9.96256 -0.802951 0.690365 0.410523
3756 1 -11.6985 -20.8558 -19.969 1.57952 -0.590405 0.601259
3757 1 -1.63501 22.7651 -1.52294 -1.1073 1.4759 -2.50886
3758 1 21.3147 -5.51725 -13.6274 1.48576 2.64183 2.46168
3759 1 -11.8573 10.319 -21.7474 1.30575 2.85751 3.80687
3760 1 16.0764 23.3025 1.97124 2.84665 0.50165 0.276303
3761 1 19.1767 -11.3831 -15.3954 2.013 0.482837 -5.67242
3762 1 9.45068 -9.76719 10.3438 3.42291 0.792661 2.0403
3763 1 12.6859 10.4495 8.34698 5.23286 -1.22956 0.580088
3764 1 15.5387 -12.956 20.7248 0.569804 0.749278 -3.3061
3765 1 22.7053 44.534 -2.34544 -3.71148 1.48736 -2.96838
3766 1 -12.444 19.4259 11.8438 2.07834 -0.57212 0.0919582
3767 1 -11.4375 -21.1335 2.06777 -4.35253 0.683532 -2.11181
3768 1 -0.471129 6.58305 -16.8244 -0.266878 -0.349227 -0.370504
3769 1 -22.0373 -18.6501 8.66297 -0.682757 -3.87153 -2.37774
3770 1 -7.56066 -4.18353 8.2034 -2.08589 0.126246 4.34608
3771 1 -16.5797 19.7144 22.6128 4.90839 -3.05658 2.33871
3772 1 16.2985 -15.5616 -3.78856 0.84408 3.81511 -0.976423
3773 1 -0.948463 -4.88166 15.0321 -1.53563 -4.90124 -0.0082214
3774 1 -8.47801 12.1472 2.48821 -2.42687 0.587119 0.830731
3775 1 4.08875 -4.03529 -11.5862 -0.751106 -0.51197 -1.3523
3776 1 11.5846 -5.81453 17.2334 -2.95248 1.85261 -7.90348
3777 1 9.33915 -6.85777 -2.54466 -2.08922 -1.96955 -2.28768
3778 1 6.24973 12.3473 -11.6936 3.58208 4.27717 1.81167
3779 1 -8.90847 0.0930027 6.9346 3.14847 -0.138908 -3.58142
3780 1 22.5813 21.9192 -18.4023 2.8925 1.96739 -0.781522
3781 1 -5.28927 -5.72644 7.29186 0.70159 3.14737 7.87893
3782 1 1.72305 -12.0833 -17.2081 -2.70025 4.33482 -0.829196
3783 1 21.4364 19.0912 3.07865 1.50998 -5.89978 -0.606981
3784 1 11.5378 0.185133 3.1136 3.15197 -2.52574 -4.21935
3785 1 -3.75387 45.9373 22.0514 0.91871 -2.14422 0.011985
3786 1 20.5393 7.84205 14.7143 2.36616 4.21123 2.67806
3787 1 13.016 21.9203 -14.4976 4.96614 3.60055 3.23068
3788 1 2.15138 15.126 10.326 4.07528 2.8928 0.956284
3789 1 19.3744 25.5876 -12.0813 -2.52754 -0.620075 0.144352
3790 1 8.29808 -19.4595 0.964639 2.03031 2.5576 -1.25608
3791 1 -8.96875 17.6871 -12.9997 3.12936 -2.18671 1.20919
3792 1 -12.438 -7.56155 11.0649 1.16253 1.14996 1.6045
3793 1 -13.3077 19.8194 1.84094 -1.0186 -0.366068 1.02287
3794 1 -2.87447 -18.9555 -9.41771 0.945577 -4.43244 -0.410475
3795 1 12.8974 22.4153 19.0327 0.376379 -0.30877 2.20661
3796 1 -14.5442 -12.8099 -8.22174 1.24701 -2.02402 0.0347076
3797 1 -14.6343 -18.1535 8.96199 -0.299953 0.220061 -2.96278
3798 1 2.45146 6.92656 -5.53976 -2.34554 1.24894 -6.10696
3799 1 22.0672 24.2496 -7.82434 -0.508443 2.81148 1.75983
3800 1 12.2629 0.779608 -0.957886 0.501704 4.69854 -1.0214
3801 1 5.73958 14.8448 -9.94079 0.784834 1.19973 3.73815
3802 1 6.56841 2.32337 -21.8837 1.7582 -0.818242 2.03007
3803 1 -19.257 -5.31926 22.3109 -3.10681 -0.586184 -0.496247
3804 1 13.0007 20.3963 10.6669 -2.45355 -2.29931 -0.388073
3805 1 -5.59629 16.0629 -18.2833 0.461656 1.02829 -3.37582
3806 1 2.9345 3.02699 -2.71437 -3.1541 -0.69188 0.0180789
3807 1 -8.49977 22.5168 -18.7403 -2.80795 -4.73664 0.46187
3808 1 9.08629 -10.7036 -20.0135 2.68425 -2.98619 -3.52241
3809 1 4.35101 -23.6197 -19.1807 1.43162 2.80289 -2.24232
3810 1 -19.882 -4.28042 15.5787 0.855652 2.85592 1.33649
3811 1 14.9836 -15.1119 -23.1887 3.46657 -0.772584 -3.74867
3812 1 -4.23256 -12.4091 0.127974 -3.01188 2.11148 1.72979
3813 1 16.434 3.35769 -1.00046 -1.51668 -0.210189 -1.49192
3814 1 1.92788 10.3159 13.1356 -1.18472 -0.462527 1.04649
3815 1 -0.679109 23.0247 21.7259 -0.888548 1.25518 -2.69135
3816 1 -15.031 -10.723 2.83315 4.26621 1.35156 3.46486
3817 1 8.34792 6.85034 -4.10137 -1.71426 3.37935 0.903864
3818 1 11.6039 17.9531 21.7529 -3.94966 -0.823205 -1.30114
3819 1 0.173422 22.1861 16.979 0.241693 -1.73126 0.994075
3820 1 -24.2937 11.9219 -5.93531 -4.40493 -2.32936 4.51386
3821 1 9.8832 -12.052 14.5394 -1.67073 -3.1235 2.36601
3822 1 10.1123 7.67253 9.54787 -5.01385 2.43529 0.246293
3823 1 -4.1434 -16.1132 -8.31114 -6.6445 0.0689291 0.287818
3824 1 -9.50226 -21.2834 -6.95205 2.84188 4.03992 -1.60032
3825 1 21.0757 -11.8334 11.7505 1.74051 2.3316 0.0828507
3826 1 -0.390056 15.3252 -14.0502 -2.00985 1.042 4.70793
3827 1 -1.35972 6.27917 19.7925 -2.59567 0.470151 -7.43634
3828 1 -17.4913 21.3569 -17.1489 0.945389 -2.534 2.34427
3829 1 -13.0177 -16.1755 -3.93233 -1.593 7.64368 1.29102
3830 1 15.3539 -12.3507 -14.7729 1.43382 -2.5011 -1.90097
3831 1 -4.43914 21.1834 -1.12509 0.0917478 4.81083 2.38486
3832 1 -22.8923 1.04477 2.49943 0.715363 2.98424 -2.33496
3833 1 21.7053 -2.58704 -8.83455 2.56148 2.23639 1.42178
3834 1 6.08307 9.43097 6.86474 1.63329 3.9226 -2.42307
3835 1 20.9823 46.5664 -2.84549 -3.13343 0.886714 1.62491
3836 1 18.0905 12.2205 2.83871 -0.171903 -4.71708 0.420801
3837 1 9.39613 13.8909 2.20329 -2.13833 -1.19573 -4.56429
3838 1 -3.80314 3.58776 0.162168 -0.701559 -1.91031 3.98211
3839 1 19.5598 6.02837 1.91891 -0.734221 -6.72084 -1.11779
3840 1 -11.5236 46.5404 14.1494 1.84744 0.839151 5.55557
3841 1 21.043 3.02344 11.0872 4.88756 -0.292514 2.50413
3842 1 -22.8573 0.396754 -22.911 0.250037 3.39869 2.82343
3843 1 -2.02773 -18.5778 15.3278 -1.76712 -0.269582 1.23521
3844 1 -22.9627 -13.6929 7.49289 1.60712 -2.01481 2.07886
3845 1 -2.08132 5.00201 -22.4519 -2.30223 0.507199 -0.662343
3846 1 23.4999 20.8046 20.6546 0.4938 -1.14564 -6.00003
3847 1 -19.5214 -18.9082 -12.5945 -1.66607 1.99211 3.77612
3848 1 7.03449 -15.3458 8.50636 -0.0819223 5.21606 0.924011
3849 1 13.1881 10.7921 -22.9483 -0.193778 1.46044 0.89837
3850 1 18.7305 -23.305 -23.9576 -3.9527 -2.96147 -4.0279
3851 1 -3.94563 5.44859 -6.1664 0.951293 3.42971 6.96823
3852 1 -5.70015 21.5075 17.207 1.11604 -0.358135 3.3062
3853 1 16.5715 -11.5351 3.62763 -5.37489 -1.82829 1.19953
3854 1 18.101 12.6096 -2.20962 4.21206 0.492368 0.407584
3855 1 -5.46026 -7.37982 20.1178 1.43883 -1.31566 -0.678271
3856 1 12.7789 -15.489 -2.40088 -2.72338 2.36982 1.69686
3857 1 -13.8123 -24.3272 -11.1188 -0.422345 -0.671858 -3.69485
3858 1 16.5954 5.49656 7.31336 4.31782 -0.486766 0.136712
3859 1 22.116 18.2237 8.78683 2.83446 -5.21345 5.06411
3860 1 11.2912 -13.5195 -15.1469 -1.6041 -0.048584 -5.80393
3861 1 -17.8674 -12.5462 23.95 3.49837 0.47869 4.66872
3862 1 -4.02303 4.32211 -18.5492 4.89338 -0.324664 0.512222
3863 1 -13.6173 -6.78573 13.511 -4.57676 0.830937 -0.288393
3864 1 -3.20711 -3.35354 -15.2791 -4.07587 2.46045 -0.183199
3865 1 2.04679 45.5556 14.8204 -3.47848 4.03833 -0.515345
3866 1 12.5996 -16.6662 9.88003 -0.369443 -7.98976 -2.05636
3867 1 23.5297 3.48493 1.77233 3.47871 -3.40702 0.847711
3868 1 5.37078 6.94066 -4.32409 5.60952 1.72121 -5.18964
3869 1 -6.67963 5.12201 11.8857 3.46263 1.20565 2.22128
3870 1 14.1764 -19.1613 -11.3278 1.57794 -2.49972 0.57452
3871 1 17.3811 -3.22072 -23.6493 3.98932 -5.04234 3.83947
3872 1 23.2516 -21.5626 -7.65306 -7.69089 -2.92593 -4.86731
3873 1 -6.18152 7.87878 12.705 2.34572 1.15758 1.0309
3874 1 -18.8519 -23.4118 -14.0263 0.0293822 6.08207 -1.48106
3875 1 23.1626 0.694615 6.17885 4.05727 1.97542 -1.23404
3876 1 -22.3971 -10.4093 20.5004 3.84263 -0.521996 0.657761
3877 1 -21.7492 1.04651 -3.47307 -5.05428 -0.361184 2.65933
3878 1 9.54258 -16.6451 9.2557 -1.98042 1.33601 -3.02284
3879 1 19.3427 -11.5002 23.048 5.35327 0.614175 -4.80246
3880 1 -8.8574 20.6696 -22.1118 1.92888 3.72233 2.19791
3881 1 -14.8231 1.8147 -15.3214 0.414371 -1.13963 -0.392164
3882 1 22.5197 20.0175 -2.93556 2.38531 -3.70811 -0.213568
3883 1 21.1118 14.227 -9.72163 -4.49076 2.70742 3.5314
3884 1 12.5248 -18.2258 -3.95729 6.10996 -0.412713 -1.19765
3885 1 13.7574 25.5038 13.3708 0.223902 3.38706 -2.49739
3886 1 -11.8258 -13.7949 -7.72919 2.07741 6.25296 0.818459
3887 1 2.16905 -13.6405 -20.5967 0.408708 -0.0308152 -2.26282
3888 1 -6.16575 7.64142 -18.0332 -0.520266 -0.340953 -3.8596
3889 1 -16.6169 16.6435 22.7645 -1.10363 -0.984183 4.42182
3890 1 2.53385 17.6531 16.9299 0.823677 4.11 -0.263223
3891 1 4.20333 -12.5901 18.399 -2.59697 -4.97136 -0.500612
3892 1 -11.8097 22.0154 5.66126 -0.631305 -3.07741 2.24099
3893 1 -7.38213 13.9258 13.1812 4.16523 1.47454 3.36137
3894 1 12.1884 11.4096 -12.2564 -3.02989 0.852322 1.38556
3895 1 15.8862 -6.70097 -1.70603 -0.950856 -1.51107 5.38559
3896 1 -4.7365 -10.552 -4.13142 -2.4663 -2.96064 3.55008
3897 1 4.52913 19.5661 23.7977 -1.44783 0.417277 -0.411404
3898 1 18.8782 -2.38704 17.0637 -2.94323 -0.231307 -0.626164
3899 1 3.2059 10.6258 15.9463 2.88454 0.432202 -1.3054
3900 1 11.1903 -18.5016 -14.8406 -0.181246 -1.94954 -1.00977
3901 1 -15.5034 12.9349 -12.4728 0.536934 1.22938 1.46179
3902 1 13.7271 12.9941 -7.03016 -0.117256 -0.882882 -2.65489
3903 1 -17.713 -13.1807 4.90104 -1.00817 -0.756206 -1.23371
3904 1 10.5992 -3.04148 -7.85021 0.922243 -1.97181 -7.34324
3905 1 1.96022 -11.7509 4.52987 0.349346 -1.91069 -1.1936
3906 1 -17.9167 9.46663 -5.05622 -0.476392 -3.16906 -4.21184
3907 1 -18.6606 0.459626 11.6185 3.75842 -0.463149 4.80983
3908 1 19.9418 -15.7079 13.9965 -1.65369 0.165349 5.89842
3909 1 1.37076 -6.94765 20.4387 0.0535207 2.08641 0.720909
3910 1 -4.10526 16.339 -7.36389 -2.84426 1.05949 -3.26276
3911 1 20.9253 21.5097 1.87566 -3.03515 2.64653 -4.14261
3912 1 -10.0657 -8.02666 1.37276 4.47113 2.62515 -0.160556
3913 1 -9.74286 3.42311 0.634981 2.66669 1.32449 -0.435532
3914 1 10.108 -12.1654 -7.47889 -5.89635 0.373578 -2.59647
3915 1 2.75104 0.0198446 4.77502 -2.38706 -0.739906 1.49466
3916 1 -23.9472 -11.3369 22.4899 2.2198 -2.79786 2.86039
3917 1 -0.598928 -6.5837 -7.65216 -0.553735 -0.388758 0.0556532
3918 1 11.0858 12.6789 -16.2898 -3.55363 -6.28648 -0.314864
3919 1 6.53889 -13.3383 19.7948 -0.752281 -3.89519 1.50297
3920 1 -10.3627 9.45001 14.6146 -2.20906 1.86864 -3.64362
3921 1 18.7725 8.24208 -18.5372 4.05143 -2.37579 -2.21341
3922 1 -12.3095 -13.0847 -15.9247 1.65057 -1.51195 -3.75056
3923 1 -18.9275 1.50374 -6.96716 1.97528 -3.05832 1.41265
3924 1 -10.3134 -8.62553 7.98162 -0.209543 -0.401826 -0.0213206
3925 1 -18.8308 3.87562 2.52008 -3.13697 0.316963 -5.48418
3926 1 7.5594 -1.62181 -22.2823 -1.77572 0.839476 -0.00441877
3927 1 10.8769 16.1342 -2.86229 -5.22077 -8.54773 0.892684
3928 1 -20.5649 18.9788 -22.2851 -1.09747 -5.05108 -2.632
3929 1 -0.986761 11.7724 -8.21514 -2.87938 -4.12627 -1.70101
3930 1 12.7176 19.05 -1.49141 -0.53461 0.493458 3.10858
3931 1 1.17256 6.54225 0.801936 -4.14953 -0.0564899 5.5931
3932 1 22.2626 6.29309 11.9855 2.7721 -1.13175 0.667293
3933 1 -3.61725 -10.9511 20.4224 0.689526 1.57345 -0.702693
3934 1 19.1574 3.83241 -16.0578 -0.586002 2.00768 -4.05803
3935 1 15.0032 -19.2714 -19.7047 1.60195 4.47524 -1.37283
3936 1 -1.12724 -22.0906 23.0918 0.648774 1.10312 3.16245
3937 1 16.2965 -15.1748 -18.8609 -2.13722 5.20934 3.66422
3938 1 18.7766 12.4952 15.6528 -0.870835 2.5829 2.29218
3939 1 -23.9914 -3.04027 17.0232 0.638021 0.986313 -1.73029
3940 1 -1.94976 20.2944 -8.75096 4.93604 -1.48234 0.0534722
3941 1 -17.8547 3.78004 -23.6651 0.728596 0.00792736 -0.664561
3942 1 11.9989 -22.8555 16.8776 -0.779969 -4.01616 -3.86309
3943 1 -21.3614 -21.6172 2.11731 -1.20648 -0.0794067 -5.62381
3944 1 -13.0026 -6.71616 -17.387 2.15842 -5.09516 2.33973
3945 1 -21.4899 -12.9477 -14.8247 4.45236 -0.883467 1.13616
3946 1 -8.14332 16.7882 14.1114 -2.10009 -1.561 0.44663
3947 1 -20.5649 9.28906 22.1585 0.898543 -4.47161 -0.477976
3948 1 12.7127 17.2095 -15.3172 0.781492 3.9214 -2.89452
3949 1 5.23849 -15.32 -16.0455 0.961877 -6.26088 -2.35319
3950 1 -5.24681 2.81288 -20.3542 4.35015 2.26895 2.52419
3951 1 6.11758 3.27692 -11.9513 -2.81559 3.24024 -1.93232
3952 1 -5.88996 -1.98905 -21.1847 -4.70708 3.57008 3.87354
3953 1 17.3887 -14.6263 14.8146 -2.3779 -7.31961 2.21235
3954 1 5.31674 -0.143312 -17.8519 2.97063 3.01448 1.89742
3955 1 -7.45884 21.5211 13.6906 1.41539 2.64544 -2.38334
3956 1 -13.4733 12.8596 -6.22431 -0.968606 5.04609 -0.583563
3957 1 20.6282 -24.0923 -18.4678 3.34545 -2.59433 3.92633
3958 1 -0.309037 7.9914 -5.39318 -1.57695 -2.55637 0.372281
3959 1 -21.1163 -5.74373 -18.0005 1.53612 0.31579 -1.05501
3960 1 19.4899 -14.0969 -12.4265 1.17597 1.44143 0.810793
3961 1 -2.83357 -19.3735 -2.89638 -5.23103 0.480625 1.03849
3962 1 5.15574 -13.3841 7.84054 -0.78052 -2.16067 -0.157374
3963 1 -15.9693 -16.882 -3.35773 -0.611682 -3.53038 0.0590473
3964 1 6.76682 8.57992 17.9543 4.23794 2.76092 -2.70015
3965 1 -4.15705 0.927985 1.90393 1.14869 1.80571 -1.96144
3966 1 -18.9333 18.7177 11.0718 -2.68201 -1.8491 -1.49566
3967 1 4.80003 -8.83288 -4.19226 -1.29289 -0.546531 -1.01313
3968 1 -1.40915 7.67961 -2.5654 0.269698 -4.99342 3.08041
3969 1 16.7311 46.7165 19.195 3.43123 -0.700204 -4.98049
3970 1 -6.07328 20.1533 -22.3043 -2.28095 2.69898 -2.61224
3971 1 -3.66702 -0.921851 19.1522 -0.425255 1.749 -1.92008
3972 1 -6.39443 -9.00867 -10.7294 2.59236 -2.80354 0.122324
3973 1 -11.9645 -19.0467 -6.80038 -2.12424 -0.386651 0.153209
3974 1 6.09463 24.5954 15.9727 -4.00104 1.08466 1.30025
3975 1 2.6788 -1.1462 -19.2076 3.06058 0.693486 2.70738
3976 1 -4.56787 15.1995 2.39141 1.25493 -3.04837 -0.477196
3977 1 -10.0634 -10.6415 -19.0768 -0.843259 3.52519 4.03448
3978 1 -2.49564 17.0191 -15.4776 1.01454 4.05965 1.98821
3979 1 -10.5124 -22.8302 3.90394 1.03694 0.555805 -3.06587
3980 1 -19.0194 -14.8792 -15.1893 1.61866 2.99444 -2.75445
3981 1 10.4834 -7.42354 6.39758 1.79093 1.71972 2.42389
3982 1 9.5908 -5.58132 -6.8725 1.86863 -2.3421 -0.549951
3983 1 -23.6226 8.66042 8.74056 1.22378 3.67415 0.355341
3984 1 -3.97047 11.856 -18.1797 -3.12552 -3.63742 -2.71805
3985 1 -15.3205 19.0429 8.13663 6.34436 -1.28843 0.192616
3986 1 16.6032 18.07 -15.8893 -0.231554 1.70662 1.27085
3987 1 13.2397 16.1103 16.8733 1.2789 -5.29533 0.161385
3988 1 -21.9633 19.301 19.5906 0.210318 -2.17437 2.44612
3989 1 -14.6362 -8.80923 -14.7154 -1.37614 3.23313 3.02245
3990 1 9.99644 4.45198 -23.5512 -0.932551 -5.85387 1.21322
3991 1 -16.8202 6.15254 22.7655 -0.392282 0.177257 -0.554854
3992 1 22.4132 10.0389 -2.0262 4.04717 -5.90648 -1.96723
3993 1 -6.22946 -7.97507 -8.00288 -0.736044 3.34715 -1.22095
3994 1 -14.5808 -23.2308 -19.1128 -0.852465 -2.00026 4.13463
3995 1 5.62703 -21.0233 1.7971 2.96115 0.406249 -0.362424
3996 1 7.73525 -14.6251 4.17591 3.29002 2.6295 -2.89467
3997 1 20.8707 46.4601 -10.1572 0.420048 0.415537 -1.25791
3998 1 -11.8329 -3.82411 0.438622 -1.5945 -1.81791 1.62115
3999 1 -7.39332 19.4982 15.7918 -2.66137 4.82616 0.719176
4000 1 -16.8941 9.0611 23.0929 -2.93137 0.64411 0.843043
4001 1 -11.7446 25.2339 -4.09055 0.425473 -0.509084 -4.42036
4002 1 -10.0433 27.2659 -5.38773 3.08161 -2.0258 -1.37243
4003 1 -7.63157 27.3332 -4.16698 -2.69542 0.647663 -0.547353
4004 1 -6.07121 25.3715 -5.05576 4.43928 2.96233 1.56043
4005 1 -10.1762 25.3359 -9.41103 -2.62624 3.16595 1.67158
4006 1 -11.8824 27.3146 -7.64881 -1.17508 -2.30327 1.88668
4007 1 -8.72662 27.6126 -7.90675 -3.83412 0.303615 -1.66205
4008 1 -6.8087 25.5972 -7.76403 2.90175 -1.27658 -3.30861
4009 1 -10.7337 25.37 3.70795 2.04221 3.81835 1.90978
4010 1 -9.49129 27.4338 2.29881 -0.205878 2.77317 4.71584
4011 1 -6.64355 27.6412 2.76008 -1.19794 3.8822 -2.0423
4012 1 -4.51856 25.8728 2.44054 -2.47612 -0.317224 -0.78221
4013 1 -10.4268 25.257 -1.60362 1.94454 1.86266 -3.40853
4014 1 -9.73045 27.752 -0.458953 -1.24809 5.42806 -1.0296
4015 1 -6.8422 27.8907 -1.17214 -3.74369 -1.09581 0.047112
4016 1 -5.46536 25.4284 -0.145265 -0.75974 -1.11324 -4.48581
4017 1 -10.2882 25.8385 10.4847 -0.161552 -3.91328 1.20457
4018 1 -9.17449 28.2758 9.76434 -5.86683 1.71138 1.33627
4019 1 -6.42804 28.0838 10.1187 4.29448 -0.0889687 1.26959
4020 1 -5.01917 25.9506 9.23951 -4.33706 5.90817 0.238721
4021 1 -10.5858 25.5165 6.31034 -1.80959 -1.51316 0.904735
4022 1 -9.19522 27.7067 6.83221 -4.99853 7.49834 -2.16902
4023 1 -6.62483 27.9083 5.61341 2.82686 1.48239 -0.395149
4024 1 -5.00039 25.7666 6.62806 1.40303 1.85872 0.924623
4025 1 -10.8977 29.8212 -4.55484 -1.30231 3.76267 0.94401
4026 1 -9.76574 32.3154 -5.14292 6.15952 1.32074 -0.0191696
4027 1 -7.13797 32.0079 -4.1423 1.74334 5.86761 -4.77906
4028 1 -6.4504 29.7244 -5.22179 -2.86298 -0.636517 -2.1009
4029 1 -12.2877 29.9057 -6.94059 1.27511 -0.88811 8.21691
4030 1 -11.335 32.5132 -7.73781 1.27019 3.23463 1.39813
4031 1 -8.42837 32.2359 -8.50993 0.58183 -0.0301374 1.44696
4032 1 -6.90058 29.921 -8.10167 -2.04122 1.14857 1.64537
4033 1 -10.5608 29.8886 3.30266 1.77789 1.91865 -3.54267
4034 1 -9.91516 32.534 2.46728 -0.959752 -0.633217 -3.51313
4035 1 -7.28292 32.1742 2.92124 -4.24061 -0.930098 -1.03263
4036 1 -5.514 29.9378 2.29067 -0.125834 -0.920899 -3.84875
4037 1 -10.5988 30.1732 -1.63922 1.96103 2.51296 2.27008
4038 1 -9.68326 32.521 -0.143288 0.0670518 -1.53722 -0.598174
4039 1 -7.2905 32.1158 -1.49295 0.420048 -0.532871 3.78982
4040 1 -5.54645 30.2228 -0.561743 1.47622 5.13394 -0.780602
4041 1 -10.2493 30.6991 10.3544 -0.277987 -0.788784 3.54255
4042 1 -8.87889 32.8492 9.3664 0.185289 2.64098 -0.46876
4043 1 -6.25782 32.9648 10.1202 -5.19079 0.535265 0.198431
4044 1 -5.30165 30.5915 9.3905 -3.9888 -1.17746 1.61036
4045 1 -10.1017 30.1757 5.93666 6.25656 -0.900638 2.24572
4046 1 -8.9769 32.4572 6.67922 -0.466215 1.50299 -1.69301
4047 1 -6.57345 32.7051 5.42214 0.745965 -3.09272 0.244824
4048 1 -5.53312 30.2485 6.33075 -0.0460843 -4.30097 0.897002
4049 1 -10.8791 34.5149 -4.10651 0.821242 1.65384 -1.03278
4050 1 -9.62562 37.0853 -4.90445 -0.284791 4.64604 -0.231196
4051 1 -6.93375 36.7751 -4.05657 -0.744502 2.88007 -1.54969
4052 1 -5.92134 34.5395 -5.61677 1.64522 -3.25128 3.94542
4053 1 -12.1546 34.9807 -6.58111 7.10322 -6.41636 -1.94347
4054 1 -10.5757 37.3205 -7.52725 -0.528605 -1.78968 -0.630178
4055 1 -8.16287 37.0032 -9.38507 -3.78927 1.16751 7.08973
4056 1 -6.95172 34.5842 -8.54548 -2.53302 -5.65015 -0.758751
4057 1 -10.8555 34.8828 3.80984 -1.54676 -2.23899 1.83988
4058 1 -9.21365 36.6487 2.42801 -1.24864 -1.15974 -3.95085
4059 1 -6.4679 36.8515 2.57613 -5.69322 -0.13245 -4.2296
4060 1 -5.59939 34.314 2.05004 -1.14305 3.10596 -0.452911
4061 1 -10.5305 34.8655 -1.21056 1.36 1.30494 -3.22181
4062 1 -9.18682 37.0269 -0.338481 -3.13602 0.461296 2.013
4063 1 -6.6095 36.8166 -1.36578 -3.04102 -0.494736 4.54225
4064 1 -5.53486 34.438 -0.781036 2.9607 3.22632 1.6411
4065 1 -10.2176 35.444 9.26633 -3.37978 0.0841456 2.89934
4066 1 -8.48244 37.902 9.89652 -3.69719 0.394215 -1.93419
4067 1 -5.91031 37.4781 10.5641 -5.30295 -6.74822 0.0137627
4068 1 -4.91218 35.2506 9.36401 2.40379 -1.09236 3.97185
4069 1 -10.3561 35.0001 6.48909 -2.57212 0.705292 0.364475
4070 1 -8.65941 37.3575 7.11301 1.66667 -1.34447 0.957084
4071 1 -6.19088 37.1709 5.53861 1.74002 0.814871 2.06434
4072 1 -4.78163 35.0353 6.57021 -1.45758 -1.58978 -3.74219
4073 1 -11.02 39.3278 -3.52239 -2.42395 -2.47818 -4.34559
4074 1 -11.5188 41.4715 -5.40251 -0.829617 -0.56764 -0.910266
4075 1 -7.19245 41.3532 -4.25478 2.51702 0.246087 2.92517
4076 1 -6.2393 39.2735 -5.54764 -0.036823 1.79812 -1.07964
4077 1 -11.4925 40.0681 -7.96421 0.702929 -3.0765 5.47088
4078 1 -9.93861 41.4839 -9.68207 -4.44222 1.65094 4.55585
4079 1 -7.31998 41.608 -9.03512 -1.72059 -0.98439 2.50934
4080 1 -6.45043 39.021 -8.39332 -0.846491 1.92597 0.787759
4081 1 -10.4495 39.2067 3.26348 2.21152 -8.48082 -0.68773
4082 1 -9.0359 41.3463 2.50538 -0.937479 0.235205 0.606074
4083 1 -6.33247 41.6752 2.93875 -3.06754 1.82901 1.36562
4084 1 -5.15369 39.3469 1.89497 -2.12049 -2.65178 1.17077
4085 1 -10.5722 39.2659 -0.760326 -3.7632 4.37071 1.10752
4086 1 -8.95383 41.575 -0.316832 -2.09409 3.20334 2.77926
4087 1 -6.54995 41.685 -1.59483 1.36763 1.94239 -0.834898
4088 1 -5.35804 39.2781 -0.796566 -9.48251 -2.44293 1.27639
4089 1 -8.89379 40.5258 9.34918 1.38717 1.58966 -5.07267
4090 1 -8.01889 42.6411 10.9942 3.44735 0.386748 4.69969
4091 1 -5.26194 41.9938 10.5232 -4.21155 1.25692 4.22326
4092 1 -4.40394 39.5543 9.50109 1.46306 0.703611 2.91137
4093 1 -10.554 39.3655 6.07833 0.0743351 0.800157 -1.65253
4094 1 -8.72149 41.8282 7.06946 4.8819 6.97548 6.73772
4095 1 -6.14006 41.4697 5.81987 0.944935 -1.74128 0.816996
4096 1 -4.75345 39.2779 6.82462 1.30229 -1.73203 0.183008
4097 1 -9.51237 42.8987 -4.29475 -4.75596 0.700864 6.13438
4098 1 -9.08805 45.2018 -5.69909 -3.46491 4.60326 1.01619
4099 1 -6.60072 46.2106 -4.42779 8.50538 1.05946 -1.20341
4100 1 -5.73655 43.4119 -5.59785 -0.875554 -1.4988 -2.68373
4101 1 -10.252 44.0663 -10.3982 -4.04955 2.38108 0.519454
4102 1 -8.53988 45.3082 -8.4561 1.74713 -0.660443 -3.92941
4103 1 -8.62713 -23.138 -8.84708 -1.41519 -0.69692 5.78323
4104 1 -5.86504 44.1902 -8.51752 0.568109 1.83345 1.50074
4105 1 -9.99944 43.7069 3.67092 -0.384724 -1.83106 1.62618
4106 1 -9.05236 46.3058 2.59449 -4.20076 -1.98268 0.595284
4107 1 -6.26953 46.1327 3.16509 -0.103807 -6.38241 1.53194
4108 1 -4.9303 43.9108 1.98933 7.73793 -2.40764 -0.878621
4109 1 -10.0741 43.8114 -1.75794 -0.709965 -2.89384 -0.46669
4110 1 -9.66429 46.2289 -0.236396 0.955881 2.52852 -1.42832
4111 1 -7.1421 46.4318 -1.45178 1.02698 6.5027 -2.00657
4112 1 -5.67708 44.2861 -0.665214 -0.327429 3.1321 -1.93697
4113 1 -8.1562 45.4675 10.3552 5.72885 2.57266 0.680483
4114 1 -5.65802 46.8283 9.71651 3.97708 -2.10252 1.62041
4115 1 -3.05949 46.842 10.9377 0.166447 -0.105094 -1.37088
4116 1 -4.09585 44.2909 9.50956 -0.8515 0.474974 -0.83895
4117 1 -10.4137 43.645 6.48084 0.858303 3.91512 -3.74446
4118 1 -8.75812 45.4513 7.58453 -1.84384 -3.03831 1.32545
4119 1 -6.24101 45.6479 6.05739 -2.54207 0.522053 -1.89602
4120 1 -4.40064 43.59 6.75778 -0.75502 0.992928 -2.8009
4121 1 -3.36679 25.4426 -4.45571 -1.91117 0.493651 -1.49377
4122 1 -2.26048 27.4997 -5.7689 1.23217 0.345262 -1.45754
4123 1 0.532026 27.5459 -4.7807 -3.11929 0.129519 6.66108
4124 1 1.48435 24.9619 -5.83435 -5.67385 9.45075 -1.52109
4125 1 -4.56892 25.0789 -9.15005 2.64524 2.21002 -1.71342
4126 1 -2.59077 27.2746 -8.64507 1.04544 -7.00206 5.83299
4127 1 0.126436 27.303 -9.64237 1.13255 1.54086 4.97472
4128 1 1.72051 25.2638 -8.72912 1.28125 2.8387 -0.0523802
4129 1 -2.31502 24.2887 3.73315 2.96835 -0.661038 2.67575
4130 1 -2.47133 27.6075 1.41339 1.47953 -0.389431 -4.78038
4131 1 1.54703 27.1745 2.64247 -4.08775 0.87104 -1.44132
4132 1 -0.594724 25.5708 1.85635 -1.83168 2.37532 -0.301255
4133 1 -3.04888 25.2669 -1.47646 -0.472208 0.688091 -3.51685
4134 1 -1.97675 27.7526 -1.35248 1.24282 2.39475 5.29044
4135 1 0.686835 26.9989 -2.02911 -0.519989 -6.02562 3.4992
4136 1 1.85861 24.4572 -2.89854 -1.42467 -5.0843 -7.08795
4137 1 -1.78547 23.5058 8.07064 -5.39374 5.46394 -1.72673
4138 1 -2.49185 25.9537 10.28 -1.28642 1.42764 -3.17859
4139 1 -1.04714 28.1464 8.84029 4.5157 1.00905 0.330467
4140 1 1.55144 27.536 9.43392 3.14563 -2.60013 3.04378
4141 1 -2.33179 25.6566 6.162 1.45168 -4.03876 -1.02747
4142 1 -1.32491 28.1534 6.19248 2.31447 2.20679 0.420486
4143 1 1.42907 27.5077 5.50895 -1.84003 -2.37135 0.528396
4144 1 2.6056 25.5749 7.23213 -1.82457 2.71873 -0.0632355
4145 1 -3.65766 29.7535 -4.88528 -2.93674 1.4263 -0.559022
4146 1 -2.50963 32.2229 -5.90743 -6.57206 -1.97343 0.460482
4147 1 0.106872 31.9619 -5.21594 3.34868 -3.21426 5.2553
4148 1 1.49423 29.6915 -6.2251 -4.32911 -0.105037 1.84292
4149 1 -4.30291 29.3735 -9.09335 2.82961 -2.88636 -0.54019
4150 1 -2.70222 31.7132 -8.53943 1.47283 -0.232267 1.1073
4151 1 -0.239646 31.9321 -9.52266 -1.6006 -1.58126 2.15635
4152 1 1.35573 29.8009 -9.02361 0.430985 3.60931 -0.990398
4153 1 -2.8347 30.0391 2.85232 3.48508 -2.97078 1.13769
4154 1 -1.53322 32.0488 1.79235 3.94278 -0.660067 1.60178
4155 1 1.36492 32.238 2.16658 -1.66544 -2.02291 2.34059
4156 1 2.3606 29.6148 1.33565 -3.01579 -1.58535 -5.77017
4157 1 -3.28495 29.9848 -2.17798 -1.32801 -1.97516 0.500284
4158 1 -1.87531 32.3146 -1.09423 1.92099 -5.61808 -2.92272
4159 1 0.544003 31.9053 -2.27187 -0.95534 -1.91192 -0.949976
4160 1 1.86522 29.3788 -1.4713 2.53307 -0.673879 -2.83395
4161 1 -2.67127 30.2161 9.68407 2.30179 -2.22308 2.27772
4162 1 -1.11927 32.531 9.30051 -0.0638519 3.43734 -1.66967
4163 1 1.613 32.1716 9.86576 -3.2216 -1.73491 0.738295
4164 1 2.9274 29.7319 8.73556 0.388617 1.53096 1.2689
4165 1 -2.85288 30.3353 5.56307 2.17082 -3.5867 0.943562
4166 1 -1.16676 32.3058 6.32514 -2.63902 -0.134179 1.97869
4167 1 1.36625 32.1733 4.98765 3.61366 1.07827 6.58399
4168 1 2.87231 29.8083 5.7323 -1.91109 1.36925 0.592515
4169 1 -3.22076 34.6515 -4.7907 6.27737 2.84743 0.639916
4170 1 -2.16581 36.7298 -6.00727 -1.0563 4.17205 1.89348
4171 1 0.57317 36.5276 -5.34436 2.36255 2.77428 -1.56003
4172 1 1.56396 34.1267 -6.02308 -0.617109 4.19997 -0.301647
4173 1 -4.06009 34.1759 -8.93301 -0.205409 0.525939 1.38406
4174 1 -2.5901 36.5294 -8.63633 -3.85368 2.21846 2.1743
4175 1 0.139169 36.3555 -9.43256 -1.11352 2.59336 1.1668
4176 1 1.23554 34.009 -8.68328 -3.01133 -1.84986 -1.64656
4177 1 -2.88823 34.4978 2.80279 1.89076 -4.55809 1.81237
4178 1 -1.21551 36.8938 1.75058 -2.46652 0.316648 4.01889
4179 1 1.50002 36.6058 1.95891 1.17904 -0.101088 0.995793
4180 1 2.94598 34.4788 0.916428 -0.431234 1.41644 1.46647
4181 1 -3.02717 34.6278 -1.86181 0.582721 0.946327 5.03378
4182 1 -1.56311 36.7075 -1.0491 -4.54289 -1.06886 0.0636762
4183 1 0.867856 36.5971 -2.53175 4.07425 -1.27449 0.452005
4184 1 2.17398 34.1247 -1.74333 -0.70686 1.86983 -0.396443
4185 1 -2.0667 34.9535 9.91377 -0.892726 2.31674 3.43876
4186 1 -0.236399 37.0544 9.04418 -4.47062 2.80006 -2.58521
4187 1 2.40845 36.5936 9.64543 3.3018 -1.59567 -1.60231
4188 1 2.98838 34.106 8.4771 -0.0955689 -3.2197 -1.64357
4189 1 -2.33237 34.5621 5.50608 4.34979 -0.122009 -5.35687
4190 1 -0.671454 36.8666 6.30189 0.770811 -4.04173 -0.332369
4191 1 1.62425 36.6593 4.75509 2.08667 -0.751587 -0.186919
4192 1 2.84953 34.4722 5.76656 -2.93229 4.23177 0.965872
4193 1 -3.38613 39.1064 -4.767 -5.0179 -0.574723 3.61653
4194 1 -1.84327 41.0813 -5.82988 1.45032 4.7266 5.74649
4195 1 0.700706 40.9119 -5.24159 -1.58521 0.307987 2.70257
4196 1 1.91248 38.6983 -6.46959 -1.81506 0.458869 -1.05113
4197 1 -3.78164 38.8255 -9.36837 0.952487 -1.26615 -0.398656
4198 1 -2.34739 41.0054 -8.61685 -0.860353 -2.35203 2.00143
4199 1 0.233117 40.869 -9.46416 4.56555 2.09988 2.76494
4200 1 1.67602 38.6553 -9.30536 1.30772 -0.0492703 1.60695
4201 1 -2.39751 39.0946 2.5947 3.07181 -0.797041 7.32859
4202 1 -1.22759 41.4112 1.48313 -2.01432 -4.06125 -2.11901
4203 1 1.63777 41.1138 2.18726 9.20728 -1.5534 1.64991
4204 1 2.64485 38.9137 0.663837 -1.80304 -0.487208 3.28452
4205 1 -2.98016 38.9803 -2.10438 -4.01767 2.85015 6.30691
4206 1 -1.37027 41.343 -1.46278 4.03194 1.37706 -4.55117
4207 1 1.04239 40.9824 -2.64305 6.14119 1.42739 1.27803
4208 1 2.32588 38.825 -1.83987 -1.32515 3.76291 -3.56044
4209 1 -1.63858 39.4337 9.80132 -3.69803 -3.40488 -5.12435
4210 1 -0.39681 41.6497 8.89183 -1.61687 2.34235 0.332043
4211 1 2.24907 41.2078 9.51302 4.40542 -5.50566 0.195163
4212 1 3.36561 38.9346 8.58834 -2.28942 2.23339 -0.0568286
4213 1 -2.12575 39.209 5.49257 -0.255075 -1.54912 -0.843791
4214 1 -0.465232 41.4952 5.95912 -2.10055 -2.58376 1.60122
4215 1 2.05863 41.0966 4.92566 -0.342042 -3.03571 -2.25944
4216 1 3.17476 38.8007 5.7293 -0.989477 4.56127 3.99662
4217 1 -3.01478 43.3649 -4.7845 2.85092 -0.67765 -2.64095
4218 1 -1.51674 45.5337 -5.77578 0.614647 2.28395 -2.45527
4219 1 1.01162 45.7733 -4.63064 5.97688 5.70622 -2.58721
4220 1 1.96053 43.1413 -5.83034 3.46441 5.44919 0.573201
4221 1 -3.33257 43.4459 -9.56995 0.587561 0.266783 -5.31787
4222 1 -1.94614 45.7138 -8.55945 -0.856317 0.610257 -1.61278
4223 1 0.958437 45.9211 -8.46322 1.47832 1.77677 -0.0352803
4224 1 1.57377 43.1642 -8.57762 -1.22761 2.07655 -1.78133
4225 1 -2.18433 43.8488 2.60157 1.99424 -2.43385 -0.303115
4226 1 -0.825392 46.0435 1.69358 6.50293 -3.77004 -4.53894
4227 1 2.03167 45.9005 2.32396 3.59564 -1.95813 1.33638
4228 1 2.88695 43.5805 1.11086 1.15484 -2.93201 0.379854
4229 1 -2.84667 43.7639 -1.87436 -5.61236 2.79424 0.16656
4230 1 -1.21925 45.9354 -1.04726 -1.69394 -0.210458 -2.62314
4231 1 1.47587 45.612 -1.88311 3.48267 -3.20972 1.7034
4232 1 2.86978 43.3291 -1.65837 1.95722 1.23369 -0.511487
4233 1 -1.11241 44.1326 8.73833 2.43545 3.11518 2.25148
4234 1 2.28712 45.6632 9.5867 0.682053 -0.980294 4.62023
4235 1 4.59063 46.6661 10.7252 -1.85568 -0.8412 2.95481
4236 1 3.85162 43.3699 8.79328 2.55628 2.49558 -4.35872
4237 1 -1.93922 43.5834 5.24772 -0.683176 0.764907 0.345568
4238 1 -0.364167 45.6526 6.33772 -0.943749 -2.24428 0.949841
4239 1 2.13113 45.3132 5.1143 3.5088 0.773137 -0.104076
4240 1 3.52256 43.2461 6.05253 -2.79766 -4.50478 -5.19268
4241 1 4.30855 24.9071 -5.71681 2.76471 -2.67997 1.36034
4242 1 5.64329 27.1893 -6.50659 2.03951 -2.48859 2.05798
4243 1 8.39982 27.5734 -5.87146 2.26269 -3.78661 -5.06991
4244 1 10.1494 25.6251 -7.05107 1.06398 -2.00853 -1.22657
4245 1 4.37522 25.2622 -10.0655 2.15467 -2.31461 -4.12418
4246 1 5.88699 27.3121 -9.14034 0.791209 -1.45616 -1.63723
4247 1 8.39459 27.4152 -10.5002 -2.28761 -4.37644 -1.50079
4248 1 10.0562 25.4953 -9.79463 -3.77582 5.52108 1.82001
4249 1 4.32016 25.7683 2.71807 -4.08 1.73682 -2.1714
4250 1 5.94911 27.3134 1.19861 2.52742 2.73975 0.239271
4251 1 8.86578 26.7124 1.50867 1.59966 4.12869 -7.13872
4252 1 11.6757 26.4689 0.176575 -4.29782 3.43021 1.04715
4253 1 4.82084 24.6072 -2.83303 -2.73781 -3.91584 -0.71398
4254 1 5.89087 26.9551 -1.75464 3.49439 -4.69987 1.29814
4255 1 8.69596 27.3271 -3.17402 -6.44493 -2.15621 -1.23781
4256 1 10.23 25.1434 -2.16952 2.02652 -0.613131 7.05621
4257 1 5.01786 24.8605 9.22387 -6.02315 -3.57199 -0.375277
4258 1 6.56894 27.2525 8.47015 2.1534 2.73226 -0.31629
4259 1 9.26086 27.3572 8.77123 -0.308606 -2.15749 3.55932
4260 1 10.2629 24.7509 8.56125 1.36704 -0.437044 -3.01681
4261 1 4.78719 25.479 5.48379 1.51914 0.521917 -4.17433
4262 1 6.78761 27.5722 5.71128 -0.283218 1.85199 -3.06405
4263 1 9.0529 26.8793 4.42827 0.399693 -2.74886 -3.72034
4264 1 10.1845 24.7517 5.84303 -0.331398 -3.38297 -1.54582
4265 1 4.22532 29.5549 -5.50239 2.14665 -0.673112 4.24877
4266 1 5.54107 31.8422 -6.49847 1.55024 6.23036 -0.248295
4267 1 8.19778 32.2391 -5.93266 -5.7319 -0.412285 2.16771
4268 1 9.44299 29.9975 -7.06725 -2.18093 -1.24995 3.76313
4269 1 3.98327 29.4436 -10.0058 2.65782 -1.14552 -2.78505
4270 1 5.33637 31.899 -9.32556 1.13964 -1.25821 -3.00757
4271 1 7.46423 32.1766 -11.1131 0.760256 1.04513 -3.40048
4272 1 9.17375 29.9872 -9.96609 -3.81344 1.30192 -0.187313
4273 1 5.02342 29.731 2.15987 7.12506 0.167017 5.51906
4274 1 6.16482 31.9201 0.829916 -1.71996 -2.49145 0.579995
4275 1 8.80558 31.3134 1.36759 -0.726308 -2.22992 -1.23452
4276 1 9.91253 29.1132 0.409532 -4.35875 3.93006 -4.93084
4277 1 4.37834 29.1745 -2.62066 2.51703 -1.40002 0.471696
4278 1 5.93678 31.3948 -2.16314 0.323669 2.52124 -0.0633473
4279 1 8.59201 32.2087 -3.1697 -0.228076 1.43345 0.609254
4280 1 9.33761 29.6894 -2.13753 5.21291 -2.01698 0.0942406
4281 1 5.45938 29.6119 9.35089 -1.3796 0.817832 -2.40427
4282 1 7.15265 31.689 8.5686 -1.6173 -1.07235 1.12653
4283 1 9.91783 31.7024 8.44587 -2.01752 -1.06719 -2.6368
4284 1 10.979 29.2252 7.77486 -2.62596 -0.579986 -0.664713
4285 1 5.49819 29.8839 4.85455 -4.32331 3.09165 0.705913
4286 1 7.00207 31.8474 5.77092 -2.78056 0.72176 0.307173
4287 1 9.21489 31.3415 4.13647 3.87696 -1.98368 0.432946
4288 1 10.7018 29.0712 5.12945 3.95752 5.57756 -0.468446
4289 1 4.30326 34.0668 -5.67855 0.339323 3.03959 -2.99934
4290 1 5.61805 36.3951 -6.74019 -0.318811 -2.15106 4.27662
4291 1 8.49006 36.8531 -6.28295 -3.18447 -2.84055 -2.82037
4292 1 8.99435 34.5759 -7.40066 -1.7591 1.15404 1.05367
4293 1 3.77276 33.8298 -10.0515 2.11715 -0.236314 -6.01487
4294 1 5.03338 36.1615 -9.57389 -3.66339 1.01553 -0.189007
4295 1 7.59862 36.3768 -10.8614 -2.59782 0.0701193 -4.25032
4296 1 9.04161 34.2234 -10.1597 -0.161592 -1.34225 3.46756
4297 1 5.57479 34.2108 1.99462 2.1607 5.63984 1.29895
4298 1 6.52518 36.3151 0.410475 1.78995 -3.24877 1.70412
4299 1 9.27684 36.5501 1.49124 -2.89255 -2.73393 4.49621
4300 1 10.0105 33.8799 0.768537 1.00144 1.31996 -3.37139
4301 1 4.77871 33.9137 -2.89829 -0.215512 -2.01708 -1.27875
4302 1 6.34629 36.1915 -2.37678 4.01278 -0.152388 -2.91124
4303 1 8.8455 36.9045 -3.32394 -1.46263 -0.853691 2.51287
4304 1 9.83807 34.4725 -2.11371 -2.66648 1.32226 1.20708
4305 1 5.80353 34.1674 9.12304 -0.724291 -1.95713 0.694216
4306 1 7.33214 36.3763 8.17421 0.746563 -2.70381 3.85279
4307 1 10.0508 36.1837 7.88831 -1.35761 -2.57704 2.48816
4308 1 11.1305 33.7682 7.11416 -1.74382 -0.303972 -2.51564
4309 1 5.6323 34.1305 4.77078 2.17883 2.13685 1.77144
4310 1 6.98536 36.5634 5.41719 -3.37395 0.383273 4.22705
4311 1 9.5522 36.7602 4.15048 0.604642 -1.03121 -3.80702
4312 1 10.2544 34.0112 4.55065 6.11644 -3.38729 7.50083
4313 1 4.57857 38.8539 -5.88549 0.262206 1.21164 -4.44477
4314 1 5.96716 40.8992 -7.02812 -1.83809 -1.73508 0.458678
4315 1 8.5141 41.3696 -6.16276 1.07076 -3.02198 -0.803131
4316 1 9.31912 39.0406 -7.64148 -5.58298 0.575393 -1.0133
4317 1 4.2183 38.618 -10.4703 1.05727 -1.34815 2.39011
4318 1 5.59682 40.9258 -9.88187 1.67405 0.314618 -1.48465
4319 1 7.95118 41.0196 -11.2769 -0.58427 -3.47636 1.88225
4320 1 9.02352 38.7759 -10.2795 -0.244682 -0.0724115 -2.15241
4321 1 5.27956 38.5502 1.49743 -0.470836 1.49015 2.92122
4322 1 6.64438 41.0161 0.578636 0.229623 0.676441 0.580579
4323 1 9.49737 40.9903 1.30478 3.13314 -2.51738 0.35785
4324 1 10.8984 38.8956 0.367213 -0.937369 -3.21274 3.20767
4325 1 4.93129 38.6172 -3.18355 2.15894 3.32176 -4.08283
4326 1 6.50271 40.7899 -2.44882 -0.65067 -1.99475 -3.65821
4327 1 8.99689 41.2335 -3.40415 1.14695 3.02684 -2.17716
4328 1 10.378 39.0354 -2.45592 1.27264 -0.0381361 -2.71578
4329 1 6.17409 38.7406 8.75147 0.00306912 2.09702 -3.94187
4330 1 7.48662 41.1506 8.33492 2.46969 0.951672 -2.92594
4331 1 10.5527 40.9814 9.05741 -3.28606 -3.16544 4.42703
4332 1 11.295 38.7874 7.78718 -3.39381 -4.3423 -0.738214
4333 1 5.53917 38.754 4.28764 -4.26523 4.36905 3.39064
4334 1 7.00345 40.9296 5.62402 -7.74271 1.53561 -0.994423
4335 1 9.42181 41.2984 3.89303 -0.554348 -0.204623 4.26054
4336 1 10.5482 39.0365 5.08396 -2.35571 3.46255 3.77863
4337 1 4.79653 43.201 -5.96325 2.77352 0.1984 -1.37732
4338 1 5.94932 44.7542 -7.95294 -0.803926 3.18591 4.83529
4339 1 10.6225 45.6268 -6.9921 -1.8773 -2.70608 -1.10265
4340 1 8.87498 43.7223 -7.74507 2.51017 1.01495 0.225633
4341 1 3.92986 43.3779 -9.83166 1.01316 -0.279799 -2.3886
4342 1 4.6539 45.1032 -11.8836 -4.06214 -2.22379 3.03355
4343 1 7.44637 45.8574 -12.005 -4.33167 -6.37044 3.82693
4344 1 8.70195 43.5749 -10.529 -1.27224 1.13623 1.85462
4345 1 5.73563 43.2387 1.83031 0.761786 -0.445869 2.15743
4346 1 6.3031 45.8236 1.60619 2.35158 2.13951 -6.31306
4347 1 9.01727 46.1214 1.68352 -2.91058 -0.375615 -1.58503
4348 1 10.1067 43.5484 0.274563 2.77412 1.34321 4.18508
4349 1 5.03846 43.1413 -3.20011 5.46994 1.33228 -4.04803
4350 1 6.78579 45.2753 -2.75877 1.06759 0.345946 -1.29785
4351 1 10.3298 45.7942 -3.84326 -5.03923 -3.88017 3.77664
4352 1 9.13012 43.726 -2.34696 -1.23392 1.23728 -1.16603
4353 1 6.81171 43.801 8.68817 -0.913752 -1.54159 -0.563641
4354 1 8.56734 -24.2477 8.46853 -2.20254 -1.74557 3.54324
4355 1 11.1197 46.0221 8.86422 -0.64766 5.09823 -0.492978
4356 1 11.5792 43.5386 7.67988 -3.72687 -5.68049 -2.39325
4357 1 5.97173 43.4322 4.72733 -0.972677 0.869743 3.36012
4358 1 8.04987 44.9852 6.24298 1.88455 -1.9598 -0.375383
4359 1 9.81138 46.0405 4.17172 -1.37382 0.836691 1.00133
4360 1 10.2886 43.4723 5.19332 0.328651 -0.208591 3.20593
