ITEM: TIMESTEP
5000
ITEM: NUMBER OF ATOMS
4360
ITEM: BOX BOUNDS pp pp pp
-2.4455187340825610e+01 2.3646023240861020e+01
-2.4572275654453598e+01 4.7088711254453592e+01
-2.4054705152503928e+01 2.4046503552538731e+01
ITEM: ATOMS id type x y z vx vy vz
555 1 -12.4242 -14.2477 -1.14201 -2.83486 1.69229 -2.05985
15 1 -2.92885 2.07826 -12.4103 -0.439927 -0.927236 -0.686987
22 1 -12.6421 0.336423 -16.3729 2.12707 1.34444 1.83006
27 1 -17.94 5.37959 -0.520985 3.94265 -0.0755539 -6.20992
29 1 -5.45254 -11.6095 -10.9245 0.151976 -0.891981 1.13005
37 1 -11.3249 -7.62792 -3.23216 1.73211 3.54366 1.93661
2205 1 -23.7578 8.7318 -15.3352 0.962217 3.57129 -2.68676
44 1 -2.70515 -16.849 -7.58394 2.70629 -1.60661 -1.6973
54 1 -16.9357 -11.9257 -11.9589 4.93872 1.15024 -2.30692
55 1 -3.74687 -4.43203 -14.0755 -6.39204 -1.56028 1.43635
57 1 -14.8952 -9.86416 -3.92254 5.84268 4.18817 5.30929
66 1 -10.0781 -16.9137 -15.2518 0.0635381 -7.07163 4.30942
75 1 -17.9096 1.77472 -10.7799 -4.20386 -1.16466 -0.321138
3255 1 -17.9798 11.1571 -18.2317 3.16304 0.933678 -4.74064
97 1 -6.97659 -12.255 -21.5878 0.28003 -0.347525 0.734777
3824 1 -8.59342 -24.1652 -5.6277 1.8023 1.12255 -1.98811
1307 1 -16.5008 -22.903 -4.22302 0.808469 -6.04351 3.34396
112 1 -15.2589 -0.747673 -19.6112 0.903295 -2.94374 1.11557
126 1 -8.16571 -2.02345 -8.79455 -2.41844 -2.78357 -0.179592
128 1 -19.1098 -1.74864 -8.29748 -1.46853 1.98924 -3.72581
132 1 -7.90019 -4.74588 -22.836 -6.98246 3.8176 7.10366
135 1 -15.3847 -6.02217 -21.408 -0.93184 0.987974 -4.80661
2463 1 -12.5205 -21.0066 -22.8243 -1.17377 0.627776 3.57683
137 1 -11.8463 3.96656 -14.2213 3.58099 -1.75225 -1.06606
139 1 -18.4689 -19.0139 -15.5196 0.218746 1.33951 -3.22546
143 1 -4.63051 -1.57913 -6.597 -3.80055 0.00941472 -0.795562
1550 1 -0.73904 -7.97831 -11.3711 -0.557534 2.90824 -0.584171
149 1 -18.7963 -22.7092 -18.4517 -1.57299 -3.85313 -1.11963
160 1 -5.72739 -16.549 -4.85913 0.786182 -2.17079 4.95611
167 1 -13.1013 0.958086 -1.94965 -0.313559 -0.797693 2.31187
170 1 -6.96016 -17.3197 -13.2254 0.231586 -1.20991 -2.38246
174 1 -18.3359 5.94722 -22.2697 2.66569 2.19588 -6.1815
179 1 -5.93458 -7.73163 -12.0048 -0.540023 -2.95489 1.19746
181 1 -5.68806 -2.17565 -20.7359 2.26926 1.19485 1.7802
187 1 -11.1059 9.14454 -8.36831 -0.838333 -6.99074 -0.0426823
3378 1 -4.99567 -17.959 -1.0717 0.789722 2.43617 -3.32351
198 1 -9.35332 -21.8916 -18.6363 4.75425 1.18866 -0.506945
1302 1 -4.82611 -4.03352 -22.906 -0.449245 -6.08103 7.07204
204 1 -7.565 -15.01 -7.01677 0.227482 1.28349 4.54263
206 1 -5.48111 -16.2225 -20.5381 0.71696 -4.41497 7.11574
1502 1 -23.953 -6.45925 -7.31983 -1.60445 1.24227 1.7727
213 1 -20.5744 -19.9094 -2.63566 -2.73368 -6.85753 3.39877
221 1 -14.6771 3.163 -0.74325 3.48489 -3.3138 -1.5638
3343 1 -24.2919 -6.38095 -18.4437 -5.29911 0.606619 -0.0690203
235 1 -23.622 -0.902257 -7.82917 0.0792593 -2.23173 -1.59841
242 1 -8.30899 -3.61608 -12.6734 1.17237 1.8622 1.99509
248 1 -17.3059 5.92855 -12.913 -3.74917 4.2713 -3.15321
251 1 -20.8833 -1.11089 -22.7706 -4.8524 2.8518 -3.01441
253 1 -2.65847 -3.06946 -20.8122 -2.50077 0.336317 -3.4028
256 1 -10.8717 -6.08048 -10.0783 -2.13002 1.05521 -3.67778
257 1 -0.846002 4.52161 -21.4599 0.475291 -6.23804 1.67842
258 1 -6.02022 0.0869769 -8.58464 3.20623 0.511773 2.80573
263 1 -21.1731 7.41475 -6.55178 -1.21655 -0.300105 -3.37748
269 1 -19.8856 -7.58781 -16.2786 -5.13675 0.0320615 1.77831
2161 1 -0.915113 10.9012 -4.79508 0.806401 -4.30367 1.86362
280 1 -3.26941 -17.4082 -12.5365 4.77429 -0.838401 -2.61619
283 1 -2.75696 -22.656 -20.069 -3.95369 -0.193176 3.46139
290 1 -5.65541 -11.4355 -16.0206 2.61691 5.02074 3.12255
2523 1 -17.1369 -24.6287 -19.915 2.97128 -4.08217 -0.156549
303 1 -21.4204 -18.6014 -7.4179 7.08136 -3.23916 -5.02456
312 1 -8.20315 1.65049 -7.74786 2.62506 -1.60268 -3.41404
313 1 -16.9269 -17.7343 -13.6985 2.86205 6.15248 -0.195432
314 1 -13.9519 4.72939 -8.2252 1.81258 -2.62678 -6.64359
317 1 -9.63705 -13.0289 -22.7815 -0.503852 -2.91282 0.733608
321 1 -18.1228 -13.677 -14.1822 -1.02088 4.31377 1.25309
3306 1 -7.23735 8.86083 -22.2443 -0.197639 -1.1847 2.481
339 1 -4.72856 -13.8038 -22.1553 -0.66698 -1.55817 0.267325
340 1 -14.8175 1.59754 -18.0826 4.92323 -7.90289 -0.0343504
341 1 -8.71416 5.12752 -12.7905 -2.61576 -0.664888 3.37412
1634 1 -19.2861 -8.82053 -22.318 4.16976 0.553824 1.43319
343 1 -1.47034 -13.826 -5.38359 -0.401362 -4.3319 -2.42423
356 1 -2.16525 -19.7155 -20.1409 0.698059 0.203393 -0.418911
359 1 -14.0287 -21.6002 -9.95049 3.43502 2.99007 0.071139
3196 1 -1.72391 0.0567537 -2.06015 -0.261971 -2.54424 2.85498
364 1 -10.8877 2.06713 -7.18342 -2.27283 -2.83134 2.10412
366 1 -22.6528 1.74605 -9.14702 3.7488 -1.49406 2.4981
376 1 -4.14273 -13.3221 -17.5039 5.23999 -3.69855 -0.729942
2643 1 -1.12211 -13.5014 -23.4449 -2.22684 1.336 4.96916
393 1 -12.2558 -19.6662 -11.582 -3.28251 3.70074 2.03514
294 1 -8.64564 1.69514 -1.32908 -1.89863 -0.783936 -4.31466
742 1 -7.84966 -22.2098 -24.0338 2.10689 -3.54915 1.63404
2376 1 -15.4948 1.29451 -23.8481 4.2722 1.64964 0.451979
970 1 -3.39589 -22.7415 -7.64007 5.30635 -2.27056 -0.346843
415 1 -16.4982 5.95022 -8.03015 -4.67342 -5.64576 1.99077
421 1 -15.1198 -23.7543 -14.4737 3.52184 -1.06671 -1.05168
426 1 -16.475 -3.18035 -9.43844 -7.26952 -0.128793 2.16438
429 1 -7.40945 8.98299 -12.8669 -0.808687 2.26141 0.600398
433 1 -19.426 0.662205 -17.6471 -1.02913 -1.91844 1.78745
434 1 -12.9348 -3.40341 -12.4726 0.294247 4.12623 1.80494
436 1 -14.6393 -10.3572 -10.8556 2.58165 -1.5185 -1.92649
438 1 -15.9061 6.71343 -2.51203 3.86052 2.90085 3.15983
444 1 -23.6426 9.11838 -18.253 -1.04662 1.40429 0.00607892
454 1 -5.6516 0.192821 -14.0789 -3.36429 -0.873199 2.16711
470 1 -19.8672 3.96771 -9.90098 -3.59689 -4.43491 1.80892
476 1 -13.3486 -5.92069 -4.0584 -5.97402 3.21804 6.34719
477 1 -12.0654 -11.029 -14.8465 3.99795 5.80926 2.63192
100 1 -24.2801 -15.4432 -23.4348 0.86134 1.59811 -3.3514
492 1 -13.6514 -16.7681 -11.8677 0.0270279 -3.82155 -1.46142
2070 1 -23.4535 0.300091 -0.980222 -1.55377 -2.77219 4.51829
2483 1 -1.90909 9.98219 -11.3557 -0.495585 -2.74437 0.0959139
501 1 -15.5562 -12.1363 -7.02475 -3.33909 -4.89911 1.07656
1892 1 -1.50498 -12.1897 -17.436 -1.24501 1.51835 0.163788
231 1 -23.9954 -3.06191 -22.2395 4.42415 -1.92486 -2.51125
517 1 -14.7893 -3.26528 -22.1807 1.63157 2.77799 -2.85303
519 1 -22.513 -14.4054 -7.61977 3.98663 0.503218 2.81652
520 1 -5.74445 -22.0515 -12.015 -1.08651 1.88863 -2.27984
523 1 -11.7391 -14.161 -8.97873 2.23558 0.151118 3.54053
525 1 -5.901 -0.591737 -4.26631 -0.374685 3.25364 -2.03864
532 1 -9.66298 -2.3783 -3.79438 2.33049 2.76121 2.04138
544 1 -4.84501 -19.7284 -19.1181 0.00477488 -1.79027 1.29228
546 1 -6.37662 -13.8454 -14.0705 3.27422 -3.49783 -0.985128
3695 1 -7.29422 -5.23376 -1.11425 1.15202 -2.15594 3.7373
575 1 -14.0008 4.79303 -3.52228 0.613437 -0.907243 4.93839
580 1 -5.62286 4.83713 -21.3037 -2.01669 -3.2423 1.78953
582 1 -3.10546 -15.3538 -19.3046 1.06657 -1.62089 -2.76106
1789 1 -23.0381 -0.0635217 -5.25809 -0.0800344 2.62977 -0.774371
2593 1 -23.9744 -7.04157 -23.0733 3.63179 -2.5001 2.80215
753 1 -15.5944 -18.7459 -23.2777 -1.98922 2.65682 -1.29473
603 1 -7.62443 7.62188 -4.06116 3.39249 1.71574 -2.26889
611 1 -1.97752 -10.1308 -7.16686 -1.91804 0.570651 -2.32477
614 1 -16.6868 -9.68927 -6.20321 -1.86022 4.65434 0.695806
624 1 -7.32199 2.57983 -21.3722 -1.45694 1.48332 -0.101774
626 1 -3.31249 3.58979 -19.9974 1.6996 -4.86361 3.44399
3200 1 -22.571 -4.93174 -5.36745 -3.26847 7.27237 3.60303
629 1 -6.23775 10.1017 -9.67235 -4.73291 1.55527 1.43963
636 1 -21.7124 2.491 -17.7584 2.7096 0.404617 -4.49479
1024 1 -3.31358 7.76043 -23.0334 2.08328 -0.610548 -4.32461
639 1 -10.3917 -18.082 -21.2318 4.80001 -5.35567 -5.79316
645 1 -8.64594 -7.14065 -18.5096 0.271089 0.483052 -0.841871
651 1 -21.6536 4.32195 -12.1819 -1.97757 2.42677 3.48764
652 1 -4.97792 -3.04467 -17.8121 0.231257 -0.460092 -3.09527
2859 1 -23.3766 -23.4214 -20.2696 0.883957 -0.113171 -1.32072
654 1 -9.37041 -1.35012 -18.3105 -1.32598 -2.51461 -1.45944
655 1 -3.89089 -11.867 -13.6712 -4.05548 1.64756 -4.37986
661 1 -19.2832 -6.24699 -18.8017 -2.89563 0.498091 2.45494
663 1 -13.1979 -20.0215 -7.68351 -1.41559 -1.94662 -0.134541
666 1 -7.94583 -6.1599 -11.0497 0.283646 -2.21418 -2.72501
1580 1 -17.4718 -23.2505 -8.13567 -2.13785 3.40289 -2.82569
1314 1 -15.2612 11.2462 -17.3986 -2.08812 1.15058 2.71936
674 1 -8.77933 0.07439 -20.8799 -0.558971 -1.30793 -0.194725
675 1 -21.4276 -12.3585 -9.16943 -0.476033 -8.55628 -2.99898
678 1 -18.9171 -7.1239 -0.463094 2.09991 -2.46227 2.91264
679 1 -17.8036 1.52268 -6.60595 -0.531906 -5.08835 1.0891
3965 1 -6.5036 -0.136562 -1.54863 -1.91507 -6.89549 1.52939
688 1 -12.7864 -13.1372 -12.8389 1.98586 2.41505 -2.60521
951 1 -9.11187 -24.5443 -13.2215 -4.61013 -4.31141 0.439643
709 1 -7.25447 -4.54624 -8.79018 -0.559089 -3.21368 -3.14031
711 1 -16.0888 -5.3417 -14.4114 4.76991 0.884929 0.571675
717 1 -10.8549 -4.97428 -13.9848 1.54282 -5.91741 -1.58273
721 1 -8.51567 -8.56327 -14.433 3.73099 -0.270324 -0.72158
741 1 -16.4624 -20.8696 -11.775 -0.859105 -5.52011 0.255724
2518 1 -0.889853 -2.50886 -3.27853 -0.769062 1.56806 -2.12762
756 1 -5.74104 -3.31988 -3.08852 -1.58797 -1.53598 1.08855
761 1 -10.284 -13.5187 -6.66142 1.85798 -6.58136 -2.05818
780 1 -5.83607 -6.75178 -21.8124 -2.04988 5.4001 -3.75322
796 1 -9.2607 -11.1085 -15.6884 2.75313 -0.363045 4.21707
798 1 -14.9932 0.826653 -7.26968 -1.24305 5.83296 0.7333
808 1 -1.65619 -17.542 -10.1388 -4.46726 0.238868 2.21916
810 1 -21.5798 -12.6834 -5.24074 0.220779 1.61675 -2.90851
811 1 -12.702 -7.52749 -8.2584 -3.61834 -2.25778 1.23345
190 1 -16.7482 10.7481 -11.3497 -1.56454 0.916724 -1.45929
1354 1 -1.86756 -5.7832 -16.9709 -0.991468 -2.09733 -5.6272
1475 1 -23.6049 -23.274 -4.21009 1.16272 -0.243531 -0.857364
826 1 -11.3373 5.66238 -2.79936 -0.532533 -2.76482 -2.36858
833 1 -9.28484 -5.13825 -6.62579 -0.529724 -0.893279 1.96314
837 1 -21.6106 -15.2951 -3.87049 -1.1482 1.21563 3.7151
842 1 -5.77828 -23.461 -1.43307 -2.69572 0.91368 0.298252
1941 1 -1.78032 -21.9431 -12.8441 0.127364 5.50897 -2.09333
856 1 -21.8996 -2.87949 -9.13525 1.96351 -5.37022 -1.40232
3989 1 -16.4496 -10.2094 -14.224 0.611384 -6.06675 -1.86704
872 1 -3.46382 -7.43849 -20.2501 3.03546 5.34169 1.48345
2812 1 -8.70892 -0.652662 -24.088 6.02985 1.89185 -1.76186
882 1 -12.1396 -3.62191 -2.74065 0.457966 0.337962 -0.948522
885 1 -4.73189 -19.1609 -4.05407 3.87252 4.87929 3.88642
3614 1 -1.54918 -4.96405 -4.71945 -4.61115 -0.68232 -2.86181
900 1 -11.2068 -15.507 -12.7345 1.89624 -2.13244 -1.89292
904 1 -10.7137 -7.67019 -6.21652 5.37711 3.54785 0.0404968
907 1 -15.2488 0.670719 -10.3764 -0.69661 -2.77432 1.20392
910 1 -9.07362 4.3357 -4.10399 8.09474 -3.55915 -0.660677
922 1 -10.3859 1.60131 -18.1984 -5.27379 6.03149 4.89969
929 1 -8.54297 -13.9166 -2.31583 -1.64064 0.592576 1.67448
930 1 -21.0016 -18.859 -12.0478 0.205959 2.22517 -1.037
939 1 -8.00991 -13.3674 -16.6024 -1.30078 6.36554 -0.798584
942 1 -6.62959 -13.7669 -19.2619 -3.41859 -0.784938 1.20907
948 1 -20.5451 4.61449 -7.26452 3.50478 -3.04724 -0.513853
1387 1 -17.7986 -0.477984 -1.3449 2.84804 -2.36281 1.12046
956 1 -15.2395 -4.81478 -11.6915 -2.32374 1.22767 1.52358
962 1 -5.32893 9.02001 -4.53875 3.07941 1.1612 0.50005
1496 1 -3.53242 10.8669 -9.23555 -2.84687 -0.789256 0.679551
3947 1 -24.1932 10.7394 -23.4661 -0.421725 0.387074 -1.17344
2396 1 -15.7883 -21.5543 -1.66822 1.92074 0.558771 -0.842733
1001 1 -20.3907 -4.31206 -7.16656 -4.46164 0.714401 2.02676
1010 1 -14.0638 3.42692 -10.6419 -3.54892 0.0640808 -0.0586854
3528 1 -24.0694 -23.8785 -0.768409 2.07598 0.257481 1.96334
1022 1 -9.27353 -22.8548 -10.9462 1.81561 -3.62349 4.97129
342 1 -0.883989 -14.2036 -10.2212 4.92094 -0.56593 -2.62272
1028 1 -6.47418 -10.215 -13.4438 -2.82337 -4.50784 -2.21015
1030 1 -16.931 -16.4986 -21.4066 3.07424 4.10357 -5.68433
1031 1 -2.31476 -11.7353 -3.51907 -3.66795 -1.40081 3.75999
4103 1 -8.10707 -24.0696 -8.35853 2.21744 -7.01396 2.5205
1041 1 -3.0824 8.77897 -13.9622 -1.99682 4.61135 1.36953
2494 1 -14.4788 -16.1016 -22.9585 0.656855 -0.485479 -1.25687
1052 1 -21.7227 -2.7555 -20.4799 0.837262 0.0905362 2.29348
1057 1 -7.59335 -16.0685 -15.8331 1.89875 -4.97783 9.17199
1080 1 -19.169 -8.10192 -9.8947 0.194699 0.530869 3.35339
1082 1 -18.0388 -16.9169 -5.49538 -1.78398 -0.729097 0.477802
1084 1 -2.70922 -16.2972 -4.79887 5.1836 -3.16946 3.11404
1085 1 -12.598 -14.7015 -5.2297 1.38852 1.80739 -0.579468
1086 1 -10.384 8.6559 -3.1521 -0.147003 1.16168 1.44102
1090 1 -21.8867 -21.157 -10.5596 -5.29303 -3.44983 0.157045
1092 1 -20.5162 -17.8151 -4.74592 -6.17056 4.47509 1.59608
1120 1 -6.19603 -15.6447 -2.16556 0.843526 3.56582 -1.77708
1228 1 -24.0992 -18.7599 -6.63497 -1.39518 -0.414648 0.498969
3977 1 -10.0708 -19.706 -16.8252 -7.54793 0.748364 -0.281602
1136 1 -20.2348 -20.8685 -19.983 -8.09674 2.66196 -4.17077
1160 1 -9.53467 5.47995 -8.40777 4.35316 2.76025 -0.483156
1512 1 -11.8039 -11.4261 -0.850024 -1.13267 2.46539 -0.341846
1172 1 -21.4993 -15.6867 -15.8068 -7.52116 -2.76481 0.392488
1174 1 -22.4951 -20.81 -16.2563 3.94254 -1.19711 2.79743
499 1 -23.4714 4.02251 -7.39561 3.09205 -0.774219 2.29047
1191 1 -2.99496 -1.17895 -18.42 -0.907263 6.74319 -0.521831
1192 1 -14.1404 -1.7901 -10.1947 2.70072 -3.24406 -0.21747
1199 1 -12.9692 5.54604 -12.1623 -0.490234 3.60508 -1.9492
1202 1 -15.4995 -1.58896 -5.44823 3.17139 0.572634 -1.83491
1203 1 -17.0053 -10.3853 -17.1599 3.31295 1.55513 -0.490028
3101 1 -23.535 -14.6478 -19.5475 -0.925781 3.68431 3.85408
1230 1 -15.4502 -18.2592 -7.62268 -2.73121 -2.77891 3.29872
1231 1 -19.3321 -10.8771 -10.6583 1.35196 -1.90272 -0.345351
1233 1 -3.1037 0.922858 -20.6088 -3.2398 2.11668 0.642976
1245 1 -19.1045 8.78906 -21.6126 0.142252 4.04341 1.64429
1247 1 -2.47796 1.09807 -9.95841 -3.28245 -2.80785 4.17348
1257 1 -5.78709 -22.6091 -9.22457 1.57569 0.514802 -0.273231
1263 1 -15.38 -7.28414 -2.95791 2.94982 -4.00472 -0.270937
1264 1 -21.8307 -11.2684 -2.54357 3.49293 0.317839 3.11409
1268 1 -22.8181 -11.7915 -18.4026 0.987718 -1.11163 -1.40719
1276 1 -3.58983 -10.2559 -21.4692 -5.26677 -1.79007 -0.295416
1286 1 -6.21692 5.34673 -16.5567 4.55869 1.72117 0.54072
1299 1 -11.2136 -10.6735 -6.51988 -1.40581 -0.54602 0.0994883
1582 1 -13.5082 5.66981 -0.792701 -1.66596 -2.13258 -0.872993
1303 1 -6.57363 -7.54711 -16.3769 1.04517 2.40052 2.00576
3662 1 -3.37366 -0.0569527 -23.3103 0.761594 -1.76983 -0.374338
1011 1 -17.3709 2.53185 -0.931373 1.43641 -4.00156 2.84932
2995 1 -4.63818 10.7281 -6.64499 0.389126 -1.93226 1.34214
2236 1 -23.6677 4.28529 -16.2475 1.58251 -0.364312 -2.92205
1315 1 -19.904 -11.7509 -21.4564 -5.01118 -1.81083 0.262844
1317 1 -12.5881 9.57767 -12.0534 -5.73589 -0.233244 -1.52856
1324 1 -10.6783 -22.5698 -21.2418 -1.16131 -1.69933 3.3811
1326 1 -19.2859 -18.1972 -20.1974 -2.21209 1.0467 -2.57421
1331 1 -19.8058 3.13441 -2.43405 -0.149133 0.0604119 0.321831
1343 1 -8.82661 -10.3679 -8.26684 -3.95824 -1.50329 3.32589
1345 1 -21.5997 2.99509 -20.39 0.746662 -2.01814 1.78138
1347 1 -17.5781 -12.1345 -20.303 0.668811 1.69844 2.59258
1350 1 -15.0975 -1.00044 -2.63298 -0.451499 -2.6867 2.91667
1356 1 -19.0912 -12.664 -3.02819 -1.74841 -6.00556 0.663009
1357 1 -22.7108 -6.91693 -10.6085 1.28953 -3.57038 2.89446
1363 1 -15.2998 -10.4776 -21.1373 -1.27041 0.13512 2.67393
1371 1 -20.3257 7.01571 -0.720199 -3.05094 -1.3936 2.41366
3855 1 -2.41673 -5.68156 -23.6497 3.37188 0.983886 1.25721
3972 1 -3.41462 -7.35493 -10.8385 3.00866 -5.62861 -1.85698
1399 1 -1.49584 -23.3186 -2.33308 -3.57228 0.491806 -3.01866
1402 1 -20.2805 -4.11295 -17.1293 4.23541 1.62562 -0.499829
1406 1 -5.82956 2.48832 -12.3395 4.41422 2.70959 -6.73674
1407 1 -24.3227 7.7164 -1.49462 2.03815 1.86516 -1.65908
1724 1 -19.2112 -23.6189 -4.6789 -2.8838 -0.170234 -4.89739
1413 1 -12.6539 2.84694 -19.4418 1.74559 -1.09304 -2.62433
1422 1 -13.5275 -19.8161 -15.5214 3.52008 -1.82676 -1.57644
1431 1 -9.56639 3.63526 -10.6649 -3.36011 0.720593 4.07338
1433 1 -20.6507 -9.64358 -17.8885 0.427516 -3.81878 4.42243
1436 1 -18.561 -3.90014 -14.7033 0.264869 -0.524448 6.09919
2194 1 -18.8409 3.09097 -21.3637 1.34337 -1.86686 -1.05022
1439 1 -19.6428 8.74277 -9.74123 -2.19915 3.5815 -4.06288
1442 1 -21.6245 -8.83781 -6.1431 -2.67407 0.434026 0.129387
1450 1 -2.38851 -5.6899 -8.59904 -0.961483 0.924818 -3.23394
1452 1 -6.53123 -23.2572 -16.4428 -0.110796 4.16702 0.346475
653 1 -23.8577 -18.457 -12.6199 0.99008 -1.24184 -0.13119
1455 1 -14.3224 -19.0411 -2.75707 -2.18439 3.23985 0.425789
1457 1 -17.7217 2.67388 -18.7033 3.75282 -2.97311 -5.59216
1459 1 -9.54908 -12.1017 -4.17855 -2.08415 2.72376 0.972788
1460 1 -14.9495 8.64369 -11.4545 4.89138 -0.608382 0.257736
1466 1 -17.8198 -7.36158 -4.19326 3.82215 2.94295 -3.76832
1471 1 -1.80503 -5.34677 -12.3642 -6.23361 -2.08533 -1.89144
2028 1 -0.577092 0.663541 -17.0617 0.798566 6.58334 0.222149
1487 1 -3.28399 4.72196 -17.5113 -3.21835 -3.24915 -0.0810731
1490 1 -21.2015 6.56689 -3.57443 -6.02731 -2.53737 -3.04258
1493 1 -4.55518 -7.15416 -14.6556 1.02162 -9.39233 -0.272012
1494 1 -8.84411 4.81534 -18.0016 -0.103048 -1.84099 0.935628
1840 1 -20.1461 -12.688 -0.25014 0.192486 0.615399 0.463799
2257 1 -0.843744 4.55138 -7.48066 2.66577 -3.09136 -3.50282
1504 1 -3.24303 -23.2178 -4.80038 -2.15999 -1.10815 2.29024
3768 1 -1.11509 6.86304 -14.6737 -2.27744 7.34435 6.14653
1514 1 -13.7407 -5.08295 -6.83101 0.945709 -1.17339 -2.78002
1522 1 -13.7677 -1.13503 -13.902 2.97683 2.14121 2.29688
2835 1 -5.45423 5.89321 -0.693203 -5.69013 4.39145 -1.44605
1540 1 -21.0258 5.37922 -23.2426 2.12536 3.53525 -0.172322
3124 1 -15.1486 11.1194 -7.81857 0.635386 3.42735 3.16075
1554 1 -6.90264 -5.43979 -19.4681 -5.75239 3.44489 0.076723
1555 1 -20.0644 -3.09303 -4.40091 0.914648 1.21644 -0.726882
1570 1 -22.6778 1.71535 -11.8484 3.27777 -1.67537 0.121395
2009 1 -4.77555 2.08093 -1.79777 0.00407153 2.08725 -0.613226
2015 1 -0.903437 -7.51443 -3.31913 -0.993878 3.25383 2.02504
2478 1 -3.50323 -22.2367 -0.404754 1.54002 -4.11411 1.6138
1589 1 -11.695 -21.3338 -2.06841 2.1881 0.270395 4.74887
1596 1 -2.30094 -3.01387 -16.1963 0.0673956 5.00729 -0.395574
1602 1 -20.8119 -13.8599 -19.4957 0.591557 -0.21515 6.29011
40 1 -1.82645 3.21467 -15.5516 2.33722 5.7752 1.50918
1615 1 -5.34818 -16.0445 -8.81179 0.388147 -0.64928 -0.371737
1617 1 -15.1433 -14.4419 -12.2268 -0.398767 0.202885 -0.805764
1632 1 -4.66773 9.49915 -21.2277 -3.08217 -0.890914 -0.00939927
2922 1 -17.2631 -21.2826 -23.6326 -4.45146 1.12707 -3.30263
1640 1 -17.3285 -23.3886 -12.5491 3.32058 1.39327 -0.185867
1645 1 -1.7653 -7.38852 -6.30635 -2.2922 0.280476 0.798271
1646 1 -22.5243 -8.25511 -19.4211 5.06274 6.94974 -1.548
1129 1 -0.703927 -9.97807 -22.2365 0.0126127 2.42156 6.28107
1649 1 -19.6236 -6.56806 -12.283 -0.425022 -2.107 4.10956
1662 1 -9.02586 -21.3679 -8.2502 0.441631 -1.99134 1.20629
1663 1 -14.6398 -3.35235 -0.859729 5.86731 3.84114 -1.65414
1676 1 -19.545 0.466341 -3.24045 -2.60631 0.52174 2.58433
2347 1 -14.2965 8.95052 -16.0212 0.0112108 -0.0689929 0.212053
2252 1 -23.1676 -13.166 -0.690542 -0.294479 2.91233 -0.347891
1688 1 -20.7173 -2.42008 -11.5457 3.6509 -2.63621 1.9509
1694 1 -15.9227 3.06626 -12.9208 -6.2564 0.580532 -1.45816
1710 1 -11.4452 -21.6226 -14.4483 -0.952893 2.0862 4.68659
199 1 -24.141 -3.93315 -10.7894 2.9445 3.96682 1.75776
1725 1 -14.773 5.22139 -16.4808 -2.77171 2.43342 3.66479
3959 1 -20.0709 -4.93298 -21.3286 -1.69057 2.24382 -3.07141
2936 1 -22.4012 9.63983 -5.05077 -2.09743 -1.9856 0.24315
1737 1 -18.293 -1.1206 -5.62971 -0.120403 1.26777 -1.75502
1753 1 -22.7157 -16.3027 -21.3573 3.66519 -0.811626 -5.06342
1755 1 -7.93417 1.13001 -10.6849 2.13864 1.74948 1.17112
1760 1 -16.3704 -13.6696 -22.518 2.57065 1.16569 4.93905
1778 1 -17.81 -7.65183 -14.3553 2.12533 0.849817 1.11082
1782 1 -22.3905 -13.7422 -11.4438 -0.615157 7.15415 3.53868
1785 1 -7.67009 7.7275 -8.72574 1.70783 0.905766 0.224974
1786 1 -2.55882 2.84364 -6.0155 1.03816 4.28546 3.88893
1680 1 -23.5425 -18.7536 -20.7603 4.83162 -0.00351745 -0.373095
1432 1 -9.67934 9.679 -23.9664 3.50993 1.47335 -2.75747
1801 1 -12.0011 -19.5616 -4.43925 1.14767 -0.856459 -0.948424
1802 1 -17.5717 -20.3239 -8.65468 -3.07132 1.04678 1.80216
1804 1 -3.96634 -20.1968 -13.0216 1.88099 -2.4786 -0.778933
1812 1 -10.9184 -4.34366 -20.5934 -0.560943 2.52837 3.14159
3082 1 -2.15065 2.64994 -23.6962 -2.73765 0.538108 -2.85825
1830 1 -16.9719 1.59627 -15.9851 -0.837006 2.99818 -3.09837
2141 1 -21.2482 -23.8327 -0.433187 -1.88909 3.83537 -6.08129
1851 1 -7.0135 4.02761 -2.0795 -0.148557 3.15868 3.3715
1861 1 -14.846 -22.1058 -16.754 2.88322 -0.63237 -1.72514
1862 1 -11.4009 -3.33325 -9.90182 3.76717 -1.86335 -2.64804
1863 1 -3.47712 -12.5485 -7.17411 1.14056 2.54823 -4.12878
1872 1 -2.09748 -11.6036 -11.2323 -1.469 -0.549471 -5.18106
1874 1 -8.56933 -15.8259 -20.3087 1.26755 3.91373 2.25258
3973 1 -11.1763 -21.7331 -6.26479 5.69802 4.98887 -6.28469
1876 1 -22.082 8.92496 -21.0395 3.44545 -6.48794 -3.60682
1879 1 -19.7311 -17.2946 -17.2932 0.0411473 6.43142 -4.26554
1883 1 -7.42623 -10.6166 -5.49328 -2.06492 0.795649 5.18627
1888 1 -10.1988 -19.0628 -13.4968 -3.64504 0.861268 -2.12085
873 1 -5.94013 -1.57497 -23.7307 -4.57878 3.22029 6.14609
1959 1 -23.4559 -5.08688 -1.87075 -3.75505 0.851056 -1.57793
1901 1 -10.2047 -14.149 -18.6655 4.52805 -0.131945 3.07123
1905 1 -15.9693 8.22376 -6.71743 1.30759 -0.290267 -3.71883
1918 1 -18.2371 -1.52103 -21.6338 -6.02301 -0.837865 1.68346
993 1 -22.7371 1.26999 -22.2975 -1.24191 -1.34106 -4.70233
1571 1 -1.89721 -11.3357 -0.556312 -2.00243 0.206122 0.2446
1930 1 -6.01577 -17.4373 -17.905 -3.46805 -4.40126 4.11783
400 1 -23.5993 -16.3566 -1.70067 1.506 0.746437 -1.55415
3968 1 -2.94845 5.78774 -1.75051 -4.31345 -3.4542 -2.85916
3945 1 -20.7327 -12.9282 -15.2369 -0.818419 -3.88051 -2.02258
1944 1 -21.108 -22.6032 -2.92956 5.56578 1.00881 -1.43773
1949 1 -8.63695 -7.24548 -8.26894 -3.56087 3.62164 0.797292
1960 1 -16.6899 -5.15755 -18.9356 3.63939 0.278005 -0.700923
1966 1 -18.2349 -18.5378 -11.1558 -1.7956 -5.31961 -2.63413
1980 1 -21.0437 6.60514 -19.3839 -1.2521 -0.322394 -1.23095
1996 1 -9.12124 6.31773 -22.4632 -0.840048 1.79285 4.30249
2001 1 -7.36829 -9.45118 -2.02013 -0.489134 -2.79722 -2.19202
1383 1 -6.31369 -24.0961 -13.723 -0.116083 -4.00972 -2.51801
3877 1 -21.888 3.90454 -4.71057 -4.87067 3.72132 -1.0121
2016 1 -5.92336 -13.1514 -5.67611 -2.73614 4.49099 -5.56155
2031 1 -8.14768 -20.7354 -12.3653 2.61826 1.64093 -0.765251
2034 1 -7.35907 -2.29989 -16.498 -0.412843 -2.50395 2.28436
2036 1 -13.4966 6.18247 -22.2763 -2.7751 -1.38441 -1.44024
2040 1 -6.10627 -23.6649 -4.22583 0.0579538 -2.2466 -2.75353
2050 1 -12.0772 6.36894 -9.49005 0.124862 -3.0317 -3.12635
2051 1 -21.7935 9.03548 -2.45498 -2.88905 2.92576 4.10077
2052 1 -9.79712 3.45082 -20.1737 -3.58753 -3.34286 1.59724
2060 1 -8.35227 -0.703489 -5.87398 -3.41652 -2.90788 0.275392
3151 1 -11.1474 -24.1768 -15.2452 4.19323 -0.367905 4.46352
2063 1 -10.4401 -11.0118 -18.1214 -1.73979 3.61738 0.43464
2068 1 -14.1879 7.54459 -4.75526 -2.099 1.18861 1.28022
3994 1 -15.1859 -20.8926 -21.3668 -2.56803 2.29184 -6.13509
2073 1 -18.4047 7.73826 -14.9358 -4.11821 1.95516 -3.2783
2078 1 -13.2843 2.24615 -22.3318 1.49751 2.28497 -0.30307
2419 1 -23.8309 6.20536 -18.443 -3.4181 1.75116 -1.69282
2085 1 -20.2385 -20.8823 -8.23508 -0.44095 2.67797 -2.36313
2087 1 -10.9433 6.03187 -15.979 -0.175419 0.581187 2.99263
2098 1 -15.2779 -16.9448 -4.88915 0.541157 6.68151 -0.786964
2106 1 -19.9026 -15.8166 -21.6356 -0.311469 -1.38741 -5.38751
2107 1 -6.98276 6.65588 -11.0691 -0.779636 -1.49329 2.64082
2118 1 -12.3852 -1.71215 -4.86467 -0.822157 1.00544 -2.15329
2128 1 -18.0646 -19.7478 -1.64685 3.22187 -0.847418 1.41902
2130 1 -22.5028 8.19027 -8.91005 -5.12825 3.357 -3.93356
2139 1 -8.29767 2.44171 -16.1396 -1.92678 0.437848 -3.99312
1897 1 -12.7818 -23.8042 -5.50145 -0.968837 1.69447 -4.87285
2167 1 -15.1425 -12.4321 -17.4825 -4.23875 0.0542088 -0.650901
2924 1 -1.08176 -15.9235 -22.4628 -0.0067915 -1.76604 -0.582361
2195 1 -10.6906 -19.3748 -9.19241 3.04838 2.33898 -5.0698
2196 1 -2.67442 6.13324 -11.1949 0.226803 -5.18671 -0.810091
637 1 -8.93234 -24.4274 -22.6126 1.60261 1.70903 -0.719523
2206 1 -2.98795 -9.42706 -14.7943 -0.814797 2.01458 -3.02356
2207 1 -23.2108 -9.29392 -3.96819 1.28621 -0.645071 -3.09277
2211 1 -17.0203 5.1558 -19.7702 0.378874 0.880651 -0.686638
2212 1 -18.0225 -5.91192 -6.57039 2.80391 -0.265065 3.95511
2228 1 -9.20087 -10.1128 -23.2596 7.24625 -2.39166 -2.23687
2233 1 -10.615 1.26758 -14.6194 2.80133 -0.936422 -0.367855
2234 1 -3.78056 4.09042 -3.9149 0.823308 -2.93984 -1.79842
2241 1 -23.8031 -2.06016 -18.7363 0.926016 -1.40816 0.362086
1648 1 -20.0688 -13.5308 -23.383 2.38884 2.22822 -2.15539
2251 1 -12.2196 -7.00107 -12.5056 -3.80487 2.03591 -1.4613
2930 1 -21.3576 3.97544 -0.127476 -1.38393 4.45615 -0.523573
2267 1 -10.899 -15.2527 -3.11644 -5.11732 -5.79302 0.187791
2278 1 -15.2255 -13.9649 -5.05748 -1.56539 4.13686 1.95486
2292 1 -12.1189 -10.5527 -3.54268 0.84384 2.88595 2.62733
2294 1 -21.0399 9.46833 -16.6394 -0.85115 0.778909 3.16089
2296 1 -22.5528 -10.4824 -15.7883 3.15902 -1.18417 5.32546
2298 1 -1.55706 -20.7672 -4.7474 -2.19257 3.33657 1.86975
2317 1 -3.80766 -9.66457 -9.45609 5.50946 -0.0645676 4.06526
2328 1 -8.43925 -7.98742 -4.37151 -1.64738 3.51835 -6.39662
2506 1 -21.5436 10.9481 -9.3333 4.14002 -1.94805 2.59277
2361 1 -21.75 7.28313 -11.7321 -2.86949 -1.23194 0.603133
2368 1 -6.47009 -20.4526 -7.30375 4.48477 -1.65046 2.69068
2370 1 -23.2608 -10.0782 -8.09164 1.55362 3.49428 -0.564898
1293 1 -8.24411 -2.52282 -1.32789 -1.54893 -2.99708 1.59518
2374 1 -5.19601 9.00232 -0.635994 0.767957 0.776909 -2.83619
2377 1 -4.21599 -8.75357 -5.85891 0.940205 1.58466 -0.294552
2390 1 -21.1846 -6.9916 -8.31 -5.25463 -4.87625 -0.964498
361 1 -23.254 -19.3525 -1.74631 3.84528 1.53525 2.37749
3886 1 -10.063 -17.0128 -7.54554 1.50816 -0.853784 -1.86723
2404 1 -21.5535 -6.99965 -21.9461 -0.0807701 -6.02405 0.624551
3038 1 -20.5107 -23.9317 -16.7489 0.985339 2.40237 1.84737
2408 1 -23.9723 -3.58496 -14.5638 3.01278 -0.315399 -1.16376
933 1 -20.0211 -21.6933 -22.9049 0.630835 5.28362 -1.2487
279 1 -21.7912 -3.17506 -0.58814 0.958888 1.60349 -0.217398
2425 1 -13.811 9.07034 -21.706 0.233494 -3.73816 3.85478
2429 1 -9.749 -8.15794 -11.7996 -3.57893 -3.05876 -4.92668
3812 1 -3.2822 -13.6204 -1.58325 -0.795454 -3.8366 3.70353
2438 1 -5.06218 -21.4479 -23.2326 -2.94604 0.559786 2.96524
2442 1 -2.65376 -9.30933 -17.8493 4.92231 -4.65499 0.537696
2454 1 -5.98946 10.0664 -16.8544 4.66972 0.521919 2.07937
2465 1 -7.22923 -14.0827 -9.81465 -1.049 2.01229 -6.13733
3944 1 -14.0449 -7.27368 -15.8126 -4.11617 0.326795 1.739
2474 1 -5.49927 -9.52666 -18.0984 3.2887 -4.17523 2.09586
2476 1 -5.54607 -22.8743 -20.8038 3.64364 -1.22401 -0.88262
2619 1 -0.792979 9.55851 -23.2552 -3.28486 -3.35578 -1.31858
2481 1 -14.6363 -7.4316 -10.6147 -0.142993 -1.67371 3.97256
3993 1 -4.7959 -10.3604 -3.29831 -0.110024 -3.33723 -2.2342
689 1 -1.6897 -0.9452 -5.65664 -1.13953 3.96787 1.15638
1467 1 -23.5984 -16.7897 -17.3287 5.32773 -0.104326 -4.22287
2510 1 -23.1761 2.74019 -2.32248 -2.42574 -3.33362 -2.26675
3099 1 -21.0957 8.45846 -23.772 5.7772 -0.189031 -0.345146
2520 1 -20.8384 1.36276 -5.85442 -2.7463 -2.42499 -3.69865
2893 1 -11.0078 -16.4991 -23.7803 -3.10556 4.14956 4.55995
2525 1 -13.9119 -16.0799 -9.08764 4.19931 0.709768 0.898308
2526 1 -10.3363 -7.24808 -15.9246 4.40441 -2.30867 5.08391
2529 1 -19.2412 -10.4323 -5.19156 -0.832476 -1.96699 5.13412
2531 1 -18.2629 -9.20495 -19.494 -2.25604 -0.641832 3.25369
2534 1 -16.7327 -11.1144 -2.26406 2.57267 0.286571 0.317794
2572 1 -24.0473 -15.9004 -5.88083 1.07828 3.57594 -1.24833
2542 1 -13.577 -8.11878 -19.8988 5.59437 -0.539146 -0.449215
2543 1 -16.942 -7.68991 -8.50748 3.63486 -0.505554 -6.21665
2550 1 -21.8399 -19.0185 -18.4018 2.92758 1.86226 -3.38919
2558 1 -19.2396 8.58127 -18.6696 1.42681 -1.79764 3.4699
2562 1 -21.9783 -4.86846 -12.8055 -5.48951 -3.88523 -2.27231
2564 1 -9.59325 -15.6555 -10.2403 -1.39501 2.98061 -1.10255
2567 1 -12.2006 -2.20325 -17.657 -3.91922 2.87373 0.485277
3874 1 -19.931 -23.1266 -13.9074 3.58064 0.496384 1.35263
2574 1 -20.0616 -23.9113 -7.35225 -2.37748 -1.0994 -4.73767
2578 1 -18.0824 -14.2226 -5.27518 1.38922 -1.28002 2.51996
2584 1 -11.8857 -22.5798 -11.7371 -0.135202 -2.4758 4.32337
2949 1 -8.73745 -19.8163 -22.6504 2.62554 -5.22907 -2.20833
2595 1 -2.09934 -17.7823 -18.1163 0.572032 -2.58851 -0.664124
3864 1 -1.88637 -2.56182 -11.3922 0.524294 2.83587 -1.14158
2597 1 -22.9833 -4.26191 -16.9987 -0.542382 -5.20726 2.81386
2602 1 -5.7522 -12.9414 -2.81838 -3.26898 -2.53139 3.89303
2605 1 -15.4674 9.18627 -0.936357 -0.00202138 -0.232158 2.01701
2609 1 -12.7991 -4.68112 -16.3759 3.17362 2.48332 0.310963
2618 1 -8.53082 -18.1841 -10.99 0.28365 1.11997 -2.52139
481 1 -0.828547 7.25231 -21.0724 0.0402153 4.19387 2.11676
2633 1 -5.37494 -15.7423 -11.7173 -0.611257 -0.848343 -1.60842
2403 1 -11.4748 0.105971 -22.3385 -2.78209 -0.908455 1.2452
373 1 -15.8831 6.51618 -23.6431 -3.99173 -4.10996 -0.760597
2652 1 -21.9539 -6.49699 -15.0124 2.63526 0.251873 0.320047
2653 1 -7.86509 7.85617 -1.28397 2.12658 -4.24302 -3.73991
2656 1 -2.89165 8.28951 -19.2767 0.148308 -2.14653 0.460864
2667 1 -8.19327 -5.1024 -3.87558 -0.665467 5.95718 -0.473499
2668 1 -8.59031 -18.3159 -18.9233 4.21518 -2.31967 3.13848
2673 1 -13.7094 -23.3874 -2.91352 0.844835 8.36995 -0.00613448
2674 1 -7.85415 -21.787 -0.537327 -2.39879 1.33837 -4.2522
2681 1 -15.8661 -7.84395 -17.9754 -2.04692 0.763776 -1.79233
2683 1 -17.2307 6.82626 -17.4515 -0.301027 0.168774 -3.40596
121 1 -5.38904 -18.8376 -21.8034 1.52538 -1.72131 0.129046
2689 1 -4.67965 -3.89 -8.41533 -2.02837 -4.99083 2.76264
2690 1 -16.2828 -14.4514 -18.8993 -0.490223 -2.1455 -2.8264
3146 1 -2.89153 8.14722 -7.58912 -4.86515 -2.77649 0.953501
2714 1 -18.2478 6.14488 -10.237 -2.49739 -1.25704 2.38785
2720 1 -13.2 -11.2951 -19.3206 0.727489 -1.93395 -5.00529
2725 1 -1.13813 6.49111 -17.4783 -2.31406 -1.41608 -1.33018
2726 1 -11.3111 -8.30585 -22.2312 1.16726 -2.14789 -1.21722
2727 1 -12.5797 -18.9891 -0.198824 3.97935 -0.301542 1.02755
2729 1 -4.20819 -22.2784 -17.4663 0.605071 -0.508589 3.29933
2733 1 -7.17736 8.87711 -19.3537 -2.20266 2.41801 0.398565
2735 1 -5.75073 7.75633 -15.2264 0.752588 3.42108 -1.27939
2740 1 -12.2516 -15.9336 -21.1136 5.85252 1.48682 2.4152
2744 1 -16.4959 -18.9075 -19.7079 2.25124 -0.786611 0.46838
2748 1 -4.44152 -1.67937 -10.2049 -0.603467 4.47402 1.17634
2758 1 -20.8072 -16.2572 -8.59359 -3.36395 3.24552 1.06209
2767 1 -12.868 -19.4454 -20.2818 2.20282 -0.359243 -2.80509
2771 1 -19.3517 -12.2446 -17.6696 3.88472 3.27776 2.5464
2780 1 -11.4334 -3.29286 -7.06798 2.41473 0.655539 -1.86508
888 1 -8.94002 10.8035 -15.8344 2.65468 -0.657754 -1.81992
2790 1 -8.37257 -4.9495 -15.6465 2.07275 -2.88137 6.07343
2798 1 -21.8357 -1.39455 -2.99474 -0.485131 -0.377963 2.29613
2295 1 -12.4308 10.5384 -23.5781 0.826179 -3.96775 -2.98983
2800 1 -11.9357 -15.5249 -16.7364 4.14781 4.65631 -2.95587
2805 1 -13.8832 8.5497 -8.83697 -2.24124 -1.76706 -6.1171
3923 1 -24.3273 5.57118 -11.1192 1.19132 0.646535 0.889374
1698 1 -11.6594 10.8598 -1.80046 -3.83222 -1.85425 1.92997
3862 1 -3.47239 0.68048 -16.1816 -3.31974 -1.08135 -3.28155
2839 1 -17.6117 -4.02508 -22.7299 -1.01243 0.473236 2.75585
2842 1 -3.64187 -13.7333 -9.80167 0.218993 -1.1973 -0.0722012
302 1 -0.677179 8.50944 -1.21598 0.550508 0.673342 2.7097
2855 1 -16.4816 -8.07928 -22.9968 -0.79581 0.301883 2.39351
2417 1 -3.38905 -2.50116 -1.75756 -3.7944 1.57074 -2.73312
2885 1 -6.86154 4.19859 -7.67199 -3.22417 -2.36599 -0.418175
2888 1 -11.2721 4.50533 -22.4045 -3.89095 2.09029 -7.92576
2890 1 -1.50975 -5.79427 -20.8386 4.19752 -2.75665 -0.16282
2898 1 -9.27275 -9.44587 -20.2507 4.51194 -0.748948 1.12834
2901 1 -14.0285 -17.2594 -16.5837 3.58062 -2.14981 -2.94769
2902 1 -16.8239 1.02062 -21.1783 5.08473 -0.611686 -0.982563
2909 1 -10.8332 -5.84079 -23.1324 2.89313 2.72456 1.54185
3958 1 -1.20128 8.12777 -5.10244 5.41632 1.31108 5.50022
2837 1 -17.8614 11.1908 -8.88818 -3.11086 -1.60668 -1.04727
2926 1 -10.6564 7.41673 -11.8236 -0.299482 0.505436 4.09428
223 1 -21.6812 -6.7386 -3.31758 0.533734 8.89118 -2.12888
79 1 -23.262 -0.0501486 -16.9901 5.06095 5.59956 -4.82864
2937 1 -18.3683 3.8331 -14.6533 3.03921 7.32882 -3.04935
2938 1 -5.6506 -6.64519 -4.46486 4.60014 1.46469 5.60663
2941 1 -4.04739 2.7033 -8.14061 3.09691 -4.09355 -2.58396
222 1 -11.3792 -8.39695 -0.304091 -2.85763 -1.37904 -0.486553
144 1 -24.1933 -7.84689 -15.9733 -0.264913 3.7844 -4.15816
2960 1 -12.6933 -1.94052 -20.6986 0.438209 -2.33522 4.62335
2961 1 -11.7772 -13.0585 -20.9269 -3.46774 0.409006 2.51665
2962 1 -8.48595 -0.688934 -13.936 -6.60122 0.223983 2.64095
2972 1 -9.14543 9.70044 -10.4151 -4.51297 3.45836 -1.38408
3922 1 -18.1911 -14.859 -16.9705 3.0013 -0.295618 3.29277
3007 1 -7.35211 -20.4978 -20.2873 -0.00987475 2.93739 -0.0735919
3010 1 -14.8183 -19.2357 -13.1344 -0.0950712 -3.26737 -0.559743
3011 1 -9.5432 -1.40892 -11.1088 -2.22332 -8.95322 -0.291532
3018 1 -22.9817 -0.970689 -14.4006 -3.59902 2.84886 1.69637
1073 1 -1.62908 -22.0551 -10.0345 1.7597 7.82633 -2.51958
3034 1 -12.4613 -9.15642 -17.128 -0.822782 6.15962 0.703793
3941 1 -18.226 2.37682 -24.1643 0.788782 -0.901857 -7.07333
3049 1 -12.0704 -21.3051 -18.0663 1.85989 -7.06468 5.95387
3051 1 -18.0734 -1.25599 -11.2057 3.46473 -3.60405 -1.81947
3059 1 -9.67733 -22.1996 -3.86885 -3.51918 -1.28495 1.25141
3071 1 -4.16741 -4.44622 -5.35564 -3.62141 -1.68585 2.81064
3077 1 -14.4639 -23.464 -7.74581 -2.0594 -3.03094 -1.03027
3078 1 -21.2315 7.49342 -14.5121 0.29842 0.238684 -4.20129
3085 1 -16.1579 -3.91539 -6.78068 3.47211 3.15215 0.333766
3093 1 -14.1374 5.38765 -19.3296 -0.551848 0.374042 -0.474406
3095 1 -14.8987 -13.3271 -2.27709 -3.66317 -3.03981 -6.49036
3097 1 -6.33669 -9.54924 -20.7933 1.68934 -0.367315 -2.04237
3991 1 -16.4453 9.37882 -22.5481 1.00164 1.12857 0.568447
1891 1 -7.96773 -15.7353 -23.1298 1.86374 0.571288 -2.47134
3120 1 -11.5509 -6.37994 -18.6446 3.81428 4.4175 0.443406
3125 1 -2.298 -16.3354 -1.91848 1.32543 -3.53169 -3.00074
3135 1 -19.379 -12.5738 -7.20897 1.63616 4.26043 -1.10673
814 1 -18.8378 -3.20293 -0.752801 -3.38168 2.36988 1.51575
751 1 -19.0621 9.72126 -12.5644 3.11156 -4.00676 0.227238
3963 1 -15.2782 -16.1696 -2.11341 -3.5116 0.468648 -0.453715
3161 1 -9.92773 -18.055 -3.17457 1.97845 -1.38245 -1.42302
3162 1 -13.6546 -13.6889 -15.5429 -2.84646 -1.37031 -1.15914
1412 1 -18.6665 9.1696 -6.84514 2.04981 -3.00052 3.12665
3202 1 -16.3701 -14.9837 -9.57684 -1.23571 2.95289 2.25426
3205 1 -12.0223 1.04301 -4.51783 -0.892483 4.30317 5.48794
3210 1 -14.2358 10.2597 -3.34359 7.22824 2.79747 1.03748
3212 1 -12.7239 7.22043 -17.5006 -3.40912 -2.35783 -0.974661
3213 1 -1.37966 4.33825 -12.8914 0.971488 2.76006 -3.05389
3219 1 -8.24684 -21.4323 -15.0772 -3.86663 -2.12307 2.38498
3221 1 -2.82508 -8.88386 -1.71293 0.0477261 0.832865 4.9126
388 1 -19.1888 -24.4709 -23.7389 2.7007 2.60857 -4.77902
1799 1 -11.7348 10.1282 -14.9269 3.0476 2.0958 0.947003
3229 1 -9.32628 1.42062 -4.05511 -4.95476 -1.51643 2.11936
3896 1 -5.36877 -7.44208 -1.78674 1.4728 1.54959 0.834681
3240 1 -14.5946 -23.075 -19.5427 -1.01317 3.06466 1.71926
3247 1 -4.63059 8.37866 -11.676 -3.46305 -5.66523 -0.293488
3261 1 -15.229 -2.99888 -15.5912 3.07863 -1.11997 -1.1468
1931 1 -9.39484 5.16694 -0.6427 0.740398 -0.57401 -1.07327
3294 1 -19.9563 2.05981 -12.9659 -2.2507 3.70145 -4.37901
3300 1 -3.30188 5.53834 -8.51944 -0.209687 0.428464 0.438875
2170 1 -8.46928 -16.7818 -0.887645 -0.155714 0.217424 -1.81317
3326 1 -23.1414 5.33017 -21.2673 0.395113 -0.945063 3.74483
3331 1 -19.2676 -5.28871 -2.73039 5.43564 -1.35296 4.56708
1890 1 -24.4232 7.86713 -22.5149 -1.99642 -1.49746 -0.207571
542 1 -24.1954 5.79765 -3.76146 -1.77092 1.21558 0.538818
3355 1 -16.9106 -19.2123 -4.29057 -3.981 1.96526 0.0362694
3362 1 -7.02309 3.98222 -14.2394 1.4703 0.226304 -3.09849
3364 1 -20.0065 -8.91864 -2.61147 0.837138 1.84106 -5.63839
3366 1 -23.1726 -23.2289 -17.411 -0.273375 -3.89634 0.296059
3888 1 -5.15873 6.63101 -19.0603 1.67502 -4.49406 -3.45425
3370 1 -17.9359 -15.5035 -11.9496 4.584 -1.05119 1.54552
3381 1 -2.66692 -18.1522 -22.5735 1.06298 -0.986825 0.317247
3385 1 -3.40599 -19.6782 -6.83607 5.48386 2.6442 -1.68274
3389 1 -13.727 -9.24805 -13.5919 -3.45831 -1.20046 4.66267
3392 1 -6.53687 0.426523 -16.8396 1.00948 1.97784 -7.30748
3396 1 -18.6299 5.49664 -3.32652 5.15166 0.692653 0.595097
3398 1 -6.98863 -20.9991 -4.58195 1.1477 0.0620032 -1.5821
3401 1 -21.8528 -23.8869 -11.8793 5.46584 1.39766 1.16938
1438 1 -2.84966 -0.563364 -13.6039 -1.79306 -2.76806 -0.517077
3413 1 -3.95193 -18.1206 -16.0475 -2.86833 0.628015 -0.410571
3414 1 -17.9686 4.38125 -6.03224 -3.51181 -0.0514024 7.98949
3415 1 -18.2499 -1.0534 -15.3526 -1.97705 -1.61848 -1.31137
3431 1 -10.1593 -5.75981 -1.46602 1.36824 1.25618 -2.49115
3433 1 -8.40677 -3.01146 -20.4542 2.90602 6.89283 5.25389
3445 1 -11.8592 1.94157 -9.97106 4.26079 -4.518 2.47002
3446 1 -2.78153 -20.8264 -15.5809 -1.87585 4.41347 -4.94751
3447 1 -5.44115 7.0815 -6.83592 -1.18559 1.5876 -3.81823
3450 1 -1.62537 -13.4257 -14.6059 3.62504 2.48066 2.65405
3452 1 -11.6067 0.319103 -12.2745 -0.463517 2.97812 0.257354
3466 1 -11.1742 4.91313 -5.94422 2.4416 4.4983 0.0193335
3470 1 -15.7987 -21.183 -6.44016 -1.17825 -1.92334 -4.67064
3471 1 -17.1849 -20.6352 -17.5945 -4.20785 -1.47906 0.303596
3472 1 -14.8745 6.82321 -14.003 0.354237 -0.206775 0.557774
3477 1 -20.4214 -0.462057 -13.6644 1.72829 -0.192747 1.79129
3491 1 -9.29942 7.26794 -19.8253 -4.87473 4.24429 2.6988
3496 1 -9.76256 8.18165 -14.5232 -1.52503 2.2614 -7.03382
3508 1 -2.55947 -12.9673 -20.6741 -6.24477 -0.367847 -1.36662
3509 1 -22.4864 -21.2269 -21.6009 2.33266 -1.44901 -2.29929
3513 1 -20.395 -20.4719 -14.3192 -0.132301 2.05791 -1.39039
3516 1 -19.5282 4.5879 -17.319 5.29152 2.09834 3.36178
3952 1 -4.6705 -5.90064 -18.0166 3.28863 -2.37792 -1.93266
1903 1 -1.47729 -16.2431 -14.1414 0.0526455 -2.78076 -2.39699
3980 1 -22.9875 -15.7692 -13.4209 -4.30523 3.36853 1.79742
3558 1 -20.0685 -15.1639 -1.63983 0.594136 -2.27168 0.232164
3569 1 -5.4487 4.60948 -10.1793 -1.40156 4.06977 -1.75256
3572 1 -14.2957 -16.9449 -19.6685 6.07147 0.289373 -0.628069
3574 1 -18.2724 -4.09143 -11.7677 4.59696 1.6728 -0.829861
3575 1 -9.81396 -10.6432 -10.8378 3.196 -1.1836 1.39309
3577 1 -8.87391 9.20451 -6.30204 -2.67635 1.30763 -5.19682
3579 1 -17.4357 -12.6205 -8.99781 -1.78208 -2.79569 1.14034
3588 1 -21.927 -8.6367 -13.038 3.99971 0.850994 0.57635
3589 1 -12.3848 -0.4553 -8.21736 1.55904 -2.51186 1.40381
3592 1 -8.26926 -18.4766 -5.39921 2.72861 -2.34348 1.24608
3596 1 -6.11426 -8.84995 -7.77724 -0.378529 -0.498784 0.958399
3598 1 -13.6692 -10.3314 -8.0839 1.56241 4.66284 0.835421
3601 1 -23.9722 -11.9901 -6.36207 2.33658 -3.66757 1.11443
2306 1 -1.3484 -2.00206 -23.389 -1.43349 -2.83436 4.39793
3626 1 -13.5714 3.07199 -5.81512 -2.53326 3.69784 0.618095
3645 1 -18.0754 -17.2171 -8.56286 1.28624 -0.886676 0.627607
3649 1 -19.5507 -1.81783 -18.8866 1.79484 3.08091 -0.319227
3663 1 -20.6234 -15.9597 -11.7636 8.52345 2.6965 1.13477
1796 1 -21.8555 -11.1522 -23.7001 -0.387609 1.00668 -4.71719
2688 1 -16.635 -5.21832 -0.989483 -2.07869 -1.88783 4.15744
3961 1 -2.43519 -19.9439 -2.32218 -1.12777 1.5214 2.20665
3690 1 -11.5355 7.9066 -5.69595 -4.69552 -3.62272 2.06675
3694 1 -20.0502 1.05647 -8.7506 2.46784 1.22572 5.215
3700 1 -6.20423 -19.3858 -14.7217 -2.8236 -6.16263 0.854744
3702 1 -5.3219 -2.42953 -12.928 -0.935295 -0.935984 3.54259
3706 1 -14.2012 2.64955 -15.2449 -0.605455 -3.29473 3.01253
3724 1 -3.55181 1.03867 -4.10301 -1.37776 -0.575738 -0.479289
3726 1 -8.02154 -12.4394 -12.2788 -0.324947 -2.76659 2.82525
3729 1 -21.3445 -11.493 -12.9486 -0.221603 -0.597167 0.21344
3741 1 -19.0975 10.3439 -2.83598 -2.58239 -3.31733 -2.61018
3742 1 -3.99469 -15.2832 -15.4316 2.00965 0.152312 -5.26239
3748 1 -16.7981 -2.33697 -17.8173 -0.468344 2.93748 2.05036
3881 1 -16.2638 0.152549 -13.372 2.72153 0.3988 -0.0451557
3759 1 -11.7034 8.82015 -19.5489 -0.449118 1.5322 -0.745317
3950 1 -5.94095 0.620335 -19.9624 2.81368 -1.43609 2.46749
3906 1 -17.8022 8.25928 -4.20434 -1.14794 -0.649388 3.18627
2915 1 -13.8975 -12.4843 -22.7433 -2.70399 3.88968 3.26637
3794 1 -3.53599 -19.9012 -9.99674 -2.57196 -4.26747 -2.23385
3796 1 -12.3533 -11.8359 -10.3655 3.16112 -3.80414 1.6001
972 1 -7.32377 -19.2445 -1.98809 0.0718425 -0.878461 -0.70274
3823 1 -6.00094 -18.5373 -9.51411 -3.57052 2.75166 -2.29131
266 1 -21.2623 4.8699 -14.8928 -4.50139 -0.440072 -2.73761
3829 1 -12.6309 -17.2235 -6.4658 1.0057 -4.32064 -3.30418
3838 1 -6.35226 5.16875 -4.82491 3.38408 0.624327 1.36084
3845 1 -3.8132 4.8765 -23.4796 -4.64646 -1.70987 0.673418
3847 1 -15.9624 -15.298 -15.0757 0.136188 3.28038 1.38894
3851 1 -2.88686 8.59443 -2.74783 -7.01373 -1.59303 1.00728
3273 1 -18.758 10.9116 -15.304 -2.93559 4.13028 1.38466
1289 1 -24.237 -11.7198 -12.3615 0.635356 -0.327493 -5.9296
3231 1 -17.7772 -16.7988 -0.868265 -0.663663 0.92893 -1.67742
1453 1 -0.741518 -20.3245 -7.71544 0.261629 -0.955739 5.25516
330 1 -14.5813 -22.7849 -23.8418 3.9519 -6.36856 -0.0343221
3403 1 -13.5467 -22.4835 -0.0727872 7.05113 2.55612 -0.197234
2711 1 -13.3192 -5.06614 -24.1028 1.47497 -3.90848 -2.95817
3469 1 -1.13181 -6.61252 -0.257996 2.00104 1.15133 -4.85664
3912 1 -6.53366 -11.529 -0.186613 -7.15278 -0.236224 -1.43154
2538 1 -6.66858 5.45508 -23.9054 0.79454 -4.51786 2.25661
959 1 -13.0352 -18.7051 23.7121 0.55246 0.816353 4.18058
9 1 -15.8547 5.85931 5.15418 -2.64969 3.76474 -1.43082
13 1 -19.9337 -13.7763 12.7661 -1.62969 0.0548037 -0.362528
16 1 -17.5171 -0.453275 6.8595 -0.0101693 -1.29729 0.644499
1401 1 -24.0476 -20.6326 20.756 2.16012 2.21769 2.4729
906 1 -8.52019 -23.8219 18.5534 3.54616 -3.03372 -0.520761
28 1 -19.5284 7.23891 2.78026 2.19619 1.10574 -0.853572
34 1 -18.8235 -23.4001 15.6634 1.10634 -5.35413 0.469726
545 1 -24.2406 -17.7846 13.6695 0.133029 -0.134793 -3.41387
43 1 -12.8046 -6.34367 1.41536 -1.43703 -0.596578 -4.98338
46 1 -22.656 -22.9686 19.3181 1.06149 2.1245 0.9779
47 1 -7.4445 4.23989 21.8656 -0.411556 -1.67978 2.3339
51 1 -8.50521 -3.03829 19.3901 -0.956523 6.21425 -2.3072
56 1 -16.3254 4.0587 3.01199 2.90697 -4.69185 0.339053
3008 1 -1.62608 -18.9995 23.1409 0.147509 1.13136 -1.6084
76 1 -23.4764 -3.95983 3.45636 0.29473 -10.0954 -7.0032
1208 1 -23.6408 -8.18493 8.59312 -1.84046 -1.45416 -1.71284
64 1 -9.40217 -2.49016 1.24224 0.574018 2.52551 -2.43014
71 1 -9.72872 1.32715 4.02148 3.7615 0.478255 0.0478874
73 1 -11.6803 -18.0404 14.5032 -1.64032 2.88748 -1.27115
2601 1 -1.12235 9.40664 5.90465 0.143514 3.02914 3.96102
89 1 -9.83416 -3.44728 23.1892 1.24409 -1.93757 -0.0309169
93 1 -17.4231 -24.2077 18.2225 1.25123 0.355707 3.4393
165 1 -16.8994 10.5766 16.5852 5.53401 3.00542 0.342035
108 1 -10.8558 2.932 23.222 5.08634 -0.0497035 -1.58709
113 1 -5.28721 -5.97497 18.0279 -0.197072 -3.01265 -0.977341
114 1 -20.4945 -19.4991 19.3192 5.4795 3.50462 1.16799
2931 1 -0.487547 -7.77141 24.0385 -2.51327 4.26175 3.63265
122 1 -6.11707 6.71081 20.6748 -0.573146 0.131482 1.11559
133 1 -17.2802 3.46192 18.0107 2.53272 0.286194 -1.93765
146 1 -10.4972 -9.74101 14.0825 1.50052 -2.13809 -1.73442
152 1 -7.07565 -4.04095 17.0082 5.47019 2.21189 -1.85884
159 1 -20.9366 -10.8401 12.808 -1.54018 1.74198 0.879973
162 1 -15.0884 -12.3743 19.6009 0.621633 2.34571 -1.69628
3494 1 -17.5584 4.79553 22.5436 4.88684 -1.02623 -0.20918
171 1 -14.599 0.488517 14.8348 0.183442 2.03153 0.120794
173 1 -20.2871 0.686539 22.7872 2.24887 2.52625 -0.318142
177 1 -4.64016 -20.4957 14.4344 0.521498 -4.1749 1.59209
1920 1 -22.8665 -14.5633 2.05237 -1.63361 -1.8667 1.45913
182 1 -19.989 -3.71473 14.3576 -0.457176 3.1416 2.31755
189 1 -4.57444 -3.018 2.21608 -1.22143 3.47187 -1.64283
1153 1 -4.50938 -19.9576 0.666932 2.35465 -2.03964 3.85309
264 1 -23.5977 0.507059 16.5715 1.43284 0.70816 -3.17038
2966 1 -4.24531 -24.2772 16.3642 -1.86435 2.28352 -4.59754
464 1 -13.1242 -23.6374 4.75668 -0.961427 -2.15657 1.43954
232 1 -2.02312 -16.047 11.0145 -2.14556 -2.21123 -2.45539
241 1 -20.7456 -15.9886 10.6773 0.112004 -5.63561 -3.60634
243 1 -6.38374 -8.50236 8.36918 0.56107 2.41288 4.34129
986 1 -1.33639 5.44128 10.2076 1.5444 2.74783 -9.09418
247 1 -24.1306 -7.64146 13.5621 3.50136 6.35031 3.01628
3827 1 -0.457003 5.57539 17.432 -2.03778 0.648275 -2.26197
1006 1 -23.1464 10.6701 18.1592 1.68606 -3.9178 3.557
1994 1 -22.4965 -17.1767 4.36556 -0.15496 -2.57195 -0.317106
270 1 -21.2275 -17.0203 17.88 0.532546 1.02052 2.21921
273 1 -17.8938 -10.1317 13.2631 -3.9504 0.758232 -4.04459
289 1 -6.13777 -22.0686 10.63 -1.78245 -0.190545 0.316125
291 1 -10.2131 -20.4763 14.1671 -0.458175 -0.870417 6.43536
304 1 -19.3252 -19.0377 14.1153 -2.4125 6.62686 -4.86577
308 1 -16.4463 -23.0837 2.69565 3.63598 2.19058 3.90399
1163 1 -17.6802 -24.572 13.0255 -1.36341 -2.12627 -6.37606
319 1 -11.4854 1.89511 13.4238 1.56015 -3.82736 -0.0723244
2372 1 -24.0568 5.49943 0.527735 -5.18839 -0.0422872 -0.943557
323 1 -14.3917 0.0253317 3.48079 -2.45165 -0.288713 -1.80957
325 1 -2.18171 -23.4002 19.1933 0.545993 3.34685 -2.5316
326 1 -18.2693 2.10902 1.75871 6.41083 1.06267 -3.45872
327 1 -4.65681 -11.7604 20.6783 1.44389 1.4534 3.15428
61 1 -11.9044 -1.2904 1.20292 -3.71114 -0.763703 1.6988
345 1 -12.0904 -5.9412 13.0073 1.68668 -1.22813 -1.08486
348 1 -10.006 -4.52816 9.33339 -5.2783 0.0260513 3.93893
3181 1 -20.2312 -17.0217 23.8127 -1.47541 0.44591 2.28138
351 1 -17.0503 2.07557 12.661 5.07776 -4.55175 0.444175
355 1 -3.39821 -1.88147 7.78253 0.992248 2.76927 -1.76756
357 1 -7.26781 -15.2101 1.37704 -0.339424 -1.24053 2.02547
2753 1 -1.1719 -5.77319 13.3451 1.59872 -0.675506 0.958312
363 1 -18.2566 -19.8605 9.33761 -0.420899 0.182247 -3.95642
3893 1 -7.7652 8.53206 9.25282 5.23303 -1.17413 1.88406
806 1 -1.88098 -13.1336 15.0178 -1.06633 -1.69212 -2.41123
585 1 -8.33545 9.87142 16.1376 3.84617 0.636499 -0.327129
224 1 -12.6647 -2.55009 22.6098 -7.41761 0.679946 1.76063
381 1 -21.754 -18.5026 15.5355 0.259735 7.29859 2.28345
385 1 -9.01079 2.4825 19.8064 2.50482 -4.37301 1.03382
3087 1 -9.96515 -23.9072 11.7961 3.02059 -3.29314 6.96779
389 1 -12.2998 8.15688 6.4027 -4.79572 3.2088 -2.54995
5 1 -20.9456 -19.7173 23.5368 1.95427 1.06295 -1.91672
2485 1 -1.80983 -19.2629 5.06719 4.20558 5.72764 -6.01748
404 1 -14.661 -2.02077 1.67176 2.94241 -5.43509 -1.1617
1519 1 -10.1475 -17.9311 1.18685 -2.0113 -3.48166 0.186305
412 1 -17.2803 -5.30406 6.25501 2.80925 4.87961 -0.786435
417 1 -12.6652 0.0182489 10.3216 1.27379 3.74012 -3.63409
420 1 -1.74834 -3.37719 11.8326 3.73394 -2.60693 -0.252393
423 1 -7.40812 3.10933 4.25093 0.803105 2.60568 -2.53862
427 1 -15.2587 -22.6354 21.5094 -1.97824 -2.49332 -0.906554
3749 1 -21.5081 -3.77076 12.0463 -2.79678 -2.29732 -0.655499
448 1 -15.5077 -1.67819 13.2198 2.0965 0.382908 -1.89544
462 1 -5.99915 -18.8924 21.2518 -0.437483 -2.51821 2.11178
2075 1 -6.03694 -14.1484 23.3188 1.22884 3.37649 0.119073
1223 1 -23.4575 9.57376 11.3701 -2.52758 -0.0407108 3.3544
467 1 -1.82649 -10.7096 11.2602 2.78338 -1.51628 0.219951
472 1 -16.0801 -5.3698 17.3514 -3.26276 -3.12854 -7.24566
2793 1 -1.96663 2.64791 5.73145 -3.00952 0.0987033 4.62222
491 1 -18.1934 -12.2459 11.2171 -2.16344 -4.15415 3.2281
500 1 -4.65997 -14.5751 9.09033 -0.309531 -6.33972 -0.680273
504 1 -3.60059 5.39327 5.7079 -3.21079 -1.94027 -0.185953
513 1 -19.1068 -13.6734 15.4949 -1.07942 -0.686537 2.5677
3913 1 -8.5792 3.35055 1.48725 -3.63974 -0.697125 0.074542
524 1 -2.81763 -2.53159 18.166 0.338116 0.127273 -3.71936
529 1 -7.46848 -13.651 8.92075 -1.25607 1.66813 -0.821931
530 1 -9.44932 2.82096 10.2439 1.61458 -3.39857 -0.856099
533 1 -13.8345 -23.1016 12.5055 1.06193 0.407718 0.750177
538 1 -17.7888 -8.33744 11.0543 -1.39791 -0.158955 6.41177
540 1 -11.1671 -11.6943 3.90443 -5.77922 0.119802 3.21849
541 1 -14.0091 -2.16185 16.506 1.46751 -1.28752 -2.67653
549 1 -20.0153 -4.88652 6.73816 2.56607 -3.25256 2.67471
1971 1 -22.6053 -2.55384 8.63467 5.29914 1.14229 -0.888204
558 1 -4.19925 -14.7138 14.3297 1.12642 -4.47306 2.49017
559 1 -7.65561 -18.7571 7.31734 3.08278 -4.38764 -1.67553
564 1 -10.2379 -21.0563 11.3195 -3.5492 -5.89542 -5.74796
581 1 -15.0083 -8.4989 15.0435 -0.321438 -2.02381 -4.31063
592 1 -13.2803 -14.8321 11.8713 0.290005 1.88495 2.68903
593 1 -12.0504 -23.3396 17.7872 -0.283494 -6.46759 -0.436988
594 1 -19.3886 -1.18234 3.79057 -0.171095 4.21038 5.57203
596 1 -11.0339 -20.5631 8.48587 -2.01654 2.61182 -6.486
602 1 -10.1594 4.90361 21.1563 -4.21062 -3.40125 1.86958
605 1 -22.081 -2.11279 18.6765 -3.02318 3.85564 -0.810696
607 1 -1.47321 -1.86473 15.581 -1.96025 -8.37192 4.82017
622 1 -20.9797 -9.8564 1.85469 -0.596758 -0.558088 0.0383279
631 1 -5.16018 -17.6393 15.0333 -3.0327 0.290589 1.01709
632 1 -13.6932 -20.9193 3.83257 -0.264048 2.60419 -2.56547
634 1 -10.0938 -3.13006 16.9179 -0.517916 -1.69472 1.50721
642 1 -11.0866 -1.77565 8.57512 -4.65589 -0.17533 -1.81782
650 1 -9.76477 -0.378289 19.8827 2.55001 0.0147811 -2.63142
664 1 -15.2724 -20.8953 13.4075 -1.31351 0.296721 -0.460357
665 1 -2.50291 -5.27561 17.9644 0.370458 -1.05764 2.46919
2247 1 -22.8519 -12.1632 9.32508 -3.43388 -1.80645 -4.28053
686 1 -16.6812 -2.33273 17.2172 1.09584 3.23013 4.841
687 1 -14.5392 9.9094 11.5033 2.44116 4.18443 3.27981
692 1 -8.91561 -7.30924 3.20631 3.08423 -0.253526 -9.58607
696 1 -7.9847 -21.538 8.69668 -0.888356 2.46369 -1.43298
699 1 -14.2472 -12.2408 15.4032 0.205028 1.66117 -0.34797
702 1 -16.7042 -5.72229 11.5816 0.692861 -1.93931 -2.89633
704 1 -7.81021 -11.1021 13.8931 1.6382 1.0247 0.448328
707 1 -15.8043 0.858147 20.5933 2.20219 0.770372 -0.273438
710 1 -2.0715 -7.91095 11.6237 2.82502 0.118262 -1.52428
375 1 -23.1966 -6.43381 22.4314 2.66764 -0.495138 -3.75622
718 1 -11.7929 -7.84302 3.46233 2.12652 -0.686947 4.23885
726 1 -3.858 -9.13302 19.7013 -1.37627 -3.33068 -1.74641
733 1 -12.8763 -18.7034 5.94326 -4.14962 -0.259638 -1.18316
738 1 -11.8493 5.78485 17.2724 2.09297 2.04875 1.80961
739 1 -16.2597 -17.171 1.67227 -1.73548 -3.18112 -1.33457
3222 1 -14.7951 -20.0632 1.4491 3.55861 0.390253 0.0993681
745 1 -20.6064 2.89292 20.8607 -1.4947 4.83358 0.12674
3842 1 -23.019 -0.224957 22.2865 2.86848 -5.49605 -3.94136
748 1 -10.3741 -21.272 23.3905 2.63644 2.10957 5.09244
2984 1 -2.02573 -0.10631 22.181 6.10536 2.00392 2.28476
758 1 -13.8926 -19.0416 20.6518 -1.02955 2.68583 -1.00291
1176 1 -1.25171 -10.4533 15.0392 1.71706 0.180597 -3.30108
768 1 -5.8431 9.934 7.65636 6.71129 -2.33821 -6.64567
781 1 -15.8661 0.981464 8.53409 1.6277 -1.0028 2.1984
788 1 -19.7608 4.87451 4.37713 -1.6611 -0.576126 -2.01301
797 1 -15.7466 -13.583 12.4483 0.478894 -1.4421 2.42788
800 1 -17.3609 -13.0872 17.7884 -0.58099 -3.20023 -1.55242
802 1 -17.2735 -20.8682 15.6235 0.847467 -2.08611 0.0374255
3224 1 -5.0123 -5.50564 0.740367 -0.572993 0.833442 -3.23184
818 1 -8.89821 7.47374 21.1343 -1.15695 0.710152 2.12737
825 1 -22.3982 5.63082 4.65405 -1.66549 -7.00137 -1.50004
249 1 -0.305975 -20.9868 9.21761 3.90215 1.85154 1.39156
828 1 -7.51635 -20.1252 13.9193 -1.59275 -0.432741 -0.970132
830 1 -9.12649 -9.22591 19.1557 -1.96031 1.82588 2.45192
832 1 -3.42388 -4.12306 9.73807 1.63212 -1.56254 -0.0790888
854 1 -20.0711 -13.9996 2.47407 5.72301 5.52419 1.79978
488 1 -0.636841 -12.1228 18.6865 1.40334 0.251601 0.587378
864 1 -13.257 0.982798 19.1641 2.11543 -3.26831 1.58034
1075 1 -1.11124 11.2255 13.518 1.42599 2.18181 0.0940267
881 1 -3.32027 -2.29165 20.9769 -1.82137 -1.27221 -3.11094
889 1 -13.7335 -4.73275 15.1378 -0.192299 1.23142 -0.264096
891 1 -23.1009 -1.54675 1.2754 4.08837 2.58604 -2.94263
2283 1 -23.624 -12.0474 6.56392 1.49001 -0.835739 -0.804165
505 1 -0.620728 8.23803 22.2787 -1.24215 0.696737 -1.84215
908 1 -6.99455 -18.516 11.7927 -1.13622 -2.04256 3.67704
916 1 -16.4061 -18.2223 22.1744 3.91765 0.232556 1.54055
918 1 -3.6294 5.93746 2.79497 2.47182 5.73291 2.94553
3688 1 -10.4332 -22.6275 0.204594 1.38295 2.01365 0.458927
3289 1 -16.5779 -23.8783 10.5047 -0.45097 -8.35462 2.42208
946 1 -13.306 -9.07623 5.88978 -3.63681 0.0587616 1.26807
950 1 -20.5164 6.26099 13.2135 1.01793 -0.247476 -1.60849
957 1 -5.68502 -2.96377 14.6864 1.70504 -6.9836 -4.6987
3182 1 -17.9835 -22.7962 22.1589 -4.80553 3.14189 -1.57038
960 1 -3.38415 -21.742 4.31583 0.590161 -0.879458 -2.26055
966 1 -16.3551 -6.07929 14.5629 2.89046 4.93958 -2.66604
973 1 -11.7092 -5.6339 16.9488 -1.94304 1.01493 3.78339
975 1 -9.4752 -10.6037 5.8483 -0.988415 -3.5671 -1.19581
976 1 -15.0673 -7.66417 9.97085 2.77136 2.01958 0.0221492
982 1 -5.9743 -7.92326 2.79341 -4.63521 -2.50105 2.03733
983 1 -21.1221 6.65643 17.471 3.70747 -3.34995 -0.110493
362 1 -20.1967 8.7328 5.05097 -0.393526 -3.23852 4.75406
987 1 -21.6648 -18.1022 12.4181 2.0816 -5.99512 3.80378
988 1 -10.3667 -23.5906 8.79654 -3.56312 2.20463 3.2351
991 1 -5.58474 -7.2047 5.69677 -2.45893 1.97342 1.33261
3591 1 -6.96153 -11.6132 22.2604 2.21107 4.65779 -2.85836
2662 1 -20.2951 -23.448 10.8712 -3.64876 -4.07147 -0.0698899
3461 1 -13.7157 -24.2316 19.9864 4.2089 -2.15544 5.56309
1002 1 -11.8856 -16.1398 5.03202 0.228579 1.82664 -4.50032
3939 1 -24.1758 -2.2926 13.9498 2.18538 3.31301 -5.23847
3931 1 -3.10796 10.5965 4.13308 -1.56524 0.984362 0.677663
1016 1 -20.533 3.22351 6.71769 -1.09447 -1.91778 2.15444
1017 1 -8.00916 2.77093 16.8993 4.13731 1.62221 4.54688
1018 1 -20.8637 -20.7617 5.44615 -6.24312 2.70939 2.12981
3495 1 -24.1538 -5.89938 17.779 -4.67757 0.486765 7.6315
1027 1 -21.4127 -8.02555 12.9517 1.56681 0.509675 -1.35349
2737 1 -22.2906 -19.4305 0.897871 -4.7035 3.06067 -6.41817
1037 1 -10.3077 -17.6625 17.2839 1.40222 2.1861 -2.49523
1038 1 -3.68767 7.03008 11.2061 -3.11629 0.0532202 4.56671
1014 1 -20.2698 -22.7684 1.86215 -1.9996 3.40516 -0.827195
1047 1 -16.08 3.95382 20.5257 0.404478 3.74847 -4.86991
1060 1 -16.7949 -11.3188 8.54196 -3.34676 0.131121 -3.68434
1062 1 -8.93528 -1.12014 10.4101 -1.05602 -2.83166 0.475583
1067 1 -20.1201 4.87045 9.06684 0.391542 -2.09728 0.976736
1070 1 -7.97348 6.41746 11.0948 -2.02869 -0.759198 -0.562489
1079 1 -14.846 -2.3335 10.3435 0.00260797 -1.85737 -3.14545
1089 1 -16.5692 6.34246 17.3527 3.10597 1.80555 2.64636
1536 1 -5.65805 1.27603 23.2447 -1.64296 7.58632 1.60653
1098 1 -11.9762 -5.8322 19.8722 2.74102 3.33904 3.96612
1104 1 -20.3571 0.241249 7.0612 -1.43848 2.21892 0.146968
1106 1 -15.6666 -19.0307 6.40309 3.27479 2.06983 3.13666
1109 1 -18.6774 -12.8824 4.52849 -1.44173 -2.28238 -1.76114
1112 1 -3.21104 -13.2174 17.8247 -2.40005 -0.114498 1.55603
1114 1 -18.3977 -3.74534 10.2527 2.14833 -0.827171 8.93468
1116 1 -13.5429 2.6798 7.84883 1.03726 4.91959 -4.01109
1125 1 -23.0496 8.12706 4.19157 -3.36063 2.45849 -0.768411
1138 1 -22.4635 -22.1849 3.72902 -5.04618 -6.74505 0.55702
3070 1 -22.914 -7.7829 1.05737 2.38074 -3.67695 -1.74627
1141 1 -18.5344 9.68631 13.1294 1.24558 -2.99415 2.16479
3518 1 -3.84438 2.35865 0.906911 3.6745 2.17272 4.82094
419 1 -21.7559 2.96592 23.6245 5.1406 -3.23111 -5.47403
2749 1 -11.6141 -10.0114 23.2359 1.87368 -1.58716 -2.655
589 1 -1.98394 4.45506 0.788489 6.20433 -0.340932 0.953701
1158 1 -17.6513 0.381576 18.5302 1.99752 -7.90359 2.41428
2980 1 -5.96898 11.1418 2.75859 2.9352 9.35274 0.591456
1164 1 -17.9067 -15.3949 11.3768 -3.34144 0.635189 -0.154209
1139 1 -8.17433 9.74677 4.37916 -3.93797 -1.53105 -1.14732
1178 1 -2.80318 7.10079 8.24901 4.88675 -2.45095 -1.61267
1205 1 -4.35313 -19.7177 11.4745 2.85212 -3.52585 2.9332
1211 1 -14.9295 -10.8355 12.972 -3.16207 -2.38069 -5.54075
3841 1 -24.2375 3.17302 10.95 0.0202966 0.218058 0.592058
1236 1 -5.0346 -21.5067 17.1356 1.63118 -0.457146 -0.778519
2153 1 -9.27635 -12.2027 0.192956 1.13747 2.00476 -2.58722
1240 1 -5.50696 -23.6339 3.44027 1.42602 -1.19658 -6.22237
1244 1 -16.944 -0.228743 11.0266 -1.4298 -1.62113 0.52381
1246 1 -4.96002 -14.7963 5.53172 0.879468 1.81561 0.901466
1254 1 -20.0087 -18.2804 4.39136 -1.54993 1.82603 2.04614
1255 1 -3.37813 -9.28538 5.97315 1.7735 2.3781 -0.355555
1258 1 -15.1968 8.16953 20.4533 -3.07909 -2.95397 0.22669
1272 1 -20.8753 9.48794 16.602 5.13817 0.402532 -0.677871
1033 1 -3.5775 -16.3807 0.965679 -2.02812 2.74657 -0.181829
1296 1 -4.82694 -11.0818 4.61119 1.62565 3.42173 0.705163
1305 1 -5.43428 3.79594 10.1933 -0.233323 0.5985 2.99766
1308 1 -16.8305 -2.88086 8.18539 -3.67044 0.556711 1.25622
1312 1 -17.0492 -10.487 3.71767 -4.56547 0.968166 3.97504
1608 1 -23.2501 4.72831 8.93187 6.90637 3.14415 0.210524
1361 1 -7.1132 -23.1801 6.28433 -2.62853 -0.566962 -6.41864
1367 1 -6.32354 -13.0695 15.7179 -1.78808 -2.75446 -0.354014
1373 1 -12.8124 -8.89433 12.8788 0.403188 2.67497 -0.149924
1379 1 -17.0394 -17.2545 4.49941 -1.46834 -0.348899 -1.08199
1386 1 -15.5636 8.23229 3.74345 -2.49803 5.60933 1.83495
667 1 -23.2816 -21.1291 23.6277 0.398475 0.164004 -2.06579
1396 1 -16.3877 -9.26724 6.34873 0.337571 -2.12562 1.50566
935 1 -23.4461 -10.4308 0.0658218 -2.18859 -0.739187 1.10038
1415 1 -7.41303 -21.9153 2.18895 -2.38864 -1.49355 0.583056
1416 1 -19.8856 -8.03524 9.20305 -4.48467 -4.30942 -0.521313
1428 1 -3.0738 -18.9439 20.6781 -1.45898 2.13132 -3.47912
1429 1 -18.9281 -16.8355 6.68023 1.87121 -2.22388 2.0977
3163 1 -22.0645 -1.71139 15.6947 -0.469388 -4.49812 -1.70165
1434 1 -23.2793 6.82039 22.9957 0.846737 0.416126 -3.97462
1441 1 -18.6418 -15.42 19.197 -2.39661 2.81662 2.39772
1448 1 -17.0675 0.696362 4.2654 -0.904666 -1.70674 -5.16163
1462 1 -9.05449 -18.8189 10.0282 -0.662335 -5.46661 0.49153
1470 1 -3.28602 -12.3578 2.80676 -6.34756 -4.0151 -2.34343
2691 1 -19.9339 -23.9586 20.1004 6.29948 4.69548 -1.46855
1486 1 -19.1715 -6.12178 17.4622 0.738971 -1.80073 4.37594
1488 1 -17.4904 -16.7177 13.8477 1.79166 1.66069 0.694458
1495 1 -22.3421 -10.0464 21.5799 1.19298 1.65412 -2.1158
1498 1 -15.1125 5.06653 11.4387 2.84977 -5.72569 -0.326545
430 1 -22.4582 -2.86375 23.1991 1.41319 6.34971 -2.08074
1513 1 -20.9238 0.892995 18.7276 4.09463 5.48837 -1.10547
1515 1 -6.49055 -21.6073 21.7203 0.582503 -4.23009 -0.400643
1239 1 -1.93662 -23.9415 5.84959 -1.15807 -0.217122 -0.40668
1521 1 -7.51893 -9.69626 16.7338 -2.32267 2.43089 -3.2789
1523 1 -6.56608 4.71532 12.6213 2.26203 1.78749 -3.09445
1267 1 -22.9999 -14.3038 4.7864 -1.40629 -0.705345 -4.12058
1529 1 -7.33479 0.915377 11.6501 0.0663332 -4.40698 -1.70167
1534 1 -12.2987 -9.03703 9.91581 3.73939 -0.69957 -0.858711
1542 1 -21.0179 -5.59637 19.7572 2.92807 -3.54048 0.165557
1545 1 -8.55228 -14.8914 15.4103 1.29446 -1.44154 -0.754779
1546 1 -14.3613 -14.6715 20.9827 0.034317 -3.36286 -3.11365
1560 1 -18.8369 -20.1685 21.5157 2.02678 1.7867 -0.271093
1563 1 -2.91314 -4.36375 15.1431 -0.371237 -1.27106 -2.14771
1572 1 -1.58094 -18.7251 12.1356 2.12413 -0.992022 -2.02721
1573 1 -8.76638 -11.9576 17.9573 -3.55301 0.486052 -0.644225
1581 1 -5.43149 -5.53393 11.1282 -0.129218 3.02547 0.273185
1584 1 -5.00969 -5.94159 13.8172 -0.314489 2.96436 -3.73521
1585 1 -9.21187 -11.7073 20.631 3.72559 6.24636 -3.92129
1586 1 -17.3555 -21.0532 0.941853 1.82082 1.34906 3.87531
1599 1 -20.8882 -4.53545 9.38956 -0.748606 -4.92719 -3.8522
1612 1 -22.916 -20.9958 16.7426 -0.507568 -4.34456 3.46997
1614 1 -15.408 -14.1146 1.96968 1.82649 -2.27835 -2.79442
1621 1 -19.5688 3.5074 13.0091 -2.40094 -2.53321 -2.39301
1623 1 -7.42238 -17.1163 16.8159 -0.455201 -1.7394 -1.98149
402 1 -1.61405 9.55232 18.7153 1.57061 -4.33793 -0.477265
2665 1 -24.2834 1.27302 1.74522 0.394371 -0.672038 -2.53382
1644 1 -19.5034 -1.44396 11.728 2.94392 -0.935524 2.27374
1659 1 -4.27448 -24.4045 7.14746 -0.0884675 0.0618879 -1.13062
1665 1 -6.70693 7.84157 18.0993 -6.74827 1.94277 1.20421
1667 1 -12.5748 -5.18102 8.36176 -2.18658 -0.0462286 3.2636
1671 1 -12.9897 9.44699 21.8003 2.69049 -1.38011 0.975843
1690 1 -7.37903 -23.0133 12.9261 -4.03167 -2.04558 -3.90958
1691 1 -15.3827 -13.6815 7.62651 0.0358532 -0.554467 -2.81327
1697 1 -10.6405 -22.6909 6.18671 4.91063 0.472095 5.13776
1704 1 -7.46571 -12.4501 5.0301 2.0358 -3.51591 -1.77595
1707 1 -10.0984 -7.99022 16.4075 7.24552 1.50869 2.06107
1711 1 -5.86813 4.1734 1.76649 4.87086 2.04694 -5.04496
3843 1 -0.411083 -17.6252 14.7167 5.38591 -4.05295 -0.701342
1729 1 -14.7469 6.93061 15.1594 3.78798 0.879464 0.352397
1733 1 -10.8795 -16.6359 10.6047 1.78146 -0.2586 -0.0711807
1739 1 -7.64763 -20.1024 16.8497 0.930099 -1.26201 -1.92587
1756 1 -16.2851 3.75957 8.32094 0.394519 -2.39981 7.49855
1763 1 -2.50801 3.97653 12.7302 -1.53594 5.18681 -2.68429
1766 1 -17.4436 0.565274 15.3849 3.01766 1.66381 0.914603
1770 1 -9.63587 -5.16714 20.9015 1.18728 -0.545367 1.15976
178 1 -13.5186 11.2961 7.80199 6.95208 2.79502 -0.591982
1788 1 -14.2315 -16.4875 16.2644 0.313171 -2.13419 -0.694152
1792 1 -14.5843 8.51518 8.11963 -1.38176 6.28809 -1.50668
1807 1 -18.263 -11.214 21.8396 1.95867 -2.88609 4.41542
1813 1 -17.9895 7.70918 19.3682 -5.65594 -4.85417 0.400864
1818 1 -19.6817 -10.2628 5.09944 -1.76498 -0.526164 3.79286
1819 1 -12.8608 -11.8805 17.7651 -0.626367 0.422788 3.58225
1824 1 -15.9204 -18.0444 9.10879 3.03033 0.574025 0.285339
1832 1 -22.7181 -13.8706 23.0737 -3.65126 1.11496 -2.23965
1833 1 -10.7884 2.60604 16.161 2.87019 0.24849 2.63279
1857 1 -2.00887 -20.1313 2.32727 -1.44849 -0.0534312 -2.94453
1844 1 -4.60296 -3.17015 5.55486 -0.50477 1.43221 7.10516
1865 1 -8.82055 -4.36652 3.541 -0.503577 -3.93394 -4.36124
1868 1 -5.22415 3.06787 17.765 0.543736 -3.81845 -0.517461
1870 1 -17.6046 7.99005 15.0619 -2.08845 3.7304 1.19513
1877 1 -14.7329 -6.58165 7.17753 2.79985 -2.99441 -0.766613
1882 1 -9.6808 7.09012 18.3194 0.767961 0.559868 -2.49755
1889 1 -12.2348 2.94783 10.7795 2.04564 2.7248 1.12757
3045 1 -2.45481 -1.36161 4.91157 2.0247 -2.21955 -0.582226
1895 1 -18.3402 -8.97396 17.8127 -2.53082 4.85252 2.40617
1900 1 -11.7587 -0.959794 4.05178 -1.30167 0.602843 3.39524
1904 1 -9.9172 -22.1148 16.3549 0.541344 -1.33613 -3.14604
827 1 -1.11864 1.0418 3.47765 -1.05861 -4.88822 0.77929
1907 1 -22.2199 -11.7894 16.6023 -0.668852 -1.9259 -2.80478
21 1 -23.5279 -1.52603 11.1455 -4.50408 2.31058 -0.850134
1910 1 -4.15528 -10.6764 13.0329 3.23995 0.0827646 1.2098
2747 1 -2.24576 1.98734 14.9377 -2.89702 0.941046 -2.12806
2522 1 -4.80863 8.54528 2.68448 2.00744 0.731449 -1.45202
1945 1 -22.4312 -18.2806 21.2894 -6.89121 -2.30957 3.24621
1951 1 -6.46994 -16.057 13.2779 1.18752 1.02229 -1.96923
1955 1 -11.1558 -19.3288 21.6059 2.33757 0.671536 -2.9569
1956 1 -2.64796 0.86531 8.41935 0.130487 0.408532 3.53441
1629 1 -5.79045 -24.6684 18.6753 -3.92168 -3.85688 2.9511
1969 1 -4.6787 -8.5498 10.9808 0.266528 -1.50351 -0.570046
1972 1 -1.44378 -6.65215 8.87612 1.03859 -4.00944 -2.56269
1982 1 -20.7704 -3.07423 20.9792 2.47435 1.57552 0.3311
1987 1 -21.3044 2.64875 10.9586 1.13818 4.41405 -2.70012
1989 1 -9.66498 -15.3737 12.7791 -1.74768 -3.72646 3.29966
994 1 -24.1479 -16.553 18.2933 1.81736 -1.02763 -1.66949
1912 1 -14.0098 2.37426 1.86055 -1.42616 -1.12159 3.93516
3803 1 -18.4929 -3.95825 22.7949 -0.246753 6.3659 -3.1893
1681 1 -14.7622 -9.99858 23.765 0.862631 -1.41213 -1.85369
518 1 -23.9363 -21.8666 1.23859 1.62605 -0.539345 -2.25356
2014 1 -6.3158 -8.59606 13.3885 2.17956 -0.577821 -5.54817
2018 1 -13.6919 0.257864 6.28672 -3.70105 4.10483 0.789057
2023 1 -19.5665 -11.7274 7.65935 -0.701139 1.03321 2.07038
2032 1 -9.00149 5.2782 7.47884 1.99063 1.23825 -3.56845
2037 1 -18.2858 7.28274 11.5128 -0.702312 -3.1701 -3.47391
2041 1 -13.0595 -14.3991 23.3648 -1.06175 -2.41897 3.82037
2047 1 -5.35377 -12.2793 7.27363 0.0559262 -4.08553 -3.3188
2064 1 -13.2074 -17.968 11.9388 0.502674 4.6519 2.78948
3711 1 -12.6789 10.0693 14.0299 1.92505 1.42533 4.2103
2071 1 -21.8737 -12.6712 20.624 1.44628 -1.61774 -8.02649
2072 1 -19.5341 8.58142 21.9571 2.86073 -2.69854 0.911836
1 1 -24.2877 -22.3337 13.2814 0.911442 0.879079 2.62314
2077 1 -17.3771 -5.51311 3.38572 -0.131664 -1.53742 1.84567
2086 1 -9.80419 -15.214 8.12263 -3.46277 -3.81128 -0.126418
2091 1 -9.9863 7.38828 12.8813 0.636247 -3.83232 1.06244
2095 1 -19.5821 -7.68682 3.60531 2.78259 1.15925 1.4045
2097 1 -5.61035 6.44818 9.03052 2.21201 3.50408 -0.166031
2100 1 -1.41359 -3.92788 22.7837 3.8189 -0.901851 1.97619
2101 1 -21.4369 -9.41567 18.014 0.624365 -1.2611 2.98457
2104 1 -20.8868 -5.17481 23.867 5.18364 0.602502 3.2415
2108 1 -12.0714 9.97731 1.85485 -3.1825 -1.24372 1.06685
2109 1 -4.27691 8.85951 19.3679 -2.50037 -1.88219 -1.90418
2112 1 -10.5067 5.20923 14.5674 1.80193 -0.471814 0.763598
2113 1 -16.8964 -1.78313 21.5601 -1.07537 -2.88662 3.11072
3103 1 -3.47334 -12.8645 23.3491 -0.180597 2.9533 -1.58686
1730 1 -2.57729 -8.24569 22.1212 1.86581 -3.24776 0.829365
2133 1 -12.2026 -13.9491 6.90481 -0.374222 -4.36468 1.16771
2136 1 -5.67465 -20.4175 5.919 -1.57806 -1.49093 0.804289
3925 1 -23.5886 3.78396 2.95851 1.16465 0.649839 -1.55646
2142 1 -16.6317 -10.7198 16.0791 -1.8771 4.28623 4.42765
2160 1 -19.3303 -0.556923 20.6739 -0.00496566 1.05313 -2.70546
1409 1 -0.738927 5.43534 22.2855 2.1543 -0.491255 8.44621
2171 1 -5.06637 2.20825 5.48351 2.66533 -1.41938 -5.01399
2181 1 -16.246 -20.3579 19.9652 -0.89159 -4.14758 -0.550935
2182 1 -1.73873 1.46342 11.2087 0.848488 3.57329 -4.62818
2188 1 -13.3203 6.11769 9.39725 5.50711 0.849196 1.67222
897 1 -12.8104 -24.4478 10.1718 0.275201 -1.62611 -0.19663
2200 1 -2.79633 -23.6419 2.19935 -3.97696 -2.51392 -1.31931
2218 1 -16.795 -5.8129 21.1095 -1.57042 0.974193 -5.21236
207 1 -6.13369 8.09004 23.2896 6.34924 5.42245 4.47017
2239 1 -15.7649 -10.0147 21.1867 1.06503 -2.61076 -1.75514
2242 1 -10.8706 -15.5152 18.6748 -1.12232 -2.84619 -3.5856
3498 1 -18.8767 10.972 7.58389 -1.56333 -5.06074 0.793423
2259 1 -19.998 -9.34948 23.0347 -0.728508 -4.3377 -0.766807
2265 1 -1.12631 1.82293 19.9164 0.0667412 -1.18452 -1.61683
2266 1 -21.2642 9.133 13.4122 3.27076 -0.764769 -1.09432
2273 1 -20.3977 -22.0977 17.9483 -3.90332 0.114977 -1.83396
2274 1 -6.93844 -0.538174 19.9279 -0.0591137 1.11316 -0.0891811
244 1 -22.1958 10.8287 22.6167 -0.865264 4.47595 0.47207
2277 1 -13.2624 4.362 21.1603 3.13777 0.363684 1.77537
2279 1 -11.1868 1.80499 6.3255 1.99545 3.07163 -3.25701
3621 1 -8.43897 10.5859 11.1584 -3.36141 1.62014 1.86388
2312 1 -18.5309 -21.5259 7.22557 0.645772 -3.74664 0.785259
2314 1 -17.7009 4.21304 10.8403 4.40218 3.3874 -3.5985
2316 1 -17.8003 -12.3482 1.59006 -1.69282 -2.6102 -2.21063
2331 1 -16.1167 -18.3562 11.9277 1.11218 -3.79325 3.18751
2346 1 -3.17939 -20.8797 9.10784 -1.43077 -0.820336 -2.75189
2355 1 -8.69954 0.328173 1.31664 4.94467 0.73467 -1.25064
2357 1 -1.31952 0.680893 0.737875 0.434846 0.20623 2.65593
3390 1 -23.4259 -23.669 15.8153 4.70448 2.2783 -1.77229
3147 1 -0.529653 -15.552 1.74599 -1.66084 2.26685 0.737967
1511 1 -22.0929 -7.35568 15.9094 4.08334 3.03153 0.434149
2387 1 -10.4195 -6.91269 11.0318 1.07255 -0.978208 -0.401401
2391 1 -7.19953 -3.12762 6.89903 0.0259128 3.00729 2.66953
2397 1 -16.2682 -7.65209 19.0947 1.3979 -2.24088 8.32225
2398 1 -9.53668 -1.16391 14.6646 -0.075534 0.13649 2.63351
2399 1 -10.1351 -10.8279 10.0121 1.07979 -2.41867 -0.11952
2407 1 -11.6834 -12.4488 14.3716 2.55236 0.586491 5.90589
2422 1 -14.8207 2.48526 16.9221 0.332382 -1.0132 -0.765404
2430 1 -13.8386 -7.65781 17.4247 -0.955148 -0.602851 -3.62399
2436 1 -5.50082 10.5366 17.1798 -0.631246 -1.27251 3.34493
2437 1 -13.952 -4.97344 10.8149 2.23674 -5.94034 -1.34587
2446 1 -0.819666 -7.21673 16.4191 0.472923 2.91114 2.69408
1156 1 -17.7212 -13.4876 23.1228 0.133113 3.11123 -2.75084
2453 1 -1.43485 8.9108 11.5597 -1.05993 -2.0653 0.491747
2457 1 -4.53163 1.08065 10.8395 -4.62146 4.39295 2.43914
3634 1 -2.8766 3.86806 8.39194 -2.25686 0.448526 4.61621
2472 1 -19.7829 -0.718871 14.4093 0.549619 0.232648 0.124424
3924 1 -8.63758 -9.25869 11.7209 -2.38112 -4.04629 -0.643804
2479 1 -20.772 -5.65457 0.938711 -1.01226 2.64767 -4.41201
3438 1 -17.5635 9.94104 4.9807 -1.5218 2.87875 6.5621
2486 1 -3.61964 -18.9145 7.25609 6.98042 0.765623 0.0832798
2498 1 -6.50907 7.09484 4.8197 0.172262 0.323681 2.56699
2499 1 -22.3576 -14.9296 8.41024 2.66786 -1.00172 1.46713
2502 1 -3.86296 -10.3155 8.68832 -1.73211 -2.98046 -0.485529
2509 1 -3.3073 -7.67481 1.72756 2.35321 2.58288 1.52294
2512 1 -10.027 10.0661 13.8613 2.43851 1.75555 0.464082
2517 1 -10.677 -13.6764 16.7872 -2.50911 1.21188 -4.46158
2708 1 -13.427 1.73406 22.206 -0.478301 -2.62682 0.325147
2532 1 -11.5346 -15.564 2.04671 -3.80641 -1.14794 -5.69026
2974 1 -23.6953 0.388376 19.6474 1.32889 -0.393392 -0.696047
2546 1 -14.2582 2.81351 13.1812 0.521872 3.96314 -9.58647
2547 1 -12.8451 -3.46464 4.67653 0.081143 3.32806 4.76064
2552 1 -1.09613 -9.37509 7.91146 -1.7869 5.15968 2.06741
2556 1 -7.77038 -13.4267 11.9067 -3.27964 2.06186 -2.15718
2559 1 -16.6462 6.4631 7.952 -1.02075 -5.32485 2.84115
2561 1 -7.63438 -3.62972 10.8107 -0.239653 -2.93094 -1.93475
2579 1 -9.67897 7.89516 2.55278 -1.50964 -0.335218 -4.07579
3920 1 -10.525 9.72131 17.8087 1.50781 -0.98643 0.466304
3998 1 -11.748 -3.98897 0.0605492 3.63253 5.00137 4.848
2933 1 -23.7394 -5.08166 12.5286 -7.0248 -2.23185 -0.22695
2599 1 -5.85294 0.126297 7.4071 3.46979 -0.771557 -3.58546
255 1 -22.8897 -21.6944 10.6139 0.838319 6.32402 0.812692
2612 1 -13.1991 -20.6334 18.2242 2.08375 1.73851 1.13527
2613 1 -22.9583 4.60844 16.9747 3.6671 2.46595 -0.0163956
2615 1 -2.27201 3.09077 17.5534 1.96971 -0.617551 1.3313
3737 1 -1.10507 7.3294 2.74911 2.24967 2.73333 -1.70299
261 1 -1.52018 -23.879 11.3566 -1.05786 -1.39617 -0.949275
2626 1 -3.69149 5.54717 21.7526 -2.14907 0.753441 0.379374
2629 1 -20.9911 -2.16319 5.987 -5.70508 3.88242 -0.064865
2630 1 -11.9418 -9.5721 18.5267 1.04685 -2.0056 -7.83418
2636 1 -13.9286 -19.3516 15.6792 3.66934 -1.48009 -1.04579
2642 1 -5.37676 -16.8494 3.2986 -3.70758 -1.495 -4.22048
2647 1 -10.9165 4.46085 5.54973 -0.143028 0.601298 3.80731
2650 1 -5.02036 8.54502 13.1784 -2.66049 -5.05547 2.02682
2651 1 -16.5914 -18.0009 16.2966 -6.96568 3.25601 -3.58912
2655 1 -4.15217 -10.1835 0.788975 2.44842 4.00022 3.25671
2657 1 -9.13536 -5.50393 6.8782 -7.27995 -0.639143 -0.0477924
2658 1 -4.75135 0.699492 15.8457 -2.27466 0.0513464 0.644209
1742 1 -1.35351 -5.76373 20.5777 -5.10509 -1.94201 -0.850734
2663 1 -7.68358 10.2429 21.7728 0.805955 4.18143 -2.87203
2021 1 -5.51819 10.8232 11.6169 4.40765 3.52618 1.51365
1631 1 -22.4406 -19.3134 7.36445 -1.37925 2.20883 2.03473
2682 1 -21.4465 1.33842 13.6681 -2.37772 -0.06283 -6.43741
2685 1 -1.68306 -7.89399 3.98104 -1.92755 2.24302 4.38131
3121 1 -1.31615 -23.5401 16.4311 -0.73095 -1.52484 0.934332
2694 1 -2.26348 -13.466 20.7429 -5.03007 2.733 0.286741
2700 1 -5.94376 -19.6359 3.12901 0.31339 1.29462 -3.04904
2705 1 -1.20034 -5.27322 5.38289 1.8593 0.874001 0.0516629
2707 1 -9.53608 -13.7932 2.4987 1.43342 5.67234 -0.602498
553 1 -11.2475 5.98914 1.06782 3.09506 0.55549 2.82144
2715 1 -10.3634 9.7564 20.6854 -2.17939 -3.1413 2.20617
2724 1 -6.42299 4.68702 6.49424 -3.56662 1.73016 -2.92378
2730 1 -4.73419 -16.9528 10.6791 0.393542 -1.98585 3.41096
2684 1 -22.0879 -11.9289 3.45753 -2.95776 6.42126 4.6072
2738 1 -7.42189 7.69831 14.4019 3.17125 1.87199 -1.32503
2739 1 -12.7483 -8.42613 21.0525 4.47296 3.32636 0.0792553
2741 1 -7.03183 6.93949 1.65647 1.40899 -1.25067 -0.848092
1661 1 -21.5343 -4.42765 16.9578 0.0429308 0.325477 1.26378
2591 1 -4.88293 -24.1863 13.6175 -2.13169 0.425778 -0.676656
999 1 -20.8918 8.81602 8.1415 -5.92731 -5.7758 4.17953
2759 1 -17.1784 -15.5956 8.53015 -4.21967 -1.43432 -4.2352
2761 1 -7.03756 -15.6907 19.518 -0.73991 -0.138461 3.63791
2762 1 -9.93119 9.17461 7.65518 -2.48526 6.3956 -1.12186
2763 1 -6.24942 -13.1767 18.635 -1.97073 -0.0110664 -6.65981
2775 1 -2.64552 -18.6391 16.1911 -0.771327 4.91414 -3.65435
2792 1 -6.03946 -5.00712 3.80041 -0.148086 -3.45375 -5.75377
3468 1 -7.09608 -9.16655 23.3433 3.8063 1.61343 2.41173
2566 1 -23.1995 -12.1743 14.1007 3.54979 -2.296 -1.27181
2822 1 -14.4895 -4.73378 2.76512 -2.37177 3.9817 0.301935
2830 1 -22.1271 7.48701 1.57712 -4.70705 3.60479 1.99325
2833 1 -22.907 1.18683 5.7496 -2.67716 -1.28695 -3.57429
2834 1 -9.09637 -17.3287 21.9984 -1.11339 -4.44121 -5.61374
2846 1 -21.6356 0.292252 3.08528 -2.27401 5.30026 -3.25723
1045 1 -7.39433 -2.60304 21.9784 -2.06867 5.13814 4.5344
2860 1 -22.4723 6.82208 20.0238 -1.4487 1.2174 1.30688
2869 1 -17.9375 -18.1403 18.7095 7.34672 1.83004 -1.94532
2873 1 -10.1374 -2.83038 5.71672 -3.12365 2.82322 0.904079
2880 1 -2.13472 -0.60847 13.1755 -7.53101 4.34436 -3.23768
2882 1 -20.7199 -15.5805 21.2486 2.97999 1.58957 -2.1722
3017 1 -13.3913 6.73201 22.8381 0.607393 1.0607 -2.31952
2894 1 -8.1484 5.47504 16.3501 -4.44273 0.0665085 -6.81374
2896 1 -11.6626 3.41073 18.8789 -0.574499 -0.772393 0.73091
2899 1 -2.72891 -20.684 18.4826 2.18373 0.711975 2.10586
2903 1 -13.3566 -13.5469 4.27723 3.68739 3.06418 -1.33821
2910 1 -14.2568 5.77909 18.8441 1.41152 -2.58157 5.43591
2917 1 -9.62029 7.09106 5.50297 -0.894922 -5.70044 -5.57612
2923 1 -11.9411 -1.31673 18.2672 3.12256 1.81412 0.0150509
2954 1 -13.8337 -2.56997 7.46092 2.40883 -4.00909 2.07801
2592 1 -1.43631 -17.3104 8.29424 -7.66118 4.64534 3.60723
3873 1 -4.07683 5.80313 13.8976 1.35271 4.72727 2.92054
2969 1 -5.27326 -1.52172 17.6471 2.41425 -2.32022 2.79993
2981 1 -12.8599 8.60801 16.5849 1.56911 0.103873 5.59904
2982 1 -11.9381 -6.03935 5.70345 -0.375934 1.25796 1.29763
3785 1 -3.25844 -22.3477 23.1256 -3.49575 -3.3939 3.27181
2985 1 -11.1203 -12.9634 11.5822 -0.0902711 -3.67643 -0.143024
2997 1 -5.49497 -16.9394 7.77874 -3.60041 6.42235 -0.692017
746 1 -14.8136 -7.03414 22.8818 1.16904 1.83523 2.03863
3009 1 -14.6285 -22.705 9.04846 -0.297334 -0.711154 0.808219
1048 1 -1.89923 0.225946 17.5489 1.25292 2.15764 3.02217
59 1 -18.9943 10.2076 18.686 -2.61514 -7.17952 -1.48082
3019 1 -20.2669 -20.5652 11.447 4.73276 6.34141 -3.2156
3020 1 -11.6105 -10.7827 7.55202 3.19369 4.48617 2.9052
3033 1 -13.3424 5.46293 6.40374 -4.22121 2.06258 1.01884
1478 1 -0.752324 5.41135 4.88926 3.44364 0.195505 -2.72408
4000 1 -16.8051 8.66817 22.738 -1.86379 0.460962 0.279139
3074 1 -8.36818 -8.05508 5.9956 6.4735 -4.2082 -1.52139
3081 1 -19.1506 6.70961 6.94199 3.49073 2.25435 2.09597
3971 1 -5.01352 -4.40039 22.2314 -0.00765957 0.179608 6.07198
3084 1 -15.1793 -23.9608 6.71421 6.52033 0.274419 0.122625
2219 1 -11.2154 -23.5383 14.1732 -0.631448 -4.41474 -1.26128
3091 1 -3.45253 2.65093 21.6308 0.55207 -2.92647 -0.256316
3092 1 -8.15217 -7.51738 21.2151 3.63513 1.64579 1.84279
3098 1 -10.1555 -19.702 5.64335 -1.39771 0.49085 5.94761
3869 1 -7.35053 2.74205 8.31374 -2.36188 1.27524 -0.410991
3104 1 -18.8611 -7.68602 6.61363 0.808394 -1.57 1.62008
3933 1 -1.6535 -9.4344 17.9897 -0.398312 0.764805 2.65314
3119 1 -7.13688 -10.7061 2.74865 0.00203828 -3.96135 2.64058
3907 1 -21.1248 -0.0403226 9.82549 -2.94154 -1.84959 7.12865
3129 1 -1.94831 -13.3951 12.126 -0.547904 2.96425 3.9519
3136 1 -16.2259 -21.6991 5.48969 2.1132 1.35888 -5.31671
3903 1 -16.2338 -14.3949 5.00571 2.94743 2.73853 -1.12584
1147 1 -9.6246 9.89058 0.151076 2.384 -1.40452 1.27147
3164 1 -20.141 5.83515 21.9398 -2.97636 1.77509 -2.80888
3168 1 -15.6627 -22.0465 17.5067 -0.0728989 -0.773994 -3.08364
3172 1 -7.95059 -0.541171 5.76885 0.806415 -0.638656 0.82903
3943 1 -19.7374 -19.9605 1.8537 5.10671 4.28259 -0.312999
469 1 -22.9186 -13.8171 11.6835 -3.32879 0.198528 -0.902068
3187 1 -19.2151 -16.7668 1.88909 -0.277331 -1.37776 -3.89155
3194 1 -17.2058 -8.05957 2.01508 1.51831 0.226429 -5.07708
3195 1 -17.3804 -0.882706 1.56109 3.71614 1.47831 2.92392
3197 1 -3.99187 8.48233 6.09752 2.85994 -3.31523 -4.63498
3201 1 -15.8526 -3.58093 19.6335 -1.27456 0.159189 -3.69073
3204 1 -14.6705 -10.6411 10.1639 -1.25974 -0.15432 2.38086
3220 1 -4.08904 -11.2395 15.8468 2.65769 -0.933981 -0.891893
3155 1 -4.9022 -13.7659 0.934355 0.870405 2.99622 2.1205
1393 1 -1.80914 -3.66558 3.13201 3.14627 -0.668008 1.73805
3225 1 -9.77147 -5.54303 14.7471 0.512323 -1.82199 -0.454605
1562 1 -2.40764 -4.0419 0.301871 -8.43303 -3.80088 5.84179
3239 1 -13.1084 -18.0465 8.95056 0.943032 6.30717 1.06137
3257 1 -10.573 6.93669 23.3444 2.40293 -1.91564 0.5162
3258 1 -19.4794 -6.82694 21.8065 -2.08961 2.72113 -2.92096
944 1 -15.1702 -1.40548 23.6742 2.31232 -3.24646 3.35046
3277 1 -2.39116 -16.7161 3.93442 1.71621 -2.4932 0.0620866
3281 1 -4.81 -13.2869 11.687 -1.73409 1.51038 6.65421
3283 1 -5.21213 -0.442367 13.3264 -0.207503 2.2589 -1.75818
3287 1 -3.44228 -16.1422 16.9618 1.10517 -2.82283 -0.725869
1510 1 -15.373 -11.7078 0.0619211 0.770666 1.28853 -1.82316
3296 1 -16.2744 -14.3507 15.3463 2.23203 5.16031 -1.47116
3302 1 -19.4235 -11.4288 19.1491 -1.9979 2.10916 0.646317
859 1 -13.617 -9.93942 1.10804 -1.37722 -6.5928 1.31771
3312 1 -23.18 6.11366 14.4343 2.91334 -5.17877 -4.25175
3318 1 -11.8513 -0.0148244 15.738 -0.179422 -4.32661 -0.460927
3321 1 -10.3466 -20.3116 18.9568 0.987585 -2.73199 3.81781
3332 1 -3.38639 8.53109 22.1723 4.069 1.37523 1.06465
2943 1 -23.9053 7.49725 9.3772 1.98731 -1.92238 -1.32512
3348 1 -9.00225 -19.5945 2.94994 1.49115 3.23081 -0.795242
3350 1 -2.91371 -8.20251 14.4027 7.13465 -4.92265 -1.53124
3351 1 -20.9768 -14.0397 17.9137 4.12698 3.41926 1.16238
3353 1 -22.9862 4.09891 19.8762 -1.25907 7.31021 -2.42818
3360 1 -8.0631 -18.4249 19.3562 1.08073 2.81016 0.163056
3371 1 -8.82868 3.14283 13.0435 2.02209 -2.97517 0.250111
3376 1 -15.6668 7.52417 12.5684 2.03154 0.599881 0.222883
3983 1 -21.1022 7.34464 10.5942 -0.669527 1.09779 2.55556
3387 1 -18.9845 -3.51298 2.07179 -0.213873 4.84654 3.34388
3388 1 -19.3734 -6.58393 14.468 -6.08211 5.80581 -1.26623
3391 1 -7.7684 -15.304 4.40145 -2.94307 0.366722 0.420243
3394 1 -10.9167 -0.726979 12.45 -3.20812 4.31015 -1.1174
3397 1 -6.09886 2.2258 20.4577 -7.24636 -1.13321 -0.827468
416 1 -24.1545 1.00665 12.4875 -1.74016 -3.50907 -1.91164
3409 1 -2.96506 -16.145 19.9302 2.46811 0.269479 -2.27344
3410 1 -19.5643 -10.7949 15.6043 2.45476 -1.28499 4.1452
3411 1 -5.32769 -6.85036 20.6491 2.09877 -4.063 -0.921081
3417 1 -20.3875 -10.7141 10.0404 0.0201244 -2.75498 -4.03241
3419 1 -9.81031 -9.86715 2.00073 -1.67018 0.241944 0.800089
3420 1 -17.3744 8.99814 9.34362 -0.588 -6.55399 1.06351
3423 1 -11.2895 3.58265 2.7529 3.90942 5.54057 -1.70263
1942 1 -2.64659 9.19121 0.799956 1.1786 2.92831 -1.28559
3426 1 -20.8931 -5.15227 3.78925 -0.619174 2.06042 1.97878
3430 1 -13.3988 -16.6109 19.1514 -2.08658 -2.29922 0.22186
3432 1 -1.89826 9.71579 8.75212 2.17676 0.255455 -5.29047
3436 1 -3.18661 9.61298 15.2339 4.15339 -1.15095 0.381926
691 1 -1.43677 7.36937 14.0196 -3.84753 1.87982 -4.61016
3442 1 -6.46179 -0.678628 3.184 0.520295 -3.33242 -0.167654
3448 1 -19.0044 2.84462 15.8319 -2.48494 3.97329 5.7494
1103 1 -23.571 8.87623 15.6141 2.87351 -0.858956 1.71378
3464 1 -18.0328 -21.61 13.0662 -3.02598 -5.3835 -4.14547
315 1 -13.9469 -24.1302 2.08775 0.0962479 -0.720269 -0.583116
3686 1 -23.4898 9.73385 0.658736 -2.79832 2.08182 0.00456421
3105 1 -22.943 -7.82207 19.8095 -1.64076 1.35734 0.0701284
3490 1 -17.6431 3.44162 5.53205 -2.9502 -3.64532 -0.916951
1020 1 -18.5683 -23.9603 8.53525 -6.8975 0.870818 2.35721
3497 1 -14.6379 10.2833 18.3304 3.00046 -0.497424 -2.80667
3510 1 -13.5554 4.29141 15.3702 0.708422 3.55321 3.70311
3512 1 -20.9102 2.95459 2.36855 -0.559628 -0.737326 2.50825
3519 1 -5.14289 5.92061 16.6183 1.34965 1.53849 -1.95249
3520 1 -5.31001 -16.309 21.6267 2.917 -3.82331 -2.07705
3523 1 -13.0211 -20.6564 10.719 1.09388 0.671042 -1.06301
3529 1 -21.4648 9.68512 20.167 -1.8072 -0.307208 2.91643
3549 1 -13.2803 9.64856 4.2992 3.49932 0.816057 -0.611905
3556 1 -9.36661 -14.8136 20.9037 1.66284 -4.44865 3.1085
3566 1 -9.41977 -16.967 6.12806 -1.95823 0.372876 3.33407
2537 1 -2.59287 -22.4733 13.7395 -1.85072 0.247657 1.34502
857 1 -22.2247 -6.78704 10.4175 6.78102 -3.09925 -2.14726
515 1 -2.72486 7.14947 16.8095 -0.141396 2.61044 -0.300162
3595 1 -1.97582 -14.2397 7.75754 1.52557 0.723611 0.431324
3603 1 -5.42656 -1.88371 9.86723 -0.283512 0.741105 -1.93217
3607 1 -19.3608 5.0808 19.3814 4.00095 -0.58613 3.69852
3616 1 -10.8563 -12.7835 22.8613 -1.67486 -2.75552 -3.73224
3629 1 -3.88236 0.696504 3.24272 0.0696837 3.53272 -3.62587
3632 1 -12.0893 -15.3526 14.5896 4.93048 -2.5138 2.85784
3863 1 -12.9929 -2.80045 12.7785 -0.0592007 2.18395 -1.44838
3642 1 -2.16267 -14.0039 4.9938 -1.34551 -2.15276 4.94465
3651 1 -12.2355 8.24932 11.0632 5.61029 4.08631 2.68778
3656 1 -9.33903 -22.3887 20.7937 3.51739 -2.28612 -3.93679
3668 1 -13.1298 -3.38891 19.8911 -3.53997 -1.17617 -2.62407
3979 1 -9.06641 -23.42 4.02462 -0.728038 -1.77322 -1.52275
3673 1 -4.38695 -23.4219 20.8759 -3.57641 5.71478 -0.0697989
3678 1 -19.1985 5.6268 15.7543 0.199156 2.30732 0.519842
3681 1 -7.58324 0.974269 14.6559 1.64779 3.03305 -1.96035
2815 1 -23.6765 8.80418 6.89425 8.38421 3.82013 3.84144
992 1 -23.3705 11.0698 3.05711 8.55443 -6.86695 2.96532
3698 1 -21.6413 2.40844 16.3635 -1.74387 5.17311 -3.86261
3699 1 -8.28535 -3.37397 13.5423 1.8563 0.772138 2.79528
3710 1 -4.6061 -8.64034 16.8253 -1.37796 -4.08036 -1.52409
3714 1 -10.9461 0.0450429 22.5626 -4.02102 -2.1485 -0.677032
3718 1 -16.7489 6.56795 1.75547 4.65445 -7.1211 2.33204
3738 1 -7.21187 -6.78242 15.7038 -1.61611 2.34423 4.70279
1421 1 -22.3933 -9.45774 6.44517 -1.55389 -2.20277 -6.26214
3751 1 -4.40457 -0.686247 0.370565 0.839926 -5.28168 -0.716402
3754 1 -10.5618 5.44639 9.8638 0.977781 2.10842 5.60769
3767 1 -10.9551 -21.6986 2.66337 -0.234961 -3.83498 4.73398
3769 1 -20.2448 -18.1549 8.73121 -1.2898 -4.58443 0.228354
3770 1 -6.34585 -5.53153 8.32154 -3.96166 -0.0891884 -0.660876
3779 1 -9.46729 0.574237 7.96259 -0.782344 2.35905 0.0172388
3781 1 -3.52534 -5.3724 7.02819 4.00885 2.14723 -1.70098
3792 1 -7.94125 -10.9709 8.14621 -0.167307 -2.13624 -1.57194
3797 1 -13.1103 -13.1327 9.48881 1.94406 -1.46851 -4.43747
3810 1 -17.304 -3.38358 14.574 -0.815244 1.52021 0.67609
3354 1 -14.014 7.81226 1.02188 -2.31292 4.98445 0.162107
3816 1 -14.1212 -10.8305 3.71468 0.203924 -2.83223 1.91495
2784 1 -11.3767 1.52695 0.369515 -1.57479 -0.644046 4.09726
320 1 -0.455013 -1.28092 8.40676 4.00905 -1.17173 -0.479827
3844 1 -20.3903 -14.18 6.4425 1.40141 -0.657832 0.87382
1720 1 -4.10647 -23.7168 9.78258 -0.096269 0.584107 -4.1592
3861 1 -17.0811 -15.6373 21.5792 -1.80377 1.24656 -2.6781
3936 1 -0.331273 -21.78 23.3426 1.11973 0.617105 1.47774
1525 1 -8.54342 -7.79373 0.112192 -1.11848 0.954717 1.03956
1148 1 -11.2641 10.5013 9.67972 1.47588 -1.79609 -1.1386
324 1 -23.509 3.75973 6.44266 -3.50067 -1.41152 6.66515
2625 1 -4.87097 -7.30103 23.4237 -1.7586 -0.152114 2.72666
1928 1 -23.8336 -3.01097 6.01218 -1.24106 -1.46072 -5.12899
3267 1 -18.3978 9.42881 0.0419003 5.15665 -3.46803 -1.74316
1076 1 -24.4864 3.88651 22.5616 -2.36016 -3.30481 0.314592
865 1 -0.661937 -21.2471 11.9232 1.22596 -5.49467 3.53965
42 1 -13.6694 -16.1785 0.373726 3.10512 -1.21224 0.105021
2010 1 -8.26743 2.13841 23.7666 1.30544 -4.4564 5.20457
3404 1 -18.6415 -10.1594 -0.0266749 -1.00593 1.68527 -3.70384
1359 1 -22.0108 -23.8113 23.7539 3.03907 2.0882 1.16201
628 1 -21.5917 -16.5505 0.280492 2.12739 -1.39798 0.534891
1908 1 -15.0627 -7.80799 0.0104678 0.525247 0.097606 -1.3532
2405 1 -3.96066 -10.126 23.8935 1.60369 3.53149 -0.332268
406 1 -7.07687 -18.3521 23.9846 3.12496 3.37892 3.97918
228 1 -11.94 20.5429 -0.36677 -2.48895 -5.69338 -0.480643
36 1 -13.0481 19.6063 -18.7011 1.57894 0.873104 -1.37766
45 1 -10.9923 13.5907 -3.41008 2.32248 -1.51101 -0.125373
1034 1 -14.0411 12.7151 -9.97341 -2.67952 1.5271 -8.67023
67 1 -14.7014 22.088 -11.5476 5.4448 -2.97014 2.42004
1180 1 -9.81166 44.933 -11.7945 0.141796 1.16788 -2.73654
70 1 -16.4403 15.8147 -15.2717 2.93184 -1.22355 1.93155
3524 1 -0.792567 23.6597 -1.93705 0.0755023 6.30726 0.577316
78 1 -19.4547 13.4244 -8.58259 0.400432 -3.73604 2.77305
80 1 -13.0787 14.107 -13.9306 -2.63229 -1.52985 -0.0636891
3080 1 -20.4661 11.3273 -6.39704 -0.0525335 -3.22661 2.85045
88 1 -10.5594 24.4851 -18.6258 -5.77728 1.97017 1.2607
109 1 -14.0426 16.95 -14.3771 -3.71897 4.56216 -1.40618
130 1 -7.56021 17.6823 -19.1813 -2.43497 -4.56425 -1.94441
154 1 -8.61267 21.4189 -6.37974 -9.05978 -3.73373 -0.695141
172 1 -20.5908 21.0998 -20.9882 -3.312 -1.86829 6.86991
176 1 -6.35381 23.0698 -1.2502 -2.58687 1.57776 0.90954
209 1 -7.0817 18.7397 -14.8389 -4.57019 -1.0811 -0.0961324
2754 1 -14.3398 25.1111 -0.658008 0.134104 -4.04302 -2.43984
212 1 -17.1759 25.007 -3.3828 -5.84274 3.06002 -0.64419
4182 1 -1.60361 36.5742 -1.14193 0.971711 1.70115 -2.52745
245 1 -8.74229 25.3594 -10.4532 -1.16112 -0.00629311 -3.45561
267 1 -10.8882 19.3976 -10.3959 2.27507 0.994429 -1.22442
268 1 -20.5704 20.694 -11.8669 0.47069 1.97943 5.97466
210 1 -19.003 12.2709 -0.528044 -2.03756 4.84057 -4.60097
301 1 -7.6701 21.7099 -20.8623 2.24269 -3.21868 3.69501
2983 1 -6.38463 13.3216 -23.0346 4.39005 2.8412 -0.408804
374 1 -6.61774 17.7144 -11.1583 -3.67405 -1.00114 1.25859
2172 1 -1.85578 22.2123 -4.33993 0.962443 1.08816 0.300322
4205 1 -3.10707 39.0025 -1.5621 0.643114 -5.02112 1.45978
3116 1 -12.4479 16.9054 -1.67472 7.23576 -1.56129 2.98977
439 1 -3.17172 23.5405 -6.63438 0.162666 1.67206 -2.37867
440 1 -9.38773 13.9201 -14.0891 -1.30338 -1.15891 5.40323
489 1 -12.0645 23.2654 -11.3106 -0.749612 -1.89229 -5.44246
2760 1 -1.08317 14.2081 -18.0259 -5.4203 1.51791 2.64229
521 1 -11.053 23.0552 -6.25715 2.13115 -3.3661 1.13046
526 1 -19.9255 14.7889 -6.12594 1.29418 -1.15514 2.37288
527 1 -5.79398 14.0344 -6.72526 -0.710158 -4.25955 5.42535
528 1 -16.3045 15.2779 -10.6402 3.91042 -5.11794 2.38011
556 1 -11.776 17.8902 -4.53358 4.44492 0.19413 -4.95585
567 1 -22.7258 21.2695 -4.26103 -1.94969 -0.20929 0.718998
569 1 -8.02768 24.2962 -15.5007 -3.60555 4.82873 0.977646
612 1 -4.84132 13.5524 -13.9936 0.441263 -1.98713 2.32112
617 1 -13.2955 23.5947 -19.4287 -2.50725 -1.87097 -1.20356
621 1 -6.63637 15.9002 -14.1771 0.829404 -0.560671 0.892518
4198 1 -2.41142 41.148 -8.41439 0.64157 2.16674 0.302532
1054 1 -16.5293 23.378 -0.946487 -1.22588 2.83221 2.1385
682 1 -3.33829 18.6195 -4.48989 -3.23662 -1.99514 1.58101
697 1 -22.226 15.0916 -23.5932 -1.10677 3.6422 0.518722
723 1 -22.4534 13.1976 -5.2927 -0.741661 0.834501 -0.762336
724 1 -9.58565 21.9027 -10.373 0.241533 -7.36663 0.835725
728 1 -11.0988 16.9873 -8.73531 -2.89846 -1.95597 -0.85625
731 1 -11.172 12.6671 -22.3592 -3.62316 -3.49987 0.320134
757 1 -18.7867 12.5568 -4.57566 -0.304068 -1.22514 1.73632
4221 1 -3.69245 43.6922 -8.62255 7.03482 -1.09639 -0.149644
766 1 -9.39198 17.9804 -16.9379 -1.77014 1.4441 3.07365
1489 1 -23.2993 15.3722 -1.30755 2.66948 2.51357 -1.91539
4170 1 -2.11855 36.7912 -5.36576 -1.85906 1.32104 -1.65088
792 1 -22.4017 15.5115 -7.29328 -0.151343 0.423205 2.46411
799 1 -10.9409 20.5174 -2.86264 -0.860609 4.80949 -3.02625
809 1 -6.06949 24.1103 -17.6786 -0.37429 0.0606457 -6.18191
813 1 -15.2591 22.9211 -17.2275 -0.644161 -6.62942 -3.36973
839 1 -23.9116 18.8437 -12.1043 1.95887 -1.05798 0.611773
848 1 -4.30396 17.0346 -12.4734 4.58237 -1.82007 -2.74544
851 1 -21.618 15.7016 -14.8208 -2.35655 2.60638 -0.125019
855 1 -17.2159 22.4193 -21.702 1.41834 2.23358 0.184451
4230 1 -1.23298 45.9276 -0.833478 -0.595288 1.43032 1.82917
3880 1 -9.09988 19.0154 -23.5663 -6.13173 3.37689 2.83011
903 1 -8.02243 24.2536 -19.8091 -1.52861 0.583293 4.93646
912 1 -16.1717 23.3301 -9.18313 -1.61979 -3.09188 -0.167824
934 1 -3.39977 20.4681 -22.4187 -3.45202 -2.81831 -3.10427
955 1 -11.1472 21.6248 -18.6512 2.82534 1.97863 -2.78304
963 1 -17.2706 22.2705 -13.2478 -4.39703 -0.0525025 -2.46347
968 1 -2.41741 22.889 -15.3702 2.07068 -0.582789 1.06342
984 1 -17.0445 16.7416 -5.211 -2.07382 0.987759 1.07037
2053 1 -21.9497 11.6951 -19.9766 -6.00341 -3.22824 1.6964
1044 1 -6.20969 20.8241 -11.1073 -0.639017 5.26762 -1.39362
508 1 -1.40628 19.2339 -9.1361 2.69702 -4.4946 -2.04398
1071 1 -19.3387 22.4932 -15.1204 -2.29217 6.19839 -0.0749046
1074 1 -11.4476 12.6677 -15.9337 -2.2883 3.72433 0.38035
4218 1 -2.12617 45.9345 -5.18511 4.48109 -1.88335 -2.79016
821 1 -23.4712 46.3671 -22.344 -2.49645 -2.11561 0.701367
1095 1 -8.42198 20.7728 -12.8641 -0.216284 3.06167 -1.18052
1122 1 -9.84498 23.1812 -2.61219 -1.93912 -0.697764 -2.73395
1124 1 -3.57095 15.3685 -17.7547 0.677939 1.29745 -2.24458
1130 1 -3.04597 15.8774 -14.8136 -1.13314 3.31281 -3.20088
1187 1 -13.7201 16.7601 -7.61031 -0.251995 -7.66821 1.89379
1210 1 -3.57224 18.5434 -1.49315 2.29187 -3.34471 -2.87179
1232 1 -18.7081 15.6189 -22.0531 0.648166 -0.748495 2.27992
1265 1 -9.39727 12.8787 -8.8613 0.306851 -0.921299 1.93917
1277 1 -12.7311 20.8322 -5.17626 1.08529 2.84234 4.31614
1279 1 -20.0072 17.0173 -12.8764 -1.141 2.65315 0.661615
1292 1 -5.46864 20.6548 -4.43152 3.94535 0.788481 -0.0429161
1311 1 -2.95008 19.5392 -13.1396 -2.09646 2.85701 -1.31731
1327 1 -10.398 21.4529 -21.5073 0.553395 -1.53742 1.4395
1330 1 -8.59815 15.7714 -8.57335 3.52642 1.90958 3.80212
1335 1 -14.4357 22.4945 -14.3716 2.27095 1.77629 -3.15371
1368 1 -19.9489 19.8713 -0.982737 3.01184 4.45652 -1.67905
1400 1 -12.9105 15.0479 -23.2031 -0.242786 -4.77586 5.90595
296 1 -1.53173 14.6226 -1.81705 -0.00624659 -4.25143 5.06937
1420 1 -11.8525 19.2824 -22.6977 0.580961 -3.37293 4.33369
1440 1 -23.2565 13.0552 -2.72282 2.5036 -0.193808 -1.94312
1465 1 -21.4486 24.1654 -14.9227 -2.31282 1.02046 -0.134661
1476 1 -21.0804 14.035 -21.2601 -0.371801 -1.56658 1.37616
1481 1 -7.99399 16.4215 -2.0525 0.047894 5.47239 -3.36191
2468 1 -22.7336 46.9735 -6.78888 -0.819703 1.71566 2.85371
3408 1 -16.4843 12.1031 -24.084 0.168649 0.834878 2.78319
3719 1 -1.12165 15.0825 -6.06181 2.42741 -2.23301 0.890677
1537 1 -3.34935 24.2778 -17.6394 1.9931 -2.24983 -2.25838
1544 1 -5.76124 21.1839 -17.9645 3.74083 0.51647 -1.38583
1553 1 -11.1784 20.9497 -16.0158 -0.902092 1.48285 -0.455085
1565 1 -8.47132 15.3375 -11.6538 1.98655 -0.903698 -1.3158
1579 1 -6.2115 14.8175 -3.69933 0.488047 -0.0199189 0.452532
1609 1 -23.7155 17.8634 -20.5286 3.76772 -3.998 -0.299307
1610 1 -13.6864 19.6784 -15.0905 0.232073 1.17782 -2.73068
1637 1 -4.15152 21.3845 -2.11959 -6.66853 2.32891 0.0619225
1643 1 -7.27876 22.0364 -8.77677 -1.34696 2.20892 3.93475
2787 1 -14.2291 15.0243 -0.962155 2.25475 -2.22838 -2.5961
2081 1 -23.5705 17.3018 -15.9435 -0.802429 2.03181 1.53592
1734 1 -8.49196 25.1502 -22.4086 -4.71596 -1.44112 -0.16942
1764 1 -14.7466 17.7892 -11.5629 0.751362 1.88675 0.886843
1803 1 -18.3862 17.6042 -9.87993 4.04623 -0.170625 0.88938
1817 1 -2.69741 17.9064 -18.949 -3.46509 4.03313 1.06041
4173 1 -3.94336 34.6763 -8.70741 1.0802 -1.70963 -2.02692
1899 1 -7.5111 18.9902 -5.0125 1.7646 0.69286 3.66488
1933 1 -3.70579 20.3454 -19.4883 -2.64152 -0.693553 3.42672
1947 1 -17.9287 13.5053 -14.2317 2.78664 -2.65508 3.19427
2002 1 -21.912 22.6347 -9.74009 -2.55311 1.0587 -0.147894
2007 1 -11.2718 13.7784 -11.9304 2.40176 -0.131796 3.21184
2987 1 -23.3126 45.3373 -9.07017 -4.12088 5.77397 -4.6242
2062 1 -19.3829 19.4249 -7.73754 -0.132889 -3.38767 -1.47453
2076 1 -13.5684 22.6092 -8.81766 -0.36923 3.47229 2.38434
2154 1 -10.7 16.7327 -22.516 -0.442459 1.86269 0.753006
2092 1 -19.4612 22.261 -23.306 -2.9289 -1.39295 0.120036
3540 1 -3.41453 12.9501 -5.06172 -2.00703 1.51387 1.59121
3736 1 -24.4108 11.8078 -9.49551 -4.97941 -2.98327 -4.74355
2156 1 -22.0703 18.41 -7.89192 2.78672 -3.03774 1.0593
2166 1 -15.5685 20.0391 -17.2219 -3.67909 0.244083 -0.917454
1083 1 -0.738121 21.1704 -19.0536 -1.05334 3.15281 -2.19968
2224 1 -16.6617 14.2817 -3.89284 -2.47601 3.77424 -0.85902
2232 1 -22.8839 23.5385 -17.3922 2.65374 -0.503972 3.14783
2249 1 -14.5817 13.9218 -16.5498 -0.126288 3.47667 0.242138
2258 1 -9.41307 15.5816 -20.2741 -3.45258 -1.28352 7.12567
2275 1 -11.6823 23.0891 -14.2215 -5.10539 0.065332 -1.99648
847 1 -13.0461 46.6428 -13.2344 -0.945229 -2.30586 0.690128
2289 1 -2.53256 13.0036 -21.4461 -3.54859 -4.78291 2.9375
2303 1 -12.9731 19.7866 -12.3466 4.30303 -0.487424 -4.33148
74 1 -1.13404 14.9317 -12.9409 -1.92234 -0.941001 3.42597
4112 1 -5.53745 43.5747 -0.0422433 1.45105 0.256095 -4.0463
2382 1 -12.359 17.6517 -16.8082 -3.56172 -5.53154 4.27978
2401 1 -19.0762 23.2429 -4.76427 -2.01698 -2.72376 2.65795
770 1 -5.93317 21.8698 -23.1017 -1.02991 -3.56508 1.98998
2431 1 -21.435 18.0533 -10.7017 -3.06291 -3.91994 0.107767
1836 1 -11.0974 46.1633 -17.7204 3.61757 -1.08711 -1.35288
2459 1 -17.6308 15.5491 -7.85882 0.00952959 1.86732 2.51199
2461 1 -19.5252 16.5214 -3.67359 -1.58768 -4.29938 4.87489
2471 1 -1.59862 22.7002 -22.6196 6.43839 3.72988 0.441305
2533 1 -14.2546 24.8469 -3.81607 -0.7698 2.76776 -5.50703
4181 1 -3.24771 34.3386 -1.67203 -4.08185 0.0946091 -0.0115322
3052 1 -20.5545 11.9964 -12.0203 0.758959 3.07488 -1.15361
2570 1 -22.0467 15.9902 -19.3087 -2.12617 -3.06009 3.27855
1880 1 -1.97067 23.5359 -19.9808 1.80531 1.17453 -0.387196
4038 1 -9.44625 31.7679 -0.370018 0.333693 -4.16725 3.68467
2611 1 -22.7026 25.1157 -22.2558 -1.34782 0.474011 -2.9138
2614 1 -10.7276 14.1243 -18.173 2.47767 -0.124636 -1.79676
322 1 -13.8355 14.1989 -3.63905 0.0224228 1.76457 -2.09017
2623 1 -20.9696 17.6319 -22.9812 6.51938 -1.6106 -0.479895
2624 1 -20.9597 18.922 -4.88443 -1.86026 1.14522 -1.56872
2321 1 -3.06378 24.7181 -23.912 1.64866 1.28794 1.66791
2649 1 -18.2321 21.6314 -10.5311 1.35989 0.2253 -4.67663
2699 1 -17.0713 14.5204 -1.00388 7.40481 -2.26124 -1.34261
2702 1 -6.91731 18.8086 -21.7348 -5.73246 1.27186 -5.24405
2722 1 -10.2431 18.707 -6.6279 -4.26421 1.92471 4.76554
2750 1 -14.576 23.7502 -21.9575 -2.84462 -3.61359 -1.06671
2752 1 -9.30518 17.9646 -12.6658 -1.8033 2.56196 -1.7894
4193 1 -3.75646 38.9066 -4.31375 3.36037 1.08464 -3.69344
604 1 -1.09182 26.6741 -23.7149 -3.23249 0.476061 -5.31949
2772 1 -14.1541 18.3793 -20.9531 -7.98708 0.772776 2.70882
4206 1 -1.93077 41.2381 -0.646349 -4.62057 2.11251 5.13019
2804 1 -19.0489 14.45 -11.4378 -2.45081 -5.70278 1.04147
2806 1 -4.90216 20.8927 -15.1129 -0.149589 5.64352 -2.34175
3041 1 -21.0334 23.4396 -2.5149 0.294805 -2.4545 2.39461
2836 1 -14.2274 16.9357 -4.80904 1.12193 -2.62842 4.10002
2866 1 -21.4763 23.05 -6.19909 2.64726 2.64324 0.597276
2867 1 -17.1524 17.3014 -12.9005 3.1495 4.74616 1.64727
2870 1 -13.033 15.6568 -10.5918 0.513562 -1.2027 -1.00531
2878 1 -18.7956 19.5941 -14.0564 1.0898 -1.83689 -2.05215
2881 1 -16.8761 14.5319 -20.3385 0.242907 -0.440565 -1.77249
4013 1 -11.3895 25.165 -1.36557 -3.91513 -2.53864 -0.308144
2904 1 -9.76833 12.786 -0.735327 -1.4493 2.51064 0.303438
2907 1 -17.1738 22.3656 -6.80852 1.55948 -5.37096 -4.62156
902 1 -10.2231 15.5167 -0.245597 3.16464 3.1148 0.803117
2956 1 -16.5793 20.7152 -1.86764 -0.47211 1.92147 0.432882
2959 1 -19.1264 18.5315 -20.7329 5.94339 -2.29262 4.552
4229 1 -2.97991 43.7459 -1.38366 -0.663388 -1.50263 1.53824
2976 1 -20.6654 19.9914 -16.2992 -0.708049 4.29482 2.78993
789 1 -14.2893 19.0536 -0.890398 -1.79641 -3.74894 0.632476
2986 1 -4.4754 17.6055 -22.7608 -0.394681 3.54894 -2.37251
4197 1 -3.99078 39.0771 -8.65897 3.09744 0.0260942 -2.24374
3021 1 -19.4139 25.8195 -1.78288 -0.631192 -0.352274 -1.2411
3030 1 -16.0044 19.6747 -10.2894 -1.44128 5.76027 0.0621222
3044 1 -7.44327 16.3096 -5.77706 0.566227 -3.2175 0.458861
2223 1 -19.4061 11.5942 -22.0413 -0.627237 -0.395496 -2.43652
3060 1 -23.941 24.3732 -6.0822 -0.763417 1.88016 0.0412342
3061 1 -10.5347 24.9841 -15.884 1.48655 3.47262 3.6255
3062 1 -8.52352 15.1982 -16.4399 0.321624 4.65993 5.99813
4217 1 -3.12994 43.549 -4.19012 2.98652 -5.46822 8.59432
1516 1 -10.4957 23.4699 -23.6198 -3.07327 -0.605941 4.03304
3115 1 -17.4735 18.1807 -16.558 -3.23691 2.66471 -0.447051
3228 1 -11.4358 11.6464 -10.3249 1.69374 -2.9724 0.0312092
644 1 -7.34553 12.5109 -2.52449 3.53903 -3.2258 0.0718381
3133 1 -2.18016 16.5819 -10.4551 -0.933704 -4.52845 -1.40974
3152 1 -14.379 15.5247 -20.9192 -1.58891 1.51258 5.23654
3165 1 -6.2636 22.82 -13.3712 -3.24596 0.676461 3.82451
3171 1 -6.44414 15.1512 -20.6334 -3.59722 -1.06392 -1.9369
4222 1 -2.50044 46.1855 -8.07735 -4.09334 1.79492 -3.82537
3185 1 -16.5864 19.5386 -21.662 0.993567 1.78821 -0.952389
3188 1 -21.3329 15.4007 -9.95148 5.68075 -2.05937 -3.29169
3190 1 -21.9939 21.1661 -18.4548 -4.50208 -1.54713 -3.10931
3218 1 -4.82188 21.5983 -7.42682 -5.13715 -0.315002 1.5708
3226 1 -22.8127 22.3383 -12.7631 0.358405 -1.17044 3.92706
384 1 -11.3272 11.8284 -6.7275 -2.61236 0.319661 1.62261
587 1 -20.5094 46.5401 -9.93758 2.51234 -0.637029 4.00946
3525 1 -16.8246 11.8342 -20.8798 4.49385 -2.31362 -3.84268
3256 1 -5.98991 17.0472 -8.45338 3.39361 2.38879 3.03645
3299 1 -14.6377 23.1562 -6.01623 0.876868 0.286235 3.01845
3308 1 -18.8585 20.7222 -3.47433 -1.63923 -1.80527 -0.517196
3330 1 -8.19793 21.2685 -15.7898 4.22829 -8.49139 0.776664
1692 1 -0.728173 19.659 -3.96135 -3.33779 -2.74479 3.34837
3383 1 -21.5868 24.9057 -19.6223 -2.81011 -1.66775 5.47481
3393 1 -13.1192 15.3585 -18.4466 -1.21621 -3.10041 -0.695107
2617 1 -4.63175 12.8521 -16.9558 -4.51266 0.187009 -2.60668
3435 1 -3.58879 24.2208 -13.2005 2.81755 1.19077 3.00344
3462 1 -12.4554 20.1915 -7.95732 1.18037 -1.89131 -0.991428
861 1 -22.9594 19.9334 -14.5928 -0.578979 0.263834 1.20249
3499 1 -22.6753 19.864 -22.2331 0.276346 2.28556 -3.79482
3501 1 -17.2555 19.4781 -5.89126 -0.0429002 -0.40652 -5.69786
3502 1 -7.27134 23.0059 -3.93206 2.27009 6.02277 5.86716
3506 1 -23.7212 18.6625 -3.30075 -0.571314 -4.09334 -1.68739
3514 1 -3.52725 20.6797 -10.5963 0.85794 0.786877 0.6084
1518 1 -1.26308 12.1741 -23.9289 0.0168169 1.27802 -2.32675
2458 1 -23.2838 23.8539 -0.488717 -2.50561 3.70745 -0.657668
3480 1 -23.8492 23.6859 -3.41656 1.24996 1.92709 7.45124
3543 1 -15.1299 14.2357 -7.5486 -0.00845259 -0.313649 1.37403
3544 1 -8.62735 19.2101 -2.44529 2.08673 2.92642 1.1953
3553 1 -9.70717 15.7764 -4.30183 -0.25104 2.84811 -4.88641
3560 1 -17.5435 14.1183 -17.8324 -0.151506 -2.99032 -0.817065
3600 1 -19.636 22.2368 -8.2778 -1.97808 0.590439 3.79488
3611 1 -17.8119 23.1567 -17.4966 4.14847 4.15308 3.3337
3612 1 -3.23831 15.5928 -3.85993 0.864825 2.84242 -3.09211
3620 1 -3.9953 14.7442 -8.79946 1.06337 3.13943 -2.93481
3655 1 -9.21009 23.7695 -12.8157 4.49853 -2.08073 1.51873
3675 1 -14.9921 19.3471 -7.84166 6.34681 -3.14112 -2.88816
3717 1 -3.57923 15.7826 -20.7831 -2.7454 2.6849 -0.630393
3427 1 -23.5385 12.8877 -16.3479 -0.566911 -4.37355 2.54201
815 1 -20.6354 12.4288 -17.3458 -5.14643 2.12738 -0.198739
3725 1 -15.0206 19.448 -3.89498 3.15055 -3.59544 -1.36529
4016 1 -5.40128 25.4729 -0.206226 0.987419 2.10298 -1.77439
3747 1 -19.2934 23.4552 -19.7021 -1.12585 -1.32956 -1.46579
3752 1 -20.1327 15.204 -17.3552 1.68431 1.77314 0.350372
3791 1 -10.949 16.2932 -14.5426 0.556679 5.53814 -2.50297
3805 1 -5.75096 17.0572 -16.8556 -0.284818 2.03133 -0.313583
3807 1 -8.54569 20.3569 -18.4689 -0.398522 1.72171 3.30477
3826 1 -3.35022 18.5014 -16.0057 1.22074 2.32766 2.58562
3828 1 -19.9541 17.9777 -18.112 -2.10163 -0.869916 -1.32387
4169 1 -3.5218 34.6152 -4.40884 1.92011 -2.75542 0.488634
3929 1 -1.99623 12.9264 -7.92947 0.843528 -0.321362 -7.62695
4194 1 -2.36003 41.13 -5.5334 1.74106 0.673703 3.89893
3901 1 -15.6373 13.1273 -12.5738 -0.866184 -2.49099 0.963198
3910 1 -3.78767 18.8557 -7.35602 -1.71912 1.60351 -0.108725
4174 1 -2.575 36.8825 -8.11495 -3.00396 4.17037 -0.927168
3940 1 -3.16399 23.2755 -10.6905 -2.28538 -0.838949 -1.10934
3956 1 -13.8884 12.2254 -5.51308 2.48521 -1.18761 -1.7641
3235 1 -4.60792 13.0027 -11.1475 -3.28973 1.25087 3.47115
3984 1 -7.14841 13.612 -18.2976 1.88459 1.61932 3.52254
4001 1 -11.4364 25.0656 -4.22429 1.96215 1.26623 -3.28672
4002 1 -10.2142 27.1994 -5.31227 3.26682 -4.87894 1.72816
4003 1 -7.4971 27.3427 -4.31133 0.483788 2.58894 -5.58715
4004 1 -6.45961 25.1081 -5.5619 -1.78233 0.228372 -1.6306
4005 1 -11.0665 24.387 -8.97978 5.85935 3.34362 5.7918
4006 1 -10.7547 27.2078 -7.91113 1.65525 1.35946 0.498422
4007 1 -8.43261 28.0147 -9.41488 -0.770148 -0.520642 -3.90674
4008 1 -6.62423 24.9089 -8.30402 4.39601 -0.177629 5.82527
2545 1 -11.3525 11.671 -19.8306 0.823611 3.33714 -3.21861
1828 1 -13.738 46.4715 -22.7329 1.63324 -3.16246 -0.227406
4015 1 -7.24443 27.3639 -1.49417 -4.39271 -0.514532 -5.16182
32 1 -8.39302 11.482 -21.6903 -4.24 3.09956 -2.74886
4025 1 -11.3839 29.5508 -4.07926 4.6967 0.219625 1.79858
4026 1 -10.0472 31.9812 -4.92945 2.67543 -2.71576 -0.845749
4027 1 -7.46123 31.7454 -4.1206 0.0993336 2.71974 2.8217
4028 1 -6.24722 29.5018 -5.49839 -3.39875 -4.96563 -0.638043
4029 1 -11.9499 29.7133 -7.08144 1.50576 -5.91781 -0.0764392
4030 1 -10.5645 32.1984 -7.61882 1.5365 2.16073 1.35472
4031 1 -7.99388 32.1588 -8.50277 -0.113766 -0.956571 2.97403
4032 1 -6.83676 29.9532 -8.16765 1.78383 -2.16969 0.907327
4037 1 -10.6712 29.5758 -1.48394 -4.43535 -0.911877 0.0944484
394 1 -9.29515 11.7449 -4.55029 3.29117 -1.47802 2.91364
4039 1 -6.91502 32.0003 -1.47146 -1.94775 -1.47812 3.08668
3532 1 -7.4268 11.6697 -6.99482 -0.624745 -1.94899 3.91814
4049 1 -11.2872 34.3425 -3.95144 -0.992506 2.59966 2.185
4050 1 -10.3023 36.683 -4.82585 -2.60224 -1.01111 0.85416
4051 1 -7.6371 36.4452 -4.01287 1.56237 -1.19641 -1.71469
4052 1 -6.40036 34.0897 -4.91518 2.87152 0.852338 2.35749
4053 1 -12.2081 34.5235 -8.04182 -3.59083 -3.16505 -1.08734
4054 1 -10.9005 36.868 -7.64082 -0.231838 5.09411 1.61368
4055 1 -8.16357 36.5038 -7.86185 2.69514 5.75717 0.711653
4056 1 -6.49738 34.288 -7.77059 -1.02365 -4.1371 -5.94558
4061 1 -10.3253 34.4212 -1.15154 -0.347546 -0.0919377 -2.46589
1161 1 -8.29073 47.0666 -18.129 1.73388 1.16347 -0.628374
4063 1 -6.85973 36.5502 -1.36402 -3.76315 0.306358 -0.970685
2848 1 -17.5438 46.5422 -10.4129 1.38094 -0.554199 -7.74531
4073 1 -11.4538 39.2615 -3.73341 -1.74502 1.80338 -1.93869
4074 1 -10.116 41.6203 -4.44395 5.59095 1.9156 -3.25213
4075 1 -7.41038 41.4062 -3.76021 -3.08014 -1.97224 4.2449
4076 1 -6.45875 38.9828 -5.02969 1.41019 1.80421 -0.530398
4077 1 -11.9642 39.4526 -6.76614 3.84514 1.66574 0.34981
4078 1 -10.66 41.8325 -7.09621 4.3587 2.0985 -7.24769
4079 1 -7.83586 41.5926 -7.97895 -0.323074 -5.2071 0.0764143
4080 1 -6.79313 39.0245 -7.87577 3.00946 -0.623163 7.62904
4085 1 -10.8438 39.0163 -0.75079 0.784576 0.155201 -1.55829
83 1 -22.0281 11.3245 -0.997865 -0.134477 3.97347 -2.95423
4087 1 -7.11298 41.3686 -1.06128 3.99642 -0.00197741 6.2235
2807 1 -21.9168 17.7736 -1.23551 -6.80867 1.1364 -1.78635
4097 1 -10.2104 44.2716 -3.62421 2.94608 2.92102 -2.53592
4098 1 -10.7999 45.9665 -5.81628 5.00757 1.96877 0.904624
4099 1 -7.49283 45.3647 -3.83946 6.18264 -0.103307 -0.562615
4100 1 -5.79275 43.4732 -4.92977 -2.01272 0.171955 0.45257
4101 1 -10.8366 44.5018 -8.21271 2.04344 -2.46707 2.12171
4102 1 -8.12142 44.8771 -9.53724 1.12139 1.24314 3.17671
1919 1 -22.6318 13.3345 -13.5844 -2.21454 -0.888332 0.131702
4104 1 -6.24628 43.8127 -7.5567 -3.98798 5.48752 1.11213
4109 1 -10.2832 43.8706 -1.01142 1.28806 -1.29101 -1.18612
2580 1 -24.15 13.1078 -21.4222 -3.82774 -1.62172 2.92572
4111 1 -7.10153 45.7314 -0.868395 -2.49216 3.06955 -7.27479
2945 1 -7.56334 12.4585 -11.0388 0.31543 -1.20952 -4.96613
4121 1 -3.8789 25.4709 -4.43054 -0.201196 1.92617 -0.191141
4122 1 -2.48228 27.9058 -5.85865 6.00203 5.52602 3.25955
4125 1 -3.9872 25.1428 -8.78262 -3.14265 1.11403 -1.06846
4126 1 -2.77661 27.773 -8.5229 0.441285 0.885726 3.70643
4133 1 -3.13052 25.3293 -1.74064 3.04583 -5.24243 -0.526909
4134 1 -1.66729 27.6374 -1.08831 -3.37642 -0.323381 -1.10249
4145 1 -3.77498 30.027 -4.59511 -1.88149 -2.69228 1.38375
4146 1 -2.33155 32.2807 -5.38638 0.947668 1.61758 2.6448
4149 1 -4.19497 30.2148 -8.62906 0.218387 -1.8697 2.71982
4150 1 -2.61607 32.3923 -8.306 -0.665131 -1.4337 -5.05145
4157 1 -3.24452 29.6656 -1.89373 0.198674 -1.05737 1.43729
4158 1 -2.13108 31.8938 -0.780769 1.42039 -1.03157 -3.04869
1128 1 -1.95204 11.8821 -0.625158 2.3644 -1.14893 0.573382
4040 1 -5.70405 29.5067 -0.692775 1.05833 3.23828 0.68607
673 1 -0.998099 16.7735 -22.15 -3.12388 -2.40222 3.10017
2056 1 -6.03936 24.805 -23.8505 0.233737 -8.19543 -0.0510788
3857 1 -12.3787 45.1011 -10.6842 -3.76731 2.21083 -0.322669
286 1 -5.4045 16.186 -1.28149 0.906552 -3.23379 -1.26501
3721 1 -1.0393 17.964 -6.48599 -0.806521 0.442484 -0.638266
2061 1 -16.5743 46.8555 -22.7578 1.09211 0.00906694 0.2891
4064 1 -5.67211 34.2042 -0.396297 5.18442 -0.212868 3.60136
3780 1 -23.7805 19.1909 -18.0282 3.1164 2.87039 2.14624
104 1 -14.8356 46.0006 -9.62677 1.24809 -2.03994 -1.92239
3653 1 -1.4262 17.1271 -0.415255 -4.23872 -4.25537 2.50884
1291 1 -19.3792 15.987 -0.990587 -2.3725 0.363945 1.36005
3174 1 -23.7317 14.1357 -11.0443 -0.0366632 6.50949 1.25516
2551 1 -7.17595 11.9161 -13.7648 3.98996 -1.06234 3.38989
4088 1 -5.66616 39.0461 -0.356246 0.524738 -0.104907 1.10891
4014 1 -9.96609 27.2798 -0.351883 -1.39364 -0.481895 -0.463595
3064 1 -3.57387 11.1454 -19.1603 -0.964131 -2.74685 2.92588
2634 1 -4.34566 11.4943 -23.2415 1.66807 0.0315116 3.49745
1927 1 -7.18109 46.4721 -20.6999 -1.20786 -1.55775 -4.07717
2596 1 -14.2958 11.2825 -19.9932 4.08776 -1.1794 2.28574
2074 1 -0.549889 12.1077 -12.7824 1.81062 -1.44014 -1.45605
2313 1 -8.61706 11.1997 -18.814 4.6559 -1.24344 1.77417
3671 1 -2.69725 11.6235 -14.7304 2.15961 2.02448 3.93215
63 1 -1.13522 11.3967 -17.2902 -2.73424 3.61122 -0.236453
3756 1 -12.1466 46.8956 -20.2938 -7.76542 1.17041 0.74527
2646 1 -4.46476 11.4002 -2.63924 3.35017 -4.23466 -0.28421
4062 1 -9.28005 36.8003 -0.441024 2.12953 2.12616 -0.995974
2 1 -9.33506 14.8884 2.46444 -3.00591 -1.84683 -1.07056
19 1 -15.7912 21.8058 19.0874 -4.44446 -2.67148 1.44554
26 1 -1.26343 16.1875 10.2842 -0.0860008 -1.83495 2.62354
53 1 -4.53277 23.561 13.0834 -1.16945 -7.74437 -1.44709
69 1 -10.3543 14.7382 9.33339 -3.90071 0.33504 5.74163
98 1 -3.51623 14.5249 12.4273 1.7119 -1.86889 2.1323
148 1 -18.6276 13.8788 12.8856 0.327174 0.0889447 5.69587
2129 1 -12.9209 44.345 13.5636 -4.82745 0.443097 -0.846103
196 1 -16.9891 24.1392 4.06714 0.354154 3.8492 1.62713
4115 1 -5.40084 45.7655 11.1456 5.40012 -2.22714 2.27466
219 1 -6.87227 24.1065 21.691 -0.102724 -0.772715 -0.287537
230 1 -7.14857 13.7898 20.1225 1.13574 4.67249 -1.59352
233 1 -12.5719 16.8193 12.1103 -5.34453 -5.08661 0.061482
234 1 -8.35011 18.6433 8.00801 5.96202 -2.98461 -1.47278
237 1 -17.9752 23.5066 1.36396 4.32627 0.449655 -0.837296
239 1 -21.4936 19.1211 17.3465 4.27126 -4.90326 0.823871
285 1 -15.7368 19.3673 14.0447 -1.48674 0.15828 -4.16361
371 1 -11.9797 46.0275 15.7759 0.491287 -0.790513 2.04005
2528 1 -9.51351 11.6317 6.26718 2.78915 -5.45655 -1.22392
372 1 -9.65971 21.0012 7.10995 -3.72162 0.382624 1.28517
2307 1 -13.8781 12.7515 23.1961 -1.99361 1.92659 -5.74764
4166 1 -1.45107 31.5652 6.46319 1.20052 -3.12194 -3.60489
425 1 -20.3876 13.8377 17.0781 0.646252 8.55953 1.95152
453 1 -19.3192 13.6875 8.77638 -3.11537 1.59726 0.289182
3840 1 -12.1245 44.4926 10.8785 -2.53125 -3.01943 3.58913
514 1 -14.5038 19.3011 19.1619 2.02257 -4.17095 -2.02356
3000 1 -3.41987 12.6033 14.6708 5.67745 0.029649 4.77006
577 1 -10.8745 22.9494 0.382813 -0.475669 -4.31709 0.00838286
583 1 -21.2946 23.7308 13.3687 6.84797 1.04645 4.48022
3890 1 -0.568511 20.47 14.8525 0.224063 4.33605 4.24108
588 1 -18.5648 22.3707 5.54719 -3.20992 -0.517125 -3.33172
590 1 -6.66278 19.0281 20.7842 0.433159 -2.42461 -3.4835
600 1 -22.0049 24.3831 16.0234 -4.00356 -1.59777 3.86255
630 1 -22.7438 24.3736 10.8367 1.87667 -4.90244 -6.11534
641 1 -15.7378 18.2359 5.45231 5.2227 -3.1828 -2.23837
668 1 -10.152 12.5531 18.3006 -2.42271 -4.79787 3.3743
693 1 -9.73524 22.7474 3.11476 -7.35553 -2.18407 -2.44388
729 1 -13.1884 15.5137 14.6637 0.436185 4.88749 7.01954
734 1 -20.3374 23.4711 19.8997 -3.39723 -3.37886 0.842288
4114 1 -8.10085 45.5646 10.8097 2.31535 -1.58931 2.56222
754 1 -14.6348 24.3924 16.0484 2.19432 0.88387 1.76107
785 1 -2.93156 21.7661 20.3883 -0.293984 -3.74243 -0.287404
786 1 -23.0736 19.4488 22.815 2.53996 1.6136 -1.53688
791 1 -4.03483 24.7196 15.5751 3.81336 1.60552 -2.08799
743 1 -23.867 19.4794 2.60413 0.0619936 -0.704444 -1.50243
886 1 -5.54928 22.3541 1.69251 -1.13502 -2.30902 -0.654241
1968 1 -21.8705 11.9922 13.6438 -1.255 4.93495 -1.20068
913 1 -6.32334 24.6373 17.2567 -0.92711 -1.38568 -3.38625
914 1 -21.8814 15.6963 10.6858 0.0538563 0.708848 -0.225572
919 1 -7.42246 16.3981 11.5976 -0.434175 0.10899 -0.526459
924 1 -8.01791 15.8599 7.86079 -1.24383 -4.45335 0.282143
932 1 -20.0318 15.7677 14.8974 2.98105 0.0130932 -0.206215
941 1 -20.4807 23.5182 9.22545 -0.766548 -1.01719 1.69461
947 1 -9.50784 16.9017 17.7681 -4.35025 1.94203 0.445506
949 1 -2.72514 14.8454 21.6541 -5.99072 3.58326 7.1564
961 1 -8.59385 12.1574 1.75303 -0.190989 -1.19869 -0.295435
965 1 -16.6231 13.0223 7.47972 1.10046 -5.70195 3.7426
985 1 -17.4428 20.4123 11.5299 0.945307 6.69723 -3.2498
350 1 -24.1431 16.5784 22.7223 1.25267 -3.04535 2.20654
1055 1 -8.99384 15.6916 15.0471 3.44615 -2.42476 -1.84172
1056 1 -8.32542 18.4148 4.90438 -1.0374 -3.89968 -5.27575
4214 1 -0.864503 40.9258 6.98091 -1.46056 -1.43105 2.05036
3581 1 -15.1734 11.6344 5.45065 -1.58945 -2.03026 -3.35064
1088 1 -20.9989 24.0433 6.36416 1.13068 -0.910964 2.70086
1110 1 -11.2758 23.1789 8.22668 0.0185985 0.414358 9.97409
1113 1 -20.2641 18.7295 22.4923 -1.18626 -3.60352 -2.45622
1117 1 -8.12606 13.6087 11.0488 0.874105 4.48301 -2.39518
1150 1 -14.7867 16.4026 8.1988 3.23536 4.44573 1.3495
1152 1 -13.759 14.2698 19.8309 -1.70644 -2.18474 -0.238888
1166 1 -17.3508 23.2517 16.491 -1.66083 0.236138 4.53972
3928 1 -17.7236 14.6558 23.6143 0.401181 0.0987188 0.28225
1175 1 -9.51633 12.5566 21.061 -0.89162 1.35735 3.595
1197 1 -19.9192 16.3495 20.7388 1.47791 -4.10071 0.768972
1204 1 -3.50732 21.2293 3.57848 -1.97916 -1.14486 -6.91983
1220 1 -22.797 21.5245 16.1909 -2.11087 -2.21918 3.58934
2426 1 -2.34539 18.2221 18.1554 -5.50619 0.0678468 2.28491
1237 1 -19.4943 18.7435 15.2288 -0.309955 -3.16633 -5.65677
1642 1 -1.59056 22.6535 7.62001 3.65396 -2.47305 2.45856
1285 1 -12.5052 22.1508 16.2106 2.86984 -4.36211 0.0837987
2441 1 -22.9651 13.492 18.1945 -1.64099 0.454921 -1.0505
1325 1 -6.15169 13.5911 8.79002 0.845882 -1.76867 -1.71823
1340 1 -19.7523 18.8676 10.8746 0.855419 -3.45842 3.7327
1355 1 -9.05406 21.3643 18.6587 -3.32395 -1.77928 -1.62316
1358 1 -9.36589 22.813 22.2838 -6.24187 2.61202 -0.13446
1372 1 -11.979 14.2133 3.51542 -2.97012 1.47657 2.0566
1374 1 -19.7552 24.5211 17.4341 3.49334 2.68943 1.422
203 1 -24.2981 20.8317 7.23154 1.56652 -0.365576 -1.24047
1385 1 -16.878 25.2675 14.0484 4.21174 -1.92648 0.105952
1391 1 -12.322 19.7753 20.8521 0.853991 -5.69674 3.7938
1456 1 -17.0994 16.0489 11.6703 -1.44665 1.58741 2.89394
1458 1 -21.1919 12.6551 6.75573 2.75352 -5.26665 0.0411957
1461 1 -13.6379 15.4886 22.308 -0.0929706 2.60736 -0.965066
1492 1 -11.6496 12.9342 11.2958 -2.73568 4.36414 2.34249
1500 1 -17.4338 16.9047 14.2241 -1.50451 -3.81963 -1.93685
1091 1 -12.884 14.0992 7.97169 -0.680489 -2.30812 1.90941
1575 1 -19.09 15.7742 4.96746 0.574267 3.11498 4.6261
1606 1 -21.9098 19.1036 6.71284 6.31418 1.51156 -0.402298
1622 1 -17.8694 20.9045 15.059 2.08495 2.13915 3.30765
4186 1 -0.725036 36.2396 9.36844 -0.85745 -1.76307 2.1031
1655 1 -1.93845 16.5851 13.8583 1.8319 3.05522 -1.50029
1656 1 -4.51693 13.1583 17.6423 1.26882 1.66506 2.20624
1658 1 -17.2236 21.7565 8.00132 -0.416282 -2.98966 -2.34527
1668 1 -12.4822 17.9206 7.58543 -1.06274 -5.18503 -6.51984
1679 1 -11.2292 22.3437 20.3064 -0.349576 0.290943 1.43047
1005 1 -16.0675 16.8174 0.556297 1.82416 2.9358 3.81636
1705 1 -1.65235 26.1473 20.0611 -2.52999 -4.65275 3.58678
1708 1 -8.82317 24.9376 16.1308 -0.735325 1.58245 -5.32699
1377 1 -13.2062 20.4578 23.4131 -2.67831 -2.15389 -2.77067
1167 1 -1.35047 15.9798 16.5866 1.9747 -2.11056 1.36837
1784 1 -9.64853 13.003 13.6291 4.89762 -3.72574 -0.759843
3160 1 -11.3602 46.1334 23.881 3.61559 -1.67973 -2.12993
1869 1 -1.52356 25.2184 17.1536 1.3083 3.72309 1.99005
1873 1 -10.6026 17.5277 9.67739 -0.682408 -1.60292 -1.79482
1885 1 -9.29975 16.1608 23.0762 0.408953 0.784874 -2.57807
1898 1 -21.3459 19.1392 13.1926 -2.28056 0.8937 1.14228
1916 1 -7.93314 14.6677 5.13528 -0.79632 0.437964 -3.70084
4142 1 -1.71749 26.9378 5.93328 2.59107 0.559202 0.304741
765 1 -23.7173 11.6215 7.47435 -0.00327775 4.17719 3.63998
1963 1 -3.08427 17.882 1.96223 -2.92302 2.75215 1.11109
3015 1 -4.02951 11.564 9.27274 -6.51094 -1.74214 -2.71556
2492 1 -22.6968 15.2625 2.76161 -0.796469 -2.58339 1.00975
2008 1 -9.87425 23.6798 13.6321 -1.7567 -1.67947 -0.396524
2013 1 -14.2267 24.235 4.45123 -3.39793 0.581366 4.91825
23 1 -11.112 47.1383 21.2755 4.13365 3.57403 1.41647
2046 1 -7.86123 14.4146 17.2692 2.35156 4.43713 5.0479
3180 1 -0.841364 14.2932 3.17018 -0.993393 2.93091 2.54277
2082 1 -7.63887 17.1548 2.51462 2.74688 5.09258 3.23974
2119 1 -11.1019 18.1411 0.746417 0.0134244 6.39933 2.75443
2157 1 -4.33432 16.3919 19.4635 3.63007 -3.03361 -2.85373
2158 1 -16.5873 12.706 14.4571 1.15204 -0.670432 2.35029
2168 1 -19.5498 18.1325 3.5486 -1.44019 -0.00376478 0.290284
4233 1 -1.57297 43.5616 10.2348 0.7382 -1.09637 0.254464
1771 1 -2.53272 24.9833 11.2024 -1.88218 -1.1749 -1.34955
2231 1 -13.5626 24.7785 11.0987 -3.78424 3.53627 -5.94994
2264 1 -5.62696 15.9273 4.06667 2.39692 -2.3457 -1.12566
2270 1 -6.26964 20.4638 4.78839 -4.646 -3.92611 -1.21837
4209 1 -2.05965 38.7674 10.3561 1.03883 -2.16022 0.986408
2282 1 -7.26306 22.1293 7.8541 3.9438 2.99321 -4.32033
2285 1 -21.9564 17.6075 1.613 -4.63437 -2.57032 0.861192
2305 1 -13.3936 19.3663 12.6012 -4.413 5.5168 -4.26466
4119 1 -5.956 44.9439 6.38876 -4.04111 -6.52158 -4.38711
2315 1 -12.3074 12.8395 14.871 -2.51061 6.3134 0.198259
3131 1 -12.404 13.5992 0.663083 -0.307251 -4.30754 -3.99553
2322 1 -5.03629 20.3563 18.7278 1.60137 2.24404 -1.15044
2334 1 -9.86484 17.2041 12.7378 1.56899 1.20132 7.88939
2335 1 -3.47086 18.8826 20.8637 3.95725 1.88815 -2.51344
2349 1 -10.5546 23.4693 17.6113 -0.462638 4.87379 1.18806
2379 1 -20.8289 13.1297 11.2441 -3.22965 -2.43019 3.36752
2413 1 -7.128 23.1147 3.94796 -0.473243 1.002 -2.22646
2199 1 -18.1744 11.3446 2.29987 0.202129 -0.627615 -6.67238
4202 1 -1.25843 40.9704 2.40795 1.96739 0.842351 -1.4969
2435 1 -16.1536 25.6544 11.3898 -1.73124 -1.33146 -4.52549
2439 1 -14.1595 20.2557 10.0088 3.66471 3.49398 2.19663
1723 1 -23.8818 17.6141 4.73513 3.44734 -3.6876 -1.47808
2462 1 -13.2165 23.6903 1.60316 -2.80244 0.583155 2.52676
2488 1 -9.48127 18.889 20.2057 -0.632794 -1.44965 -2.24677
2490 1 -12.8233 25.0181 18.3738 -1.43373 0.186098 1.51678
2505 1 -11.4761 16.9963 21.5596 -0.488552 2.00038 -1.7305
2519 1 -23.0236 21.3426 13.3347 3.11306 -0.693639 2.33355
1917 1 -24.2356 23.5471 17.7122 0.32317 -3.47791 -2.7726
2581 1 -6.72133 16.2284 21.4257 -2.69214 1.34355 -0.776098
2586 1 -14.2822 14.9293 10.8048 1.79644 0.723287 -4.56448
2620 1 -10.6098 16.9628 5.70811 -1.78066 1.9562 1.4327
2660 1 -12.6952 24.0381 13.9396 -0.0874345 -2.59513 -0.828417
2664 1 -16.2714 16.7335 22.2925 0.250167 1.93341 0.764518
4189 1 -2.35071 34.0942 5.51053 4.12897 4.19727 -0.745157
2710 1 -5.36942 15.9937 17.0998 -2.85933 -5.03508 2.10061
2723 1 -6.18059 15.8399 14.1813 -4.74734 4.15853 4.65351
2742 1 -16.2972 15.4198 5.93473 -0.711034 4.01543 -0.812797
2745 1 -13.97 20.9351 1.4682 0.925105 4.13824 -5.58376
2769 1 -15.7703 15.1255 15.6445 -6.62314 -0.802203 -2.03471
2777 1 -14.8004 16.9864 3.10226 -3.02896 -6.16391 -6.89465
2778 1 -22.9044 16.4036 20.0317 -5.38669 0.369673 1.37358
2788 1 -22.456 16.4914 13.5269 1.30307 -1.24117 -0.410497
2809 1 -11.837 17.5126 16.1654 -2.91652 6.47238 4.76379
4162 1 -0.940889 31.638 9.50321 2.56313 -0.361854 -1.52214
2820 1 -15.0198 22.7212 9.33426 -0.346433 -0.478668 0.507653
2851 1 -6.3508 22.6695 19.3487 -0.180546 0.551197 2.31823
2853 1 -3.77542 24.3611 21.3686 -4.04576 -4.70866 -2.87787
1940 1 -18.5335 46.7617 3.14435 -0.233727 0.126059 1.92631
1685 1 -19.2475 11.2564 23.0351 3.88411 2.42339 0.921286
4178 1 -1.54441 36.285 1.73121 4.0466 3.18181 5.96992
2895 1 -19.5526 19.0867 19.5323 4.54316 -0.698465 -0.679225
2905 1 -18.2766 21.4138 20.228 -1.04197 -1.99275 3.97513
2921 1 -17.7204 23.1392 10.3453 -2.69421 1.59201 -2.32107
2939 1 -12.9199 19.6607 3.72664 -1.07481 -0.732057 7.80034
2942 1 -23.1287 13.4557 21.2098 -3.29285 -1.10443 5.33067
2950 1 -19.4494 17.5477 7.15466 -0.290613 1.53454 7.08802
2971 1 -2.64039 18.6199 11.9569 -0.299797 -3.12991 -0.493574
2973 1 -11.1112 15.1177 19.3787 -0.161473 2.22479 -0.415736
1068 1 -5.64878 18.1958 0.637949 -2.02932 -0.119386 -2.35289
3530 1 -10.641 14.2688 6.21701 6.62063 -0.107577 -1.39981
3002 1 -22.1855 16.3112 17.013 -2.03317 -2.17033 -0.17813
4225 1 -2.68239 43.1268 3.1165 1.88599 -2.33686 1.85069
3619 1 -3.73402 20.9714 8.99877 -4.27208 -3.04906 3.32191
4185 1 -2.24256 33.9544 9.97897 0.903789 -4.12402 -4.14777
3042 1 -10.1488 19.14 14.7241 2.37571 5.2373 0.810138
3527 1 -0.912307 13.6066 5.84332 -2.01719 0.134634 1.00862
3076 1 -11.5892 20.4466 9.2276 -5.21552 -0.723861 -2.51542
3122 1 -13.8609 23.2735 20.5678 4.73328 -1.75502 0.682014
395 1 -10.5346 45.9604 18.483 1.85896 -1.04997 3.79336
3144 1 -3.37035 15.0019 2.36762 0.508325 -5.40016 -2.66336
2575 1 -0.352292 17.1156 3.3393 1.96969 1.95828 4.50342
4201 1 -2.56751 38.7253 3.24268 -0.551401 -1.21946 -1.74058
3186 1 -5.6637 19.6116 7.3561 -0.520002 3.88652 0.00572663
3193 1 -20.1534 25.6677 0.867121 2.25509 5.08811 -1.12312
3211 1 -5.89104 21.0196 14.3675 -7.64176 -1.76338 -0.492771
3214 1 -4.31094 17.7782 15.0692 9.80584 -2.0375 2.65761
3232 1 -22.058 15.2466 5.86113 -1.49025 -1.55163 1.86031
3233 1 -3.081 16.257 7.98153 0.407748 1.0596 0.57777
3245 1 -8.14145 19.2764 10.923 3.83284 -3.18517 -2.68199
3286 1 -17.5685 19.8349 4.19947 5.0188 -4.60239 1.31545
3290 1 -13.7604 19.5925 16.5686 1.57914 -1.35498 -1.02849
3292 1 -22.3282 21.97 2.87743 -1.49888 -4.302 4.01889
410 1 -15.8907 12.7564 1.29698 10.7684 -0.223263 2.22778
3297 1 -18.1968 20.5727 22.8629 2.61847 -0.456853 -1.46975
3323 1 -3.33928 20.3566 16.1713 2.44177 0.906132 0.468178
3325 1 -11.9165 17.0762 3.25165 4.37746 -4.30871 -0.587179
3735 1 -8.25762 19.1056 0.470768 -1.59725 -0.61862 0.941978
3356 1 -10.4725 20.4424 4.52589 1.4778 1.89187 -1.58851
3358 1 -2.59019 21.4177 13.0008 -0.234932 -3.10047 0.546579
3359 1 -7.28934 22.8963 12.3904 2.08074 2.19075 -3.66313
3361 1 -5.41005 23.1002 10.2074 2.17685 1.53367 -6.57041
4110 1 -9.73807 46.2714 0.372389 -0.987616 1.50972 0.866763
3428 1 -5.96884 13.0622 13.0833 -1.63804 5.82074 1.79432
3444 1 -20.0042 13.7335 2.87649 1.46627 4.62383 -1.34453
4238 1 -0.879705 45.4985 6.87204 2.65009 -2.07525 -0.257326
3455 1 -18.5194 14.2572 19.2697 3.40323 -3.63188 3.26191
3459 1 -1.54443 22.3801 17.8795 1.38437 -2.56917 -5.93603
4213 1 -2.05479 38.5409 5.9508 1.99444 3.04729 2.82545
456 1 -5.07157 15.5516 23.4272 1.93708 1.07708 4.31251
3517 1 -6.97943 18.2188 17.9192 1.46836 5.18057 1.73143
4237 1 -2.3048 43.3538 5.85343 3.7084 -0.76502 -0.363994
1932 1 -4.3537 17.4938 5.93465 -2.08389 -0.303539 4.26525
2864 1 -13.0097 12.5669 17.7241 -0.467007 -3.50421 2.34552
3550 1 -16.0253 18.1982 10.253 -2.2589 0.512736 -2.96113
3561 1 -20.4902 20.4801 4.61047 -1.25611 0.606844 2.01134
3583 1 -17.1236 19.0817 7.8182 -0.345935 -1.74082 1.71959
3597 1 -3.66012 13.5807 7.19229 -2.53012 0.568925 3.68273
1094 1 -20.4449 13.9927 22.6083 1.93875 -1.07843 -0.798537
3627 1 -4.58738 18.3273 9.83774 -1.08844 -4.55939 1.11956
2475 1 -18.1055 11.6727 10.7053 -1.36186 -0.905027 -0.645536
3654 1 -18.6983 23.2572 13.1291 -2.223 -1.91578 -0.0566434
3677 1 -7.39128 12.4221 15.2891 -1.67891 -0.526096 -1.93606
3709 1 -19.0174 16.26 9.61859 -0.830243 4.55611 5.87424
3637 1 -1.14225 12.7322 21.1081 -3.4457 -1.15306 0.831413
2811 1 -14.8472 14.0534 3.7152 -1.33936 0.0347498 -1.60572
3744 1 -18.4128 18.2787 0.97391 2.8311 1.12306 -2.91428
3766 1 -11.3833 21.1184 13.5299 -0.190578 -1.72802 -2.91952
3771 1 -16.9162 17.6833 19.7244 -0.897251 1.58334 2.44371
1063 1 -0.789358 20.6693 9.64916 -6.37396 -0.105944 3.33676
3793 1 -16.7864 20.6647 1.35609 -2.7769 5.29933 2.32747
3672 1 -14.2405 12.6223 12.8721 0.642933 4.91426 -4.24735
3846 1 -22.7932 22.25 19.6553 2.38701 -1.0647 -2.89348
3852 1 -8.01486 20.2214 16.2242 -0.23997 0.823956 -2.69934
3889 1 -15.9967 15.2915 18.4288 -6.32879 -1.40381 0.0660785
3892 1 -13.7055 22.947 6.90157 -1.58859 -1.12885 5.18467
413 1 -23.4728 24.0889 4.48746 -0.468409 2.7005 -3.92123
3946 1 -5.08259 15.7072 10.2098 0.449178 2.17048 5.62649
3955 1 -9.76919 21.7821 11.2685 -0.765006 -4.96401 -0.570607
3966 1 -21.0576 20.693 9.37135 -3.29379 0.176273 -3.02443
3970 1 -7.47487 20.7131 22.9696 -3.00615 5.85417 -2.80607
3976 1 -4.60797 13.0404 4.58081 -1.03212 1.11096 -0.747255
3985 1 -13.8703 20.1417 6.29794 -0.521219 -0.358805 -4.01006
3988 1 -23.0384 19.3275 19.8759 -2.87003 -1.49664 -4.73203
3999 1 -5.61401 18.8786 12.4931 -0.681885 1.2387 0.0227229
4009 1 -11.4923 25.0878 3.65514 -5.28287 3.07663 -2.75716
4010 1 -10.1319 27.1397 2.45982 1.28395 -0.000132448 -0.997582
4011 1 -7.36934 27.5872 3.03672 -1.67373 -0.872973 -3.84306
4012 1 -5.55476 25.386 2.41802 2.24425 4.16331 2.38796
4017 1 -10.7327 24.5678 10.8521 1.76252 3.8807 2.5732
4018 1 -9.28059 26.8754 9.98217 0.652489 4.86769 -3.08684
4019 1 -6.54983 27.2575 9.8862 0.534484 -0.155973 -0.900526
4020 1 -4.95077 25.3444 8.67499 3.70631 -0.0790061 -2.37662
4021 1 -10.1833 24.8061 6.25436 -0.669075 -2.44079 -3.55055
4022 1 -9.20431 27.1445 7.12932 0.642933 3.48414 3.70973
4023 1 -6.67105 27.1686 5.78696 -0.125821 3.03469 -0.796991
4024 1 -6.15294 24.2458 6.31014 -0.394229 1.76226 -2.84813
4033 1 -10.7354 29.6784 3.48741 -0.488573 -2.33928 -2.54409
4034 1 -9.68642 31.9431 2.50537 -1.55471 -0.456032 0.213186
4035 1 -7.10929 31.9287 3.28158 -7.71415 -1.70618 0.224566
4036 1 -5.8901 29.8442 1.97715 3.48076 2.73579 1.17207
4041 1 -10.0378 29.4076 10.891 0.861299 1.27576 3.06242
4042 1 -9.15393 31.8679 10.0023 0.192343 -5.72553 -8.44205
4043 1 -6.39449 31.978 10.3663 0.275013 -0.207714 -2.69043
4044 1 -5.28102 29.6422 9.47496 0.286407 -0.276108 -2.62509
4045 1 -10.3278 29.5805 6.14592 -3.4878 1.48357 1.40996
4046 1 -9.27348 31.9978 7.14953 0.667852 3.24279 0.370808
4047 1 -6.44377 31.8872 6.16995 3.00903 1.39288 3.1859
4048 1 -5.2379 29.3898 6.69954 1.72341 0.838278 -5.52585
4057 1 -10.4589 34.4794 3.40425 0.514537 -1.07997 -1.25427
4058 1 -9.1373 36.7105 2.33502 -0.305085 -6.87203 -0.762145
4059 1 -6.44246 36.3766 3.16916 -1.86986 -0.840498 0.617066
4060 1 -5.30596 33.928 2.42955 -1.06255 -0.210296 -0.0834749
4065 1 -10.6811 34.2333 10.2169 0.312881 4.91255 -0.954552
4066 1 -8.94066 36.392 9.8941 -3.09457 5.05363 -0.708218
4067 1 -6.19272 36.4712 10.7695 1.28746 0.761017 -1.89428
4068 1 -5.11397 34.2336 9.64386 -0.416316 -1.08983 -0.569838
4069 1 -10.465 34.3913 6.2233 0.540342 -1.58304 -2.76565
4070 1 -8.61945 36.3601 7.17618 -1.94014 5.05378 1.19852
4071 1 -6.21035 36.361 5.89172 -3.42715 4.10181 1.22919
4072 1 -4.81598 34.2195 6.71886 3.67383 1.33327 3.57347
4081 1 -10.5921 38.6696 3.54916 1.85222 -0.7541 -5.7438
4082 1 -9.44165 41.0827 2.65735 0.718882 -0.66159 2.00353
4083 1 -6.68015 40.8252 3.45076 2.24328 -3.87109 2.53907
4084 1 -5.1796 38.6591 2.24635 0.119231 -1.87986 -1.6357
4089 1 -10.6979 38.4525 9.30439 3.89442 -1.84088 3.22905
4090 1 -9.07678 40.6227 10.3325 -2.32017 1.86978 -3.12303
4091 1 -6.16794 41.1302 10.6522 -3.52497 -1.16248 1.06624
4092 1 -4.90536 38.5735 9.65843 -0.793144 0.465993 -4.93383
4093 1 -10.2665 38.556 6.34506 -0.792565 -0.811008 -0.311865
4094 1 -8.60239 40.6175 7.44898 1.68509 -0.567554 0.0753217
4095 1 -6.21961 40.4086 6.05764 1.8792 -1.97479 1.18449
4096 1 -4.74959 38.3945 6.82923 1.0454 0.807273 2.26056
4105 1 -9.72776 43.1576 4.60311 -2.0049 1.16954 1.7827
4106 1 -9.29369 45.6164 3.16957 -1.50266 1.7389 6.33652
4107 1 -6.59137 45.4538 3.64473 -5.29978 0.878045 6.20427
4108 1 -5.35392 43.158 2.61719 -1.71364 -1.4151 -1.22579
4113 1 -9.73282 43.4473 10.2055 0.530208 -1.47779 -0.512636
337 1 -20.6974 22.348 0.242366 1.61392 -0.267165 -2.93249
2362 1 -19.3594 11.7775 15.0926 2.2547 -7.00698 -0.278488
4116 1 -4.34715 43.1756 9.94923 0.364976 -1.88073 -4.46878
4117 1 -9.06316 43.3204 7.35421 -2.62506 6.48331 -3.70683
4118 1 -8.13223 46.24 7.7774 -6.16287 4.91145 -1.64179
2952 1 -13.2382 23.3085 23.5601 -0.625371 2.32741 -1.06007
4120 1 -4.65474 42.5452 7.17796 -3.42979 -0.664196 6.53669
4129 1 -3.1162 25.7558 3.59518 -3.24256 -2.67404 1.35196
4130 1 -1.65644 27.1089 1.66814 4.16906 -0.408472 -0.855153
4137 1 -2.1594 25.2858 8.36759 -1.38382 3.32725 2.22147
4226 1 -1.66219 45.5013 1.8829 1.20458 -0.654851 -3.06976
4141 1 -3.63525 23.4288 5.2674 -0.443372 2.27789 1.09173
997 1 -23.3842 22.2813 22.3098 -1.01354 1.27053 3.65136
4153 1 -2.91549 29.5597 2.63003 -1.18236 -1.72337 -3.83627
4154 1 -1.24007 31.5015 1.90549 6.21144 2.29375 -2.0833
4161 1 -2.64749 29.6607 10.4792 2.41129 -0.957632 -0.985477
3056 1 -23.3701 12.2372 10.3403 0.177205 4.97686 -0.155455
4165 1 -2.71258 29.3685 5.52043 4.99513 5.18954 -3.21669
2701 1 -22.666 25.3707 2.01275 -0.363428 -3.62009 1.15995
4177 1 -2.64808 34.0699 2.77692 -2.35754 0.97375 -3.13319
1484 1 -6.7918 11.9972 6.23952 2.85638 0.0406838 2.06661
3028 1 -14.9883 11.4714 20.8324 -0.148913 -1.37715 -2.64554
998 1 -1.98758 12.5304 11.093 -2.6399 1.45165 -1.24496
3831 1 -3.04215 20.6777 0.58191 3.50858 -0.111218 7.75157
2276 1 -0.976669 11.4595 2.339 -0.104626 2.93156 -0.300378
867 1 -2.06227 14.3822 18.606 -1.41182 2.46244 -4.06206
2011 1 -1.82542 11.8434 17.1232 0.491513 -1.70309 3.97576
349 1 -3.52392 11.2856 22.1145 -1.4953 2.27322 -1.97688
869 1 -2.12616 18.954 4.66893 5.45372 4.40439 -0.954807
3337 1 -15.3143 12.3023 10.0191 -2.35523 0.772224 -0.389993
2424 1 -22.8873 16.9133 8.17222 -1.89134 -2.48455 0.641522
4190 1 -0.712722 36.3606 6.68513 3.20458 1.0483 2.21502
3774 1 -10.7673 11.584 3.74838 -2.94798 3.09382 -2.76434
1906 1 -20.3052 46.1129 12.9315 -1.65984 0.198601 -5.83164
3307 1 -17.7624 11.7844 20.4471 1.78658 -3.25752 -2.8974
1979 1 -0.712676 22.8654 11.5166 2.33726 3.12059 -4.40203
3757 1 -0.462903 21.9343 0.359755 0.167451 1.02519 -4.10004
2897 1 -3.90165 13.8865 -0.0230206 -0.932941 -1.80236 -2.96034
1270 1 -24.06 14.4651 12.3413 0.565464 3.06346 -1.67346
911 1 -0.849251 16.386 23.0168 -1.25495 -5.96175 -2.6565
4138 1 -1.11031 27.3617 10.3414 1.59109 6.91472 1.36069
4210 1 -0.625822 40.9866 9.7824 0.609108 -1.57269 -0.451072
3454 1 -23.4762 21.4867 10.6617 1.40088 -3.0747 -1.58459
216 1 -17.6987 46.3138 5.86067 0.170136 2.31566 5.2561
2284 1 -21.3988 23.9901 23.7558 -2.2205 1.50075 2.43311
422 1 -2.48019 18.6862 23.4501 4.26149 -1.28673 3.83272
2117 1 -23.4455 23.4121 7.21746 -1.03337 1.10149 3.54105
3150 1 -20.8772 11.4067 4.09261 -2.4525 0.714916 2.0004
2768 1 -8.2167 21.868 0.706728 1.46929 -7.27665 -3.6387
3293 1 -9.02813 13.434 23.9795 1.00023 -1.72679 2.17434
1864 1 -5.68878 11.4918 19.9997 0.204628 2.63389 -0.800797
1226 1 -21.1584 14.1737 0.131812 -1.08814 -2.09374 2.06276
2871 1 -15.7114 19.2087 23.7287 -0.824867 -0.112704 -3.96527
4086 1 -9.71428 41.4042 -0.0874562 -0.812251 2.83879 -4.95764
3582 1 -15.1237 46.5798 14.0412 -0.673226 6.83106 0.662662
1991 1 -22.3685 46.6117 21.341 0.854413 2.20516 -2.51684
1998 1 -13.8242 11.3024 0.0378747 -3.85636 -1.62624 -3.71866
2849 1 -21.1845 46.5885 15.5098 3.14006 -2.87504 -3.46413
1967 1 -14.5713 46.8393 17.087 0.282265 -1.82818 1.94186
2093 1 -6.027 11.8602 0.0859744 2.78002 -0.858614 -3.21345
4 1 3.55348 -2.30263 -4.72472 -3.39648 0.307565 3.20973
12 1 19.3929 -4.35975 -22.9568 -0.868221 0.907874 -1.73259
14 1 9.21432 5.47316 -7.71802 0.201169 -0.539562 3.14184
30 1 21.2719 -1.01402 -23.2613 -3.20765 -2.67216 0.342544
31 1 6.53125 -15.347 -19.0961 -0.0467175 -5.083 -3.35283
33 1 1.46284 4.30664 -12.0434 4.58031 1.06988 0.521156
3 1 4.8329 -8.61814 -21.8744 -3.2724 -0.658918 -1.80381
41 1 7.38624 -6.15254 -12.4915 -0.317903 -1.27327 -0.519084
48 1 6.7458 2.49841 -6.79818 1.98628 3.48225 0.935132
52 1 13.6428 3.19332 -15.2508 0.757484 1.05924 1.0422
58 1 1.9896 -19.3611 -3.40045 1.06398 -6.11045 2.08882
831 1 3.26936 -15.0914 -23.1702 6.53806 -1.56324 4.23232
2204 1 4.51565 0.704219 -0.644909 2.66151 3.30244 -6.97174
722 1 8.11399 -23.6805 -12.2053 -3.31724 2.31995 2.09141
2337 1 9.00025 10.4727 -1.17388 2.02373 -0.416828 -2.22595
3207 1 0.261191 -5.14706 -18.5838 -0.0049464 0.248807 -2.78577
95 1 5.63307 -0.784644 -13.7374 -3.17865 1.11728 -1.85469
99 1 14.8144 -21.509 -6.10672 2.81349 -0.579679 -2.78103
101 1 1.14841 -18.2777 -10.2097 3.58203 2.90114 -0.0181538
110 1 11.7182 -10.4841 -9.15698 -2.06666 -4.70106 0.323927
111 1 19.6918 -3.0732 -12.6267 -6.38189 -3.12476 0.619618
116 1 4.01076 -17.8464 -16.3516 2.905 2.26867 -0.901878
118 1 3.32778 -18.4829 -12.3161 -3.43218 -2.83937 -3.96419
657 1 3.22507 -2.29664 -13.1174 -2.45552 -0.529036 -0.31743
3192 1 22.1505 10.2981 -1.09818 3.38088 -0.0727625 -0.518556
131 1 2.39065 -7.73095 -20.8047 1.14971 -3.73242 -4.47951
299 1 5.30739 -23.1237 -11.5014 -0.999412 -2.98871 4.80481
153 1 9.2265 -14.9861 -3.38573 -3.15694 -0.574891 0.897051
155 1 21.9642 -22.7578 -20.5798 1.89339 1.42381 -1.35709
157 1 12.029 -14.3824 -13.764 -3.93448 -1.98386 1.98532
161 1 16.0673 3.30199 -13.3064 -3.04197 -1.55885 -0.0434341
184 1 5.54595 -22.5194 -20.8546 6.35416 1.36786 1.2002
2514 1 21.2693 9.76551 -22.3152 2.64146 4.45592 -1.2335
191 1 0.926883 -3.21314 -21.7225 -1.64246 2.56843 -2.60401
192 1 8.41058 6.14127 -3.93635 -3.9058 1.82459 -2.41254
195 1 7.057 -0.337798 -6.3724 0.483729 2.88911 -0.620618
200 1 15.1865 7.74412 -14.6756 3.36141 -1.54528 2.48804
683 1 1.2445 11.1186 -20.2004 -3.7044 -2.40092 -0.180025
214 1 15.7924 -5.58464 -20.9397 0.712305 2.81953 -4.00856
2302 1 15.3387 10.7506 -14.9595 -3.9017 -0.366066 -2.17338
225 1 4.64271 -14.1464 -8.37724 1.43885 0.14454 -3.61196
3288 1 -0.0225758 8.90017 -18.6349 -5.39612 -1.63053 1.07343
1342 1 1.61919 -24.4931 -15.9178 -4.23912 -2.50204 1.84237
254 1 8.85265 -11.4483 -9.46401 0.934562 1.99092 3.02077
259 1 15.3491 -15.8831 -19.9124 0.0300166 -1.08606 0.731516
260 1 11.8768 4.5497 -3.09999 -1.50048 0.974253 0.0628185
265 1 13.8999 -16.1836 -5.28453 -7.40722 -0.999655 -0.746729
3806 1 0.722308 1.5087 -2.61095 -4.56663 3.42363 3.23799
276 1 23.5812 6.43999 -8.58711 3.63269 2.33962 -0.956428
277 1 14.3314 -13.1071 -19.4053 -1.22252 0.791069 0.765907
287 1 4.98374 -9.43995 -10.1444 -3.75695 -1.38752 0.284586
297 1 20.5295 -8.76484 -8.16351 2.71663 -0.0773236 -0.56174
298 1 14.2985 -22.2226 -20.5124 1.29522 -1.47587 -2.03121
1894 1 -0.101248 -17.5702 -4.47144 -5.77306 -0.321077 1.40412
1306 1 6.39392 -21.049 -0.282211 2.00605 -2.64898 -0.0649737
332 1 11.3237 1.73667 -9.82158 1.88191 0.723833 -0.0591457
333 1 9.3445 -8.79663 -14.6027 -3.43248 5.35302 3.4804
334 1 4.50177 -22.5411 -2.17896 0.454191 -1.82211 0.932468
344 1 9.39539 -14.5664 -12.3097 -5.08347 3.04527 2.573
2536 1 23.035 -19.4993 -23.2709 3.12406 -0.244848 -0.0560832
369 1 10.7048 5.34088 -14.1877 -2.81229 0.808111 5.33671
370 1 6.30263 -12.905 -21.798 1.03527 5.79459 0.0457716
378 1 18.8586 -14.8859 -4.37973 2.22171 -2.71844 -1.85854
386 1 17.2588 -0.0307496 -21.8419 2.40224 -5.95294 -1.47819
401 1 20.5818 -16.9144 -5.3121 6.79307 0.462532 -5.35472
2713 1 22.7275 1.79939 -7.83319 -1.89003 3.53996 0.68625
409 1 2.56022 -0.060232 -6.4229 -2.37125 -0.413991 -2.01636
329 1 0.141481 1.9829 -8.43105 -1.06424 2.88691 -0.935376
424 1 3.71952 -3.97736 -2.48005 3.83409 -2.01673 -5.81389
431 1 11.7952 -5.65551 -15.8886 -0.353462 -1.26339 -0.984172
441 1 16.8819 1.76232 -3.33162 -3.59965 -1.59093 -0.606039
445 1 18.4108 -10.1665 -10.0162 3.94065 -5.79038 -5.64783
446 1 22.2464 -12.774 -8.20387 6.38106 -2.60588 -0.841147
449 1 15.2559 -4.54369 -1.41113 1.89605 2.20841 -0.217427
853 1 12.3919 10.1001 -14.7217 -6.92055 -1.55253 -0.900931
459 1 1.88144 6.31328 -13.9238 1.62265 1.28075 -2.71747
681 1 -0.05906 1.43876 -5.57347 0.77277 -0.414455 -2.67795
461 1 3.35136 2.8852 -23.4669 1.02872 0.508022 -0.650428
1607 1 12.0988 -24.1146 -14.2363 3.14547 4.46067 -1.45798
474 1 4.93755 -4.63563 -11.8025 4.06139 -0.708084 -0.52574
353 1 16.4457 -23.7999 -16.0759 -1.71566 -6.30476 2.34411
2814 1 22.6902 -4.87161 -4.06215 -3.19562 4.59691 4.60097
485 1 20.8772 -22.8618 -17.9335 -1.94204 0.732531 1.89318
486 1 13.4764 2.42341 -0.692776 -2.4006 3.69237 5.35306
490 1 15.5623 -15.1969 -12.0139 -3.70154 -0.807704 -1.22799
493 1 13.0624 -0.630807 -14.0196 -1.61294 0.573525 0.352229
496 1 4.2774 7.92734 -13.5726 -2.50534 -1.53327 -4.1495
3504 1 16.5326 -2.17863 -0.771554 2.09957 0.592187 -3.62377
503 1 8.30756 0.0356602 -12.8212 -0.411993 3.11577 1.56252
495 1 -0.13798 -10.18 -4.73693 2.5351 0.463183 0.0160076
534 1 18.6434 9.28911 -11.8073 -3.84951 1.96571 5.2123
1695 1 17.9417 -24.2245 -11.2044 -1.4547 4.23035 -0.617406
2473 1 14.306 10.4513 -5.82906 -3.4536 4.03131 0.804925
543 1 17.8769 -16.5722 -18.1671 -3.40307 5.77993 -6.69193
547 1 16.2439 -15.5199 -22.7501 -1.89063 -0.710981 -3.19139
3012 1 1.76764 -24.5099 -18.6132 -1.59334 -2.71652 1.22167
551 1 10.5152 5.67369 -17.0346 -1.71893 -3.47634 -0.459569
1040 1 4.95081 -3.71057 -22.6218 -1.99533 2.59978 1.72497
3006 1 22.0835 6.47255 -20.3887 1.48906 0.918411 -0.621199
1791 1 3.09946 -6.09783 -18.7756 0.712625 -0.495994 -6.25947
562 1 7.67668 8.14673 -19.5937 0.0393765 0.94239 -2.31849
574 1 12.3674 -20.2272 -5.04261 0.597675 -3.08901 1.39559
579 1 1.34822 -21.124 -9.66352 -0.630955 -2.23587 -0.015039
584 1 15.3338 5.39278 -4.75511 -1.07724 3.01996 3.53641
1154 1 1.8063 9.28098 -22.5295 0.790125 1.04616 0.124541
606 1 0.974018 -0.443349 -22.7322 0.822052 2.17995 -1.30467
608 1 3.39507 9.97853 -10.2194 2.32591 -0.641663 0.264355
613 1 11.4043 7.68316 -20.003 -1.18764 -0.463079 2.31574
620 1 22.1338 -10.9723 -10.2832 -6.91317 8.43231 0.580864
506 1 -0.0622569 -20.5927 -15.8664 -0.697782 -1.07789 -4.64426
3511 1 15.0941 11.1459 -2.452 -2.34918 -0.810979 0.0594598
647 1 3.79506 5.14223 -3.25864 -5.94876 -6.1772 1.54324
648 1 19.1189 -17.4095 -22.7058 -5.51634 -1.29258 -0.782115
1049 1 22.919 0.42195 -13.0869 -1.51427 -2.6592 5.62451
670 1 0.43542 -15.4343 -0.980172 -1.80415 1.46906 -4.97009
2004 1 1.20442 -22.5031 -22.2257 -1.89326 -1.64635 1.28315
684 1 10.6186 -20.9223 -10.8189 -4.46981 0.263226 1.21501
695 1 7.14032 -13.5931 -6.86034 -4.08549 -0.606258 0.764962
698 1 22.3553 -11.4845 -4.11989 2.9691 -2.99431 0.0648513
94 1 22.5381 2.87136 -11.6294 -0.62439 2.65823 1.47379
708 1 10.7694 -4.52592 -19.837 8.12977 0.778043 0.0482002
714 1 19.6936 -5.57648 -10.8442 0.114874 0.787572 -0.258421
720 1 3.32679 -3.57963 -20.2276 2.41019 0.101885 -1.64055
136 1 0.904655 6.13368 -5.95973 -1.79083 0.209186 0.249284
727 1 9.27905 -3.64439 -14.8016 -1.88194 -2.41411 -3.94473
730 1 12.8534 -20.0356 -16.9854 -0.95573 1.7771 -6.87001
3648 1 23.0397 -21.5133 -2.28132 -2.93499 3.45676 -4.17595
744 1 9.4944 -10.5763 -12.2826 2.5058 3.65121 1.76056
750 1 18.201 -3.33115 -10.1592 -3.1867 2.55471 6.25715
755 1 11.8423 9.75309 -21.9676 -0.764346 -0.462343 -2.41522
775 1 22.2822 -19.0676 -10.8335 0.235287 2.66771 0.485209
777 1 22.3381 -6.3458 -11.622 1.95444 2.29161 -1.47485
778 1 1.89315 -16.4832 -17.9661 -1.02312 -4.85162 -4.40393
779 1 5.74929 4.31966 -8.68966 -0.201772 -0.0605675 -1.91164
782 1 18.4312 -8.68112 -13.2855 -0.817891 3.46046 0.687618
803 1 18.2296 -10.3894 -7.08393 -0.878975 8.81554 2.1167
804 1 8.07444 -19.0167 -11.1134 2.03175 0.192952 1.59775
812 1 5.60262 -13.9571 -11.2848 -1.91318 2.48578 0.451968
824 1 3.37917 -19.215 -6.04899 -2.4887 1.46271 -1.25369
1186 1 5.91377 -6.86984 -0.332375 -6.44865 2.4174 -2.00605
835 1 2.36389 7.55582 -20.3684 -5.12639 4.49688 4.59329
844 1 16.6605 -21.1636 -19.383 3.20891 -3.72743 2.28564
845 1 18.5313 9.04668 -3.12458 1.83903 4.02918 5.55466
597 1 23.3494 -23.5812 -11.8534 0.780887 0.621466 -0.84227
849 1 20.9919 -14.6038 -11.5427 -2.10755 5.84465 1.93003
2964 1 0.46405 -20.4894 -20.4682 -0.488983 1.63721 2.88575
398 1 23.1528 -22.9336 -7.68102 -3.03816 5.08499 0.656032
1425 1 -0.162747 7.84948 -10.5087 3.69383 -2.40367 2.65942
860 1 14.5291 -4.28625 -16.501 -1.94424 -3.701 -0.09437
871 1 5.65705 10.3182 -16.5451 0.502626 1.46949 -0.0456253
876 1 12.1251 -15.8461 -8.77633 3.77139 2.34597 -4.18999
879 1 15.4531 8.22477 -21.186 -0.446292 1.77665 -4.65207
884 1 19.7882 -20.3992 -16.6497 -2.16502 0.0722863 -1.22289
892 1 5.4036 -11.2204 -7.82259 -1.72149 3.749 -2.50929
2469 1 12.0856 -23.2033 -22.1705 0.00555977 -6.10837 0.0757817
915 1 17.4719 -4.82595 -13.5823 -5.90289 2.6061 -0.0519388
2569 1 18.7779 -18.55 -13.1705 2.67013 2.82734 -0.557316
921 1 9.06521 -9.32033 -19.9833 -0.0867391 4.34062 -0.111535
931 1 17.9485 0.765375 -7.56717 -3.75437 -2.196 -1.63832
471 1 23.3056 -8.91985 -12.8257 4.76054 -0.246057 1.82249
940 1 20.5803 1.82615 -10.0678 0.537352 1.35622 3.7134
952 1 11.2054 -13.2975 -10.0697 -4.19596 0.583859 -0.827692
954 1 15.5722 10.0209 -8.2829 0.502157 -2.50586 1.75624
964 1 12.7439 -14.7384 -21.2093 2.31881 2.07172 3.15503
967 1 17.363 -1.53192 -15.7174 6.27337 -2.47162 -4.32785
981 1 7.33494 -0.777415 -3.45426 -1.2818 -0.564847 1.29828
989 1 8.8835 2.7087 -8.79617 -0.914939 1.93248 3.70601
1505 1 18.386 -24.3764 -21.4124 -5.14747 -2.08501 -4.36313
2069 1 23.4801 -21.5232 -10.0597 3.84464 3.59831 -2.72007
3587 1 22.126 -15.9023 -15.9769 0.98401 -1.19034 -0.460579
1310 1 -0.132119 -18.2698 -1.50711 1.12318 -1.34902 -0.207699
1021 1 20.1399 -18.8576 -3.13656 1.02004 3.0307 -4.16262
1025 1 5.73443 4.8716 -19.7414 -4.91211 0.713591 0.486547
2975 1 17.104 9.27688 -0.817471 -2.49787 -3.88871 3.02794
2135 1 16.0896 8.72716 -24.0261 1.0905 -2.00107 -2.87167
767 1 3.08429 -11.6987 -0.672258 -0.927807 -1.25755 -1.48711
1053 1 4.72061 8.05064 -19.1285 -0.990515 -4.98116 -0.103224
1058 1 2.04063 -2.41402 -10.5502 -1.22691 -4.04198 -4.49701
550 1 0.688031 -22.5457 -14.0713 0.876481 3.27168 -2.09641
1061 1 7.6038 9.89652 -13.1922 3.20892 2.21909 2.99268
1066 1 13.1056 -3.96729 -21.538 1.25855 1.5935 -2.20056
1072 1 13.6634 9.07266 -19.0409 0.14254 -1.24151 0.468449
3802 1 6.45832 0.0627208 -23.6002 1.46614 -1.67965 1.07642
411 1 -0.195618 -4.12046 -9.44268 -1.51356 3.70007 0.0148556
1077 1 16.2379 -8.59839 -6.08971 4.38827 4.33295 -0.0385221
1087 1 10.4659 -0.487091 -19.7819 -1.16075 2.95817 2.20697
1229 1 18.0048 -15.0687 -1.45033 2.88089 -2.31302 2.89934
1118 1 20.7407 1.12592 -14.9039 0.690959 3.27163 -2.36355
1121 1 12.3747 -2.39536 -18.8087 -0.189136 0.547284 2.50772
1123 1 15.4085 -4.38063 -5.78666 0.980982 -2.06138 2.67127
1131 1 20.8378 -6.59561 -5.147 1.44411 -3.30424 -1.29187
1140 1 14.6329 -6.78434 -18.3154 -0.0563425 -2.24645 4.00863
1143 1 2.30781 -6.03848 -15.6392 -0.614483 0.880764 -4.45694
1144 1 13.7198 5.53859 -13.2695 4.67495 -2.24842 -1.10809
77 1 12.8442 -22.0041 -2.92941 -2.5704 -1.25251 0.0249809
1157 1 2.99401 2.94982 -8.76601 3.28733 0.88514 2.44851
408 1 -0.429157 -1.24401 -14.8949 -0.857946 0.131704 -1.20264
852 1 10.651 -3.75515 -0.783756 -2.53262 2.20295 -1.71622
1177 1 10.9451 2.9726 -18.1747 -0.567416 0.941837 -0.756234
1179 1 10.4145 -6.72104 -10.2087 -1.76038 -0.999317 0.390975
1183 1 5.02869 -4.77096 -16.6089 -0.510671 -2.2635 3.33348
1190 1 15.0323 -1.72402 -21.7261 -5.32929 -1.51861 2.93052
1195 1 14.4782 -13.3229 -15.2838 -0.324276 2.13988 -0.399744
1206 1 20.845 -20.332 -21.2972 4.80919 1.75151 -3.52747
1207 1 16.6125 -0.613764 -18.4141 -3.25305 -0.213041 -5.03497
1212 1 19.1619 6.28159 -11.4882 0.520232 3.64463 0.48339
1214 1 11.3508 0.51694 -1.67574 -5.08479 -0.660182 -3.33983
8 1 22.7177 -11.4672 -15.1176 4.35964 -0.969472 1.07653
1216 1 17.6496 -7.38154 -10.7165 -2.97438 -1.18031 -3.10623
1218 1 16.6125 -1.05276 -9.16783 -3.57501 -1.24033 -3.68191
1369 1 23.3758 2.44689 -4.87857 2.76338 2.03971 -1.1305
1238 1 7.14877 1.14711 -10.4965 2.66719 0.848639 -2.37945
1242 1 9.07801 -21.0814 -14.9636 -1.80877 -0.563534 -0.261106
1256 1 3.86936 -20.6087 -17.2388 5.99636 0.744629 2.9267
1260 1 3.44561 -6.73206 -13.3314 2.17454 -0.698648 4.78004
1261 1 15.7018 -11.6634 -10.0069 1.63308 4.99147 -0.351406
1262 1 11.3311 -13.5226 -5.54836 -5.56406 0.134197 5.70214
1278 1 15.3016 -7.62866 -22.8406 -1.47105 1.54613 3.19576
1280 1 1.22276 -3.93949 -5.09773 -3.26213 2.13461 -3.40366
1282 1 9.82266 -22.4715 -2.7195 -3.11843 -1.86998 -1.89214
1283 1 3.31533 -22.0376 -7.14089 2.53666 1.22992 -0.535238
1288 1 5.71419 0.573292 -16.2573 -0.102624 2.80992 1.70153
1727 1 23.2183 -0.409917 -21.0932 -1.91314 -0.903357 -1.72964
1294 1 13.2011 -11.375 -6.65199 -1.57072 2.05563 2.08959
2237 1 -0.342142 -24.1813 -20.8213 -3.58301 -0.747205 0.716274
1298 1 4.04632 -6.811 -2.73712 9.37436 3.06161 0.63401
1300 1 2.69069 -0.642092 -2.42158 3.74532 0.300347 3.9396
1304 1 3.70623 2.66275 -6.17388 -1.09363 1.06578 -2.30286
484 1 22.9216 -14.1574 -13.8613 -1.08815 -1.12057 -1.60043
1316 1 18.6862 -6.92666 -15.6323 0.351969 1.85925 3.89336
1320 1 20.3318 -5.87099 -8.02987 -0.609257 -1.98312 2.99332
1321 1 11.6081 -21.8693 -7.27094 1.94221 -5.10235 4.79684
1322 1 2.10986 -13.3633 -7.57898 2.30119 -1.11218 -3.11778
2288 1 23.1469 -8.43175 -9.65308 3.46909 1.36145 -4.84347
1334 1 15.1427 -9.0371 -11.2973 -1.87203 -2.47559 -3.03934
1338 1 1.15545 5.25734 -1.96502 -2.43195 -2.79574 4.29995
3260 1 16.4779 -23.8284 -6.40345 -1.79302 3.099 -1.88226
1346 1 16.0031 0.739131 -14.2025 -0.816462 0.366868 -0.958651
1970 1 23.0935 -7.12699 -0.66922 -0.665459 -5.90832 1.96692
1364 1 13.6094 -13.3349 -11.4947 -2.74069 2.91279 -5.09732
1365 1 7.56596 -5.03075 -21.9809 3.41628 1.59031 -2.30888
1849 1 12.0639 -24.4627 -11.2244 -1.10827 -3.16803 -3.31908
3934 1 22.6303 4.99625 -13.9892 6.16966 -4.5249 -2.24528
3481 1 3.88617 -22.8128 -23.4882 -0.071749 -3.29014 -1.41542
3369 1 -0.290613 -0.77249 -9.77824 -1.98682 -1.57587 7.13972
3053 1 20.3874 -21.6015 -1.48871 0.98271 -0.49027 -1.16562
2127 1 23.4948 -9.88566 -22.9624 2.27855 2.47182 0.136217
1329 1 22.6702 -13.9161 -2.07611 -1.29612 1.07545 -0.126674
672 1 21.8831 7.81918 -11.5288 0.0528848 -2.62702 2.44254
1427 1 18.5064 -12.4509 -2.66299 0.24802 0.107571 3.80912
1446 1 2.31277 -8.2503 -11.4283 -2.47857 3.70935 0.92877
1447 1 21.6703 -3.24149 -19.4722 3.93212 -3.63858 -1.42728
1454 1 8.97239 -11.6527 -1.72103 -2.03497 -0.275351 -1.31216
3918 1 10.6063 11.3011 -16.9584 -5.04228 -0.825414 3.24443
1473 1 13.7104 -19.8327 -14.2163 3.65012 -4.51537 1.39943
917 1 23.2275 3.29714 -22.4777 1.35546 3.73385 1.49053
1483 1 9.54019 -22.8974 -18.8112 2.51923 5.46724 -0.441443
1491 1 13.2638 8.87331 -3.68641 1.65813 -1.54276 2.95349
1497 1 12.4829 -8.35984 -19.3532 0.170538 2.2007 2.90513
2080 1 22.672 -24.1005 -16.1578 -3.96009 2.74105 0.487463
1508 1 19.6212 -10.7167 -4.79398 3.42613 4.58072 4.63843
2248 1 -0.360395 -8.89486 -14.0344 -4.17348 3.87979 -1.14629
1520 1 10.5449 1.78885 -12.8423 1.51284 -0.3614 3.06725
1527 1 1.36547 1.63472 -11.3277 1.00406 1.115 -1.84889
1532 1 17.677 -4.29536 -16.6099 -0.820234 -3.30447 1.34053
1539 1 1.84301 8.33803 -16.3288 -1.7695 -0.118659 -1.67332
1541 1 6.99808 -20.029 -8.7555 1.16259 0.865435 -5.47213
1547 1 12.6466 -2.02692 -1.79861 1.35805 2.12976 3.31524
996 1 19.8374 10.7253 -17.4491 2.60187 1.16668 -3.4024
3322 1 13.7183 -10.5206 -23.2464 0.82105 -4.68989 -1.59475
1551 1 9.69933 0.097266 -8.06634 -2.2141 -1.6236 -1.59312
1552 1 18.1154 8.56065 -18.0144 -1.29121 2.15338 -1.84238
1556 1 19.6506 -17.1462 -7.88612 1.90205 -0.53498 1.60861
1557 1 7.98094 -23.3344 -16.414 2.03524 3.33263 1.47846
1605 1 2.05259 0.0280958 -13.7937 -3.80658 3.74487 -1.76139
677 1 21.5575 -7.05533 -14.3021 1.63438 -3.59393 0.257822
1567 1 0.699172 -9.77353 -19.9466 -1.86286 -4.94586 -0.206544
1578 1 15.5045 2.73044 -10.7149 -3.65331 -2.46812 3.70199
1583 1 9.78274 -2.10406 -4.58727 4.71486 -1.69849 0.0127917
1587 1 20.2399 -2.89835 -8.1473 -10.0585 -1.24854 2.59213
1590 1 19.3558 8.74507 -14.5122 1.08984 3.80276 -1.13649
1594 1 10.4611 6.94519 -1.64135 6.63082 3.93976 0.972757
1600 1 15.586 -15.9735 -14.8576 1.02494 3.26687 -1.19188
1603 1 6.03683 -8.53823 -12.764 1.61773 2.81616 -5.25214
1604 1 20.1006 -14.7387 -17.8832 -2.38267 -1.32846 4.21355
3808 1 10.1305 -14.0707 -21.8773 2.23575 1.35934 -2.55893
3303 1 22.3922 -22.1827 -14.0671 2.95508 -3.92609 -2.58772
1616 1 15.7153 -11.3112 -17.3497 -1.33826 4.36333 3.0249
1620 1 14.6638 -9.50043 -8.46554 -1.50792 -2.01902 1.3646
3937 1 14.644 -18.3568 -18.2654 1.13816 -2.18079 -2.17938
1635 1 6.00297 -17.2084 -11.4049 0.433485 -1.78238 1.84622
1638 1 15.2038 -2.94046 -19.042 -0.0644675 3.0716 -4.50145
1650 1 11.8501 -4.33587 -11.2419 3.20763 0.572145 -2.23088
1611 1 6.66476 10.5262 -3.04308 -1.11169 -7.19047 5.00293
1652 1 12.8998 5.52154 -18.769 -8.48884 1.03075 1.48148
1657 1 15.9427 9.9728 -11.1547 0.0597447 0.632423 2.21944
1660 1 1.71351 -13.1092 -21.9381 2.11675 -1.24425 -5.74849
1664 1 4.0965 -8.75081 -15.4152 0.0947925 -0.0502556 -0.684472
1666 1 17.898 -3.96632 -19.5899 -2.74609 0.833895 -4.10688
1669 1 15.295 -21.3928 -12.3581 0.859488 7.88076 1.06028
1674 1 6.06884 -3.17511 -5.97345 2.23393 -4.28185 -0.899633
1687 1 18.735 -15.5441 -10.0655 -6.10668 3.38216 2.9187
595 1 7.62982 -17.377 -23.3616 -3.85852 2.1362 0.625335
3635 1 -0.338179 -15.7716 -19.6903 0.870573 0.160446 0.966617
1700 1 14.0803 -2.3284 -11.5761 1.6746 0.701428 3.05438
1703 1 6.02767 6.66507 -12.0707 -0.970468 -0.254939 2.9682
1706 1 7.58611 10.8436 -20.1162 -3.08446 -4.67918 -0.994707
1714 1 4.50616 1.00886 -11.8015 2.17113 0.317898 -0.54509
3921 1 17.6899 6.78318 -15.7968 -4.40181 2.00233 2.37084
1717 1 10.5837 -15.9014 -0.866678 -1.44026 -1.44009 0.846765
1718 1 7.27583 -21.1314 -12.8094 0.64105 3.89303 -3.75421
1976 1 19.0115 -9.04831 -22.8715 0.880421 2.47525 1.33206
1731 1 20.9209 3.87996 -4.09696 2.28867 1.9163 2.21564
2852 1 1.62757 -5.56892 -0.86629 2.28945 -1.73701 3.60787
1747 1 4.9446 -18.2491 -8.02217 0.00736832 1.15348 1.21184
1748 1 17.3499 -0.433294 -5.10931 -0.186141 1.18927 -3.97331
451 1 22.7961 -13.4245 -17.3604 -5.19473 -0.879645 -3.12685
1757 1 16.1116 -12.6248 -7.16557 0.261615 -0.408003 1.59246
1761 1 21.9627 -18.6627 -19.478 -2.77855 -1.35721 0.256098
1765 1 4.45269 -15.5638 -3.4991 -2.44241 2.8628 2.45573
1779 1 5.72849 7.03265 -2.39308 -0.395209 4.18714 4.27661
1780 1 6.56387 8.23481 -4.82863 1.88329 2.24972 -2.06557
1783 1 19.2693 7.86647 -6.73276 1.38725 2.53264 -0.0972709
1012 1 0.334534 2.95465 -0.425424 -2.76344 1.62726 2.67837
1790 1 7.34706 4.12777 -11.1263 2.87701 1.08698 1.38441
2132 1 11.7318 -20.3949 -22.7749 -1.5334 -1.76732 0.616185
124 1 23.3699 -19.8247 -14.919 1.80552 0.654375 3.01865
1794 1 16.5991 5.66048 -20.4811 -2.56426 -5.37269 -1.47689
1795 1 13.9794 0.367275 -9.77546 -3.92278 1.22691 -2.12982
1798 1 19.2492 -6.28942 -20.4374 0.994788 -5.01505 2.33095
1805 1 10.3355 3.62282 -5.60742 -1.78989 -5.04769 -0.968605
3301 1 22.7458 9.31772 -8.18777 1.69756 -1.09385 3.90173
1814 1 11.6365 4.24846 -11.4691 1.68796 -0.510841 0.294253
1822 1 16.9347 -5.58558 -3.49846 -0.201601 2.95941 -2.99446
1825 1 8.32744 -10.6924 -6.73907 -0.176075 -1.30153 1.98763
1827 1 15.707 -21.8209 -3.13759 -3.10805 -3.10416 -1.30932
1831 1 12.0877 -15.0768 -3.10111 -0.44957 -3.30104 -0.419158
1834 1 6.78919 -7.44095 -19.967 1.22985 0.988457 -3.40055
1841 1 5.64699 -22.5353 -8.63224 -0.465741 0.880553 -0.135074
1843 1 5.82988 -1.94626 -20.4585 -2.03592 -2.39624 1.86024
1848 1 7.59226 8.23132 -15.953 1.75449 4.87417 -4.14833
3830 1 16.4778 -12.2997 -13.8634 4.3966 -0.703278 0.717839
1850 1 15.9652 -19.587 -7.73179 2.48599 -1.0202 -0.229493
2406 1 22.3161 10.8082 -11.6657 -5.74801 -1.50689 -4.61964
1856 1 8.53744 -2.824 -20.1213 -5.23082 -3.26058 1.80123
1858 1 1.9522 -16.7926 -14.241 1.72016 -5.21903 -1.56773
1859 1 9.58579 -15.6097 -15.314 5.56467 -1.81924 -0.0451893
1867 1 5.85514 -8.73543 -3.98108 -1.67561 5.53987 -5.73834
560 1 22.7431 -21.1191 -5.52341 -2.53597 0.160424 2.08214
3904 1 11.1373 -6.90439 -7.67479 2.98548 4.53972 1.85059
1902 1 20.1633 3.19281 -22.0903 -3.29529 -2.29788 2.71872
3685 1 5.92222 -3.89279 -0.216968 0.6174 3.18665 -0.0528845
1911 1 21.6952 -0.753169 -9.0226 0.95147 0.37713 0.902906
1915 1 19.4865 -21.2847 -14.0543 4.72247 -5.10333 -0.50676
1923 1 11.5567 -0.698528 -11.5062 2.88314 1.70181 -4.64531
3917 1 3.12129 -4.82356 -9.65407 -3.22463 3.11103 4.46958
1926 1 12.8194 -1.98695 -5.2899 -2.33745 3.42647 -1.49795
1934 1 2.46271 -10.8864 -3.31924 -0.937776 -1.13201 -0.547014
1946 1 9.96017 8.94364 -7.41162 4.53114 -4.084 1.68993
1948 1 11.5025 1.25618 -15.3921 4.05188 0.593207 1.19325
1952 1 7.11872 -15.5001 -13.7748 1.06077 -3.30033 1.07144
1953 1 15.5006 -19.1273 -2.6105 1.19086 -2.49042 -3.67746
1875 1 21.4626 -4.18291 -14.4172 -1.40442 -0.717757 1.15285
1961 1 15.8252 -12.842 -3.97092 2.7335 -4.50764 1.0168
405 1 3.36945 -23.6111 -4.72767 2.47229 -1.492 3.74154
1647 1 15.7539 10.2653 -17.4553 -4.09873 -1.7688 -0.973401
1975 1 10.7485 -16.0875 -17.9666 -1.03817 -3.9497 -1.49116
3674 1 0.586728 -2.19971 -7.30371 4.07542 -8.31152 -0.672496
1983 1 18.4958 -4.59432 -5.80333 1.63025 -2.30859 1.00012
81 1 1.76109 -9.42429 -16.3394 -0.946184 -3.40121 -0.19065
1990 1 19.8786 -13.025 -6.59444 2.46586 -3.15097 -0.114513
2000 1 3.76284 5.53368 -21.9941 -4.78384 -2.9716 0.527465
2003 1 12.6105 -4.44845 -8.61101 -3.61196 4.92403 1.06798
2110 1 1.36459 10.3665 -0.588859 0.414422 -1.54313 -1.16038
2006 1 10.9098 -9.46644 -6.63592 1.07557 0.743997 -1.52796
2020 1 9.62925 -12.4672 -14.4249 -4.21437 3.25148 1.2543
3798 1 5.46707 2.72461 -2.58768 1.47331 2.41577 1.35478
2029 1 15.7142 -8.1262 -2.5287 2.87022 -2.8874 3.12458
2030 1 9.35304 -18.8083 -21.5433 2.03745 3.67877 5.10118
2190 1 1.23758 5.50412 -9.36317 1.51366 -2.54373 0.406298
2045 1 8.24177 -18.3032 -15.5121 -0.569712 2.34459 4.39901
3809 1 4.80721 -24.3734 -18.899 1.90213 -6.96918 -4.3017
2365 1 22.8463 -9.83579 -1.90049 0.150673 -1.13036 2.32114
3951 1 6.74237 5.71698 -14.7733 5.19708 0.956427 5.67675
2325 1 13.6312 -24.1697 -16.5805 1.44197 -1.27021 -4.26875
557 1 9.13894 -22.2448 -8.65002 -0.492603 0.729202 -0.818299
2079 1 10.0964 -12.0362 -17.2685 -1.55329 1.83836 0.847761
2083 1 20.0359 8.95763 -9.37432 2.26345 -0.888788 -3.50337
2102 1 6.57548 6.5748 -7.19598 2.42289 1.0497 -2.27361
2103 1 9.83498 -17.5841 -12.75 -2.4757 -2.26643 4.37948
2105 1 11.3042 9.07171 -12.1536 3.38648 0.163549 2.99785
2115 1 17.6598 -13.2458 -11.2479 2.68875 5.72033 -0.247372
2122 1 14.0665 7.6595 -9.09832 1.43857 -1.85135 -4.40776
2123 1 20.9922 -8.84421 -20.5655 0.751804 0.240069 -3.59146
2124 1 21.6519 1.87894 -19.9968 -2.74243 3.56504 1.0606
2126 1 12.3476 -6.47053 -5.00966 -2.56716 0.204045 1.25384
92 1 16.5983 -23.1008 -0.716228 0.663623 -2.69485 5.9201
2131 1 19.4281 -5.51321 -1.83594 -1.55806 -2.70624 -9.80377
3833 1 17.9028 1.01485 -10.7102 -3.02537 -1.9367 3.02384
2143 1 19.2323 5.17534 -17.5406 -5.5126 -0.586046 4.79683
2149 1 19.8981 -1.93279 -5.50077 -1.47846 4.73074 0.468197
2151 1 8.89683 7.43913 -13.1549 1.78147 2.91399 -4.80979
3990 1 10.6837 4.51081 -22.398 0.669831 -2.11571 3.8974
2162 1 21.9071 8.6358 -5.66471 -3.47302 5.67579 -1.74882
2164 1 16.712 3.31307 -6.16989 -3.28806 -0.518554 -1.24782
2169 1 9.88846 -6.92447 -21.8249 -3.66732 -1.99191 0.861464
2173 1 20.4005 3.81358 -15.1857 1.16334 -3.05299 7.88761
2174 1 3.18957 9.59762 -2.7716 -0.140084 2.53466 -1.85191
2178 1 17.9459 -14.9036 -7.39065 4.76243 -0.324264 4.54997
2180 1 12.1369 -8.9282 -11.4654 -1.68518 0.689031 -2.07005
2186 1 4.8785 -8.41704 -18.201 1.18514 -0.00221265 -1.41626
2193 1 18.3165 -15.1825 -15.7295 1.54085 0.0421522 -2.82369
2201 1 12.7432 -10.812 -20.7605 2.16802 1.26943 6.50579
2202 1 17.3103 -19.4375 -17.3526 -0.725064 -2.92185 -2.70587
2203 1 7.06526 -1.1071 -0.461421 -2.8801 4.77018 -1.23253
1772 1 11.3258 -21.5163 -0.262749 -3.63446 0.382496 2.33701
2210 1 20.2821 -17.7566 -0.455078 -3.26831 -0.982457 -1.77408
1962 1 1.39726 -12.8369 -5.00846 0.605283 1.64714 -2.92176
2216 1 4.00615 4.38889 -14.3388 7.39531 -2.8836 0.733935
2225 1 1.75737 -18.1189 -20.4364 -5.48757 2.44724 -1.75313
2227 1 7.61754 3.34996 -4.31639 0.416656 -3.02704 0.925993
1126 1 0.798713 -12.1254 -15.5912 2.82336 2.65642 -1.77448
995 1 8.68059 2.94859 -0.0700818 -3.48319 -2.34692 -0.223469
2253 1 7.55504 -19.3422 -3.85508 -0.321075 -5.92989 1.64664
2255 1 2.70597 1.06569 -18.2969 -2.32163 -3.73826 -1.14104
2261 1 15.3914 -4.16976 -9.57388 -1.73077 1.16009 -7.668
2262 1 18.9573 -23.9277 -1.84784 1.28226 -0.221758 3.86757
2263 1 1.50692 -15.2731 -3.62996 1.84681 0.807977 -2.48011
2268 1 13.0393 0.661172 -4.23037 -2.56681 2.26638 -1.72082
2269 1 17.6297 10.1133 -20.4831 0.70124 -2.42848 -6.21987
3248 1 8.82694 1.43479 -2.66214 2.99326 -0.309088 0.965173
2280 1 11.2011 -10.1559 -1.34148 -5.21991 -4.22407 -0.212507
1728 1 22.7837 -5.45942 -21.0318 2.20204 1.21727 1.64218
2297 1 9.102 6.91684 -21.5662 -0.642807 -3.2483 5.09622
2299 1 8.9436 -12.2715 -4.42114 -3.7428 -1.08248 -1.90929
3031 1 23.5015 -9.87288 -19.9948 -2.56625 -3.53368 -2.47492
2308 1 5.32446 2.39555 -18.3178 -2.89527 -2.03937 2.29478
3333 1 5.76122 -6.60899 -23.5524 -1.3988 -0.676281 -0.87111
2320 1 21.9192 4.19735 -18.2065 -2.55671 1.95945 2.91543
2323 1 6.62112 -3.59553 -3.21301 0.395436 1.49013 -3.61315
2324 1 4.76977 -21.1804 -14.4652 4.21287 -3.7985 0.311915
3443 1 22.4297 4.22213 -1.39709 -1.56044 -0.592443 4.58272
2326 1 19.8596 -10.8268 -14.3839 -1.81871 -2.45394 1.19084
2327 1 12.6702 0.647524 -18.2148 -1.22648 4.04054 -5.94435
2333 1 11.4278 -21.5204 -13.5603 1.05277 1.45794 0.802288
2336 1 16.6226 -11.1411 -20.237 -2.16967 4.42559 0.9117
1558 1 7.83948 -17.1433 -0.533108 -2.71845 0.43995 1.02666
2339 1 8.50318 10.8041 -5.45775 0.380362 2.94707 0.705707
2341 1 5.69799 -19.8501 -19.5819 -2.05598 0.987921 -4.25364
2350 1 11.2392 7.90956 -9.76436 1.90553 2.11742 1.00123
2919 1 21.8299 -14.4148 -4.68116 3.03099 -0.866462 -2.95774
2354 1 18.014 -20.0986 -21.5357 1.03273 -0.277117 1.98363
2356 1 13.6627 -22.6496 -10.031 -0.127777 1.61723 -4.54447
2358 1 4.41208 -10.9677 -13.4064 3.41796 -2.16737 -1.48522
2363 1 17.0513 -10.5782 -1.28734 0.220144 4.86334 -4.0638
3066 1 22.1103 -1.0368 -0.541113 2.92595 1.12208 3.85033
2900 1 15.9704 3.99333 -23.3205 0.715769 1.12873 -5.7903
2381 1 12.9716 -8.28774 -2.89678 -0.13173 -1.50167 -0.0710967
1389 1 20.8488 -2.68522 -2.75146 -2.33962 3.21867 -1.09602
3900 1 12.6106 -17.3157 -13.3923 1.92867 -0.700814 2.14879
2410 1 7.62236 -22.36 -22.8348 -3.1573 -0.873132 0.550858
2414 1 14.2327 -6.61044 -7.35206 1.82003 6.12038 -3.74665
2418 1 14.2265 3.06559 -3.55099 -0.764983 4.06343 7.58769
1182 1 16.8531 6.24576 -1.53607 1.50439 0.00928569 -4.0179
2440 1 6.31515 -3.86321 -14.2339 0.30337 -0.514239 -0.463594
625 1 1.1506 -8.35746 -6.45853 1.89978 -3.83692 -0.233671
2448 1 2.98204 -14.1986 -11.7519 -1.70675 2.03684 -2.3381
3112 1 0.190429 -12.8716 -19.5286 -0.896383 2.43308 1.12664
2466 1 1.45791 3.74597 -4.42782 -1.08044 0.166942 1.42248
3967 1 2.64118 -6.31094 -5.20106 5.61893 4.92117 -0.300389
2470 1 12.7204 -20.0083 -9.14913 -1.56406 -1.87032 3.80124
460 1 6.5737 9.33864 -23.5964 0.755791 -1.02948 -1.31312
2477 1 12.0208 9.64885 -1.27217 2.38467 2.90921 -0.0425362
2482 1 8.51786 -5.59848 -0.583091 1.87594 -1.91864 2.35852
2484 1 3.35481 -16.5626 -9.89424 -3.63161 0.413802 1.6266
1689 1 3.14659 -24.4285 -0.660421 1.07452 5.67434 -0.0162191
2495 1 13.5972 -14.121 -7.22951 -3.00167 -1.131 -2.7467
2799 1 -0.119808 -15.4421 -7.62682 -0.85204 0.794873 -4.69846
2507 1 9.78852 -0.802668 -16.9219 -3.36487 -2.01297 5.18229
1043 1 18.2262 10.3749 -7.12259 -0.177941 -0.715323 -0.0343381
2530 1 5.71601 -13.2529 -14.7122 4.59096 4.67538 2.1984
3997 1 19.3426 -22.2707 -9.46528 2.87337 2.9977 -4.75927
2548 1 17.0873 -6.28704 -8.08769 3.58367 -4.96546 -6.13055
2557 1 17.1426 -22.9304 -13.6266 -0.926573 -0.577984 2.26379
2563 1 19.5015 -2.11097 -21.1751 2.66897 -0.505631 1.19562
2568 1 19.2002 -9.42151 -18.3228 0.384737 4.05038 -1.7153
2420 1 1.31141 -6.91936 -9.15019 1.78914 6.86229 4.52436
2573 1 18.0886 -22.7583 -4.28903 3.45933 -2.98971 -0.248002
2588 1 15.3322 1.70202 -17.1824 -1.42843 5.28142 1.57264
2590 1 12.4131 3.29736 -7.675 1.58952 -1.62527 -3.93158
2598 1 20.4039 0.817039 -3.95601 -0.117668 -0.00835021 2.62404
2963 1 23.4927 11.0199 -6.01013 -0.728579 -0.135254 -2.28782
1548 1 16.5847 -22.4235 -9.13335 0.473072 3.90035 -0.554238
2608 1 13.5792 -19.4345 -20.7627 -1.40935 -0.467421 -0.0608312
2610 1 1.50716 5.84048 -18.2318 1.29221 -2.33043 0.4117
3960 1 20.0371 -11.9243 -11.6649 5.37574 1.13858 -0.0618126
2628 1 12.7594 -6.93305 -21.9467 6.78894 -3.61834 0.852321
2632 1 19.2606 0.174895 -19.2636 -3.57118 -2.69222 -5.01825
2637 1 12.5521 -13.6618 -17.4242 -8.20853 -3.29621 -1.88138
2638 1 13.525 7.12926 -6.33419 -1.85324 1.97812 -2.70373
2213 1 20.0079 10.9181 -4.92659 -2.1038 -3.21941 1.3689
2644 1 20.0522 -20.4308 -11.4611 0.998461 0.373068 -1.6611
2654 1 20.6435 -7.98453 -2.39963 -0.809575 -2.22954 -2.58524
1852 1 -0.176067 0.429519 -19.9958 -3.87185 6.16383 -0.152495
2675 1 16.7172 4.57939 -8.9176 -2.46762 4.55407 3.41809
2678 1 3.0274 -21.4726 -12.2654 -6.80782 -5.1502 -1.71825
2680 1 8.43128 -3.99779 -7.42719 3.8854 3.14213 1.21865
2686 1 5.12556 -23.1626 -16.3238 0.922341 -4.92575 1.2844
2687 1 20.2952 -16.2588 -13.8711 -5.3271 -1.09374 -1.81069
2692 1 4.33507 4.03023 -11.2094 1.34327 0.375189 -1.25173
2697 1 4.84502 0.544215 -4.3182 5.4364 6.51789 -0.645237
2703 1 15.1792 -6.02234 -11.6275 0.76553 -2.36911 -0.230394
218 1 11.3076 4.37747 -0.336483 -2.76285 0.487056 -3.33561
2039 1 9.59321 -24.1287 -21.4002 0.205396 3.69024 -0.850305
2743 1 0.834887 -17.9157 -7.18381 0.0181539 -1.58445 -4.51117
2746 1 6.18577 -13.0864 -4.03324 1.99521 -1.98948 -4.8335
2765 1 6.50654 -17.7304 -17.7141 1.50234 2.18528 0.796614
2774 1 22.6964 1.62827 -17.0084 -0.507396 1.19735 -2.68235
2776 1 10.7877 6.94476 -5.4699 -4.51007 2.3384 5.72012
2783 1 13.4646 -10.4827 -15.6257 2.34768 -0.204484 0.103943
2785 1 19.9908 -0.838478 -16.7958 1.4889 0.468299 -1.29232
2789 1 9.3265 -6.29493 -5.46465 4.61407 -0.984545 2.15166
3264 1 9.42628 9.14114 -23.2617 0.926092 -2.64193 -0.507757
2803 1 20.4371 -3.86602 -16.9548 5.44638 0.0982223 2.76244
1985 1 1.53653 -23.8027 -11.4538 -1.33053 -1.22644 -4.29848
1309 1 1.23156 -12.3878 -10.302 -0.757378 2.3158 -1.04565
3716 1 6.38071 4.69041 -0.520389 0.320741 -1.02326 3.8543
2817 1 5.71829 -15.6507 -21.7084 -5.22945 -3.53863 -0.258374
2821 1 15.6966 -9.67607 -13.9772 -2.03613 -1.81238 4.87762
2826 1 8.89565 -20.0639 -1.32586 2.2132 4.55728 1.54945
2828 1 2.54526 -1.86094 -18.0216 -0.0326716 -1.45457 0.944736
2831 1 14.0307 8.07172 -11.9381 4.56031 0.533763 2.55382
1408 1 -0.372036 -6.0965 -14.5641 -2.15018 1.37817 -0.51624
2841 1 17.7111 -17.3317 -3.22354 2.87972 6.40529 -5.20133
2843 1 14.2771 3.72922 -20.9249 5.34911 -2.18935 -5.99916
2845 1 18.5677 5.40896 -23.0099 2.57503 2.92887 5.93311
2850 1 3.02731 7.80344 -8.23917 3.96479 3.26775 0.210445
3295 1 2.28642 -19.8011 -0.645919 5.01544 -0.409396 4.18382
2854 1 5.89929 -7.22011 -8.34181 -0.163547 -0.0893417 -1.75645
2338 1 -0.269354 -2.43499 -19.2258 -1.29719 -3.17477 -3.52522
2858 1 10.1273 -1.82561 -22.5434 -3.7081 -0.228243 0.937875
2862 1 11.9225 -2.61738 -15.7448 3.84793 -4.61945 -2.39665
2863 1 21.9046 -18.4951 -16.708 -1.45599 1.75969 0.929509
1227 1 1.61709 -8.35933 -2.20926 -3.27494 -3.82508 1.26794
2875 1 22.7376 -4.17936 -8.04518 -1.24428 -3.84785 2.75683
2876 1 20.8413 -24.0301 -22.8099 5.18808 4.01934 -1.55481
2065 1 14.9489 -18.0253 -22.7793 -0.0180186 -2.37423 -4.18384
2911 1 0.971914 3.31952 -19.8087 -1.31914 2.82911 4.79654
2912 1 9.71196 -15.0585 -7.21998 -0.148913 2.79619 1.3545
2913 1 17.9096 6.4459 -4.28577 -1.8635 2.12875 4.52078
2918 1 22.3558 5.71447 -6.20058 0.74551 0.488039 0.0580455
3139 1 4.88865 10.7122 -12.7629 -5.84283 0.990996 -0.705785
2999 1 11.4153 -18.5162 -0.952038 1.51798 5.07053 -4.74014
2934 1 7.75478 4.34951 -21.8211 0.435927 1.14855 1.05719
483 1 5.16859 -18.5321 -0.686172 -2.47468 2.26971 3.12697
2947 1 15.7507 -12.5747 -23.066 2.31814 -3.55252 -2.2209
2951 1 10.392 -18.0468 -9.76705 -1.17446 2.99641 0.784688
2958 1 9.97971 -6.16653 -13.7251 -0.559886 -0.503375 2.7012
1171 1 22.8474 -2.38936 -5.68314 2.20785 -0.318089 -7.06799
2965 1 18.5679 -0.340858 -13.2611 2.62924 -3.56297 -3.52759
2970 1 18.288 -12.3259 -15.9195 -4.50019 -2.62664 -1.59031
1693 1 18.8215 8.40125 -22.4906 -0.651174 -3.25191 0.122913
2977 1 4.79641 -10.9097 -4.95727 1.06626 3.16522 0.847535
2988 1 0.938783 -22.2097 -3.70063 0.355849 -0.776281 -1.21255
1754 1 21.6422 9.41266 -19.5141 -3.91828 -1.12357 2.09995
3005 1 3.78026 5.66452 -6.33918 0.883269 -1.68261 -7.16768
2616 1 22.2275 -1.74766 -11.6754 0.24918 2.23498 -1.40182
3618 1 -0.283324 -10.1056 -9.38311 1.49468 2.61266 -3.00597
3016 1 18.4043 -12.745 -21.8037 3.69377 2.37852 -2.66853
3032 1 18.3051 -8.14447 -4.06099 8.72205 -0.801642 2.08384
3043 1 7.39485 -11.2934 -16.559 2.83364 -1.12343 0.31338
3046 1 16.7874 -8.48177 -16.8727 0.00624423 -6.00245 -3.00567
2364 1 1.12989 -2.62329 -1.34956 -3.54715 2.84327 -4.58601
3065 1 6.76144 -11.1973 -11.6092 3.12941 1.31989 -0.742931
3069 1 7.36715 -8.04784 -6.17956 -0.57122 -0.467336 -2.56833
3335 1 22.7246 -0.408449 -3.39815 -4.48221 -0.842045 -4.73179
3079 1 13.4959 -4.27163 -3.63206 -2.14516 -3.04725 -2.64587
3083 1 8.33061 -14.1896 -9.67146 -5.58404 3.79437 1.1072
3090 1 15.2724 -1.57092 -6.81845 0.487973 3.02405 0.486261
905 1 21.1352 -6.82502 -22.9891 -3.05266 -3.93613 0.860253
3100 1 17.1101 -8.37506 -20.5025 -0.562572 -0.148592 -1.44253
3106 1 2.42638 -10.4603 -8.32506 -0.856828 5.74168 0.726202
3108 1 8.23263 -16.7949 -5.53918 3.47998 3.44263 -2.56384
3111 1 8.52472 -20.1796 -19.18 -1.55825 -0.155926 -1.63945
3935 1 9.04833 -14.0907 -19.0708 -1.37385 1.21445 -3.64619
3113 1 11.0428 -9.4131 -16.8842 -2.01264 0.135687 0.728433
3114 1 4.64573 7.41835 -16.3141 -0.287523 -4.90442 -3.37578
3117 1 14.7781 -10.1059 -4.41978 -0.00584133 4.15472 2.25593
2150 1 19.3442 -9.20342 -0.237368 -3.46072 -3.00355 0.0472859
3128 1 1.4096 10.6973 -14.3871 -0.0979857 7.54389 5.58195
3134 1 19.6564 5.49927 -1.97976 1.60717 -1.86015 -1.26179
3137 1 5.58995 -1.85843 -17.6093 0.366571 4.63448 -0.403699
3975 1 2.84671 1.20409 -21.2013 -3.18292 5.98083 -1.42665
2271 1 22.4978 -17.251 -8.81251 1.41189 -1.42391 -2.75354
3141 1 10.8948 -2.44529 -7.35922 1.85914 0.449528 3.19935
3149 1 9.91921 8.47498 -17.6465 -0.679167 -1.75389 2.28163
1410 1 0.0395624 -17.8324 -16.0121 2.63603 2.30691 6.76471
3158 1 18.826 -19.83 -7.75959 2.05316 -1.4559 2.23843
3159 1 19.54 4.92846 -6.35085 3.64951 -1.59313 2.42235
3167 1 20.1899 -16.7617 -20.0105 -1.77935 1.58797 -1.74734
3169 1 12.4977 -22.4815 -18.2943 -0.969766 3.62947 -0.975345
3175 1 19.1946 2.58955 -1.8674 -4.56388 -3.49736 -4.40806
2318 1 22.7195 -8.68863 -6.0313 1.8822 -0.377341 3.11654
3191 1 7.80881 -5.60088 -9.71942 -0.175871 1.19848 -1.07285
3870 1 15.1662 -19.2866 -10.4099 -3.97129 -2.1284 -1.16886
3198 1 8.11753 2.71155 -17.8424 -0.724112 2.28811 -3.633
3375 1 20.8646 -11.7917 -0.936895 -2.90189 -0.777285 -2.61837
3234 1 12.9252 -6.44462 -13.0976 -1.59562 -4.5073 1.73852
3242 1 21.2855 -9.26146 -16.3268 -1.24224 0.0146531 -4.57915
3250 1 14.9479 5.55627 -16.7096 0.364023 -0.244107 -1.41896
3254 1 19.5888 4.29698 -9.18266 4.49667 -3.46992 0.214096
3954 1 3.96207 4.8764 -17.4021 -5.9761 -2.03 0.167341
3265 1 8.06284 -3.09623 -17.3722 3.61122 1.37796 0.662385
3278 1 1.223 -5.88813 -22.523 -1.16109 4.45705 -2.0277
3282 1 3.15978 1.92556 -15.4433 -6.6475 -5.18859 9.21654
2434 1 0.776009 -22.4056 -0.817131 5.82993 1.8336 3.86197
3298 1 6.83382 -8.55797 -15.8201 -1.86912 -2.29392 -2.62104
3319 1 0.962331 3.06641 -16.731 1.0343 -1.89208 1.21495
3949 1 2.94317 -14.1541 -14.6896 -2.10516 -1.76406 -0.363381
3305 1 3.7525 9.4363 -5.58224 -2.67572 4.42347 2.94904
3311 1 9.59719 5.89554 -10.4673 8.68194 -3.38637 0.859786
3315 1 21.8491 -12.1292 -19.9456 -0.489624 3.55389 0.901002
3316 1 4.52077 -5.16481 -7.07977 -1.82883 -0.222485 -4.49761
2832 1 23.0718 -18.0068 -3.8509 8.36774 0.0102019 1.62411
3320 1 5.53963 7.76468 -9.51222 4.86919 -2.26294 -6.69263
3887 1 3.25841 -10.7112 -18.6932 -6.55374 -1.16085 4.15101
3324 1 13.578 -16.9434 -10.8136 5.23904 2.78148 -2.20215
3327 1 7.3867 -22.8685 -6.20977 -0.78109 -2.75371 2.83774
3328 1 0.426936 -15.8009 -11.9965 -1.27299 -4.73183 -2.20042
3329 1 12.6825 7.83518 -16.6051 -0.129267 -0.780581 2.45242
2641 1 22.0643 7.75437 -14.18 0.172014 1.05409 -1.32429
3340 1 17.8259 2.45995 -20.5334 -3.74921 0.227574 4.43669
3363 1 15.2179 -3.02821 -14.0767 1.58552 -2.66165 3.41175
3367 1 1.41127 -21.671 -18.1517 -4.23253 8.34473 2.46082
3372 1 5.95082 -0.923227 -9.03245 -1.11364 -3.14327 -1.08073
3374 1 21.9817 -14.77 -20.8237 -0.703477 -2.45342 4.14106
3384 1 16.3119 -18.6156 -14.771 -3.26621 -0.0726863 2.40197
3386 1 10.2476 -11.0606 -21.9506 1.76815 -1.9686 -1.92122
3400 1 15.9891 -23.5837 -22.3092 4.90463 -0.231861 4.42248
3402 1 11.5951 -17.3173 -20.4551 -2.19761 -4.04169 2.4946
3407 1 9.52946 -2.57369 -12.1021 -3.02409 0.590647 -2.96635
3412 1 7.05043 -2.99637 -10.6108 -4.18644 -3.62034 3.27787
3416 1 19.9251 -20.6573 -5.10556 -4.20836 2.60574 0.324122
3422 1 6.96229 -14.6764 -1.5434 4.33121 3.52329 2.01997
3441 1 5.67365 -16.1264 -6.3055 -0.0581635 2.19247 -3.85181
3451 1 5.15668 -12.882 -17.6752 -1.70678 -2.07907 1.83601
1517 1 23.5475 -14.7639 -9.78029 1.43279 -2.73256 2.81485
3458 1 13.1495 6.24571 -21.7172 -4.10626 -4.46704 -5.74592
3463 1 21.5026 5.69366 -23.0701 -2.20331 0.0193407 -5.66213
3126 1 0.193076 8.57487 -7.58809 -4.70024 -1.35952 -3.16426
3485 1 0.933154 7.6974 -3.27637 -1.93202 0.564755 -0.6034
3487 1 12.26 -11.2797 -13.2123 -1.11222 0.715143 -3.02977
3489 1 20.1351 2.1459 -6.43149 0.716048 -3.45473 -0.447218
3868 1 5.26491 9.34824 -0.696692 1.44953 0.132683 -3.59666
3507 1 7.63478 9.65308 -8.96286 -3.76635 0.276309 1.54941
3860 1 13.0248 -16.489 -16.2575 6.57413 3.76266 0.151542
3535 1 10.2289 -18.8782 -17.4169 -2.49248 2.75028 -2.40287
3541 1 12.4361 -0.0273026 -22.1336 1.99692 1.4087 -4.00082
3547 1 9.1452 -18.7813 -7.15057 3.13924 -2.64778 1.44831
3548 1 7.37932 -11.7789 -19.4645 -2.26773 -2.53416 -3.35958
3551 1 11.4151 2.37172 -20.9569 -0.94453 -2.93883 -0.522349
3557 1 7.66254 5.63194 -17.6079 1.08027 -2.52574 0.345446
3563 1 0.537607 -22.8877 -6.60239 5.28017 -0.257299 3.96353
3992 1 21.2046 7.95336 -3.00284 -2.43352 1.80064 1.75963
3565 1 16.467 -17.2806 -6.00597 0.522544 0.745309 0.439918
3573 1 18.4201 -0.827703 -2.30512 -2.07652 4.02929 -1.44681
3586 1 14.4388 1.26517 -6.64076 -2.75123 -3.19082 0.446541
3914 1 11.7775 -10.6609 -4.17341 -1.75478 4.39607 0.720295
3590 1 10.372 0.814181 -5.32729 -1.88599 -3.41948 1.21123
3593 1 14.2769 -7.47572 -15.5489 2.4264 5.59714 -5.40112
3606 1 1.79895 8.74855 -12.2135 -2.39827 -1.92275 -0.790499
2659 1 16.4007 -3.93916 -23.4935 -1.41958 -2.47289 2.73847
3617 1 14.8114 1.05667 -20.092 0.899812 0.259359 -1.07355
2516 1 4.08215 11.038 -19.2232 -1.00734 -0.375535 2.3902
3630 1 6.90056 -9.47586 -1.22291 -1.79488 -1.42748 -2.70432
3633 1 10.2686 9.14513 -3.70144 3.74938 1.79859 1.38683
2856 1 15.6248 -15.2806 -0.172667 -0.672079 1.7213 -3.3408
3636 1 5.74477 -18.2898 -14.1385 1.59028 -3.53783 1.43661
3640 1 17.1589 -17.5532 -11.2647 -3.49199 1.55906 -3.26957
3646 1 16.6513 3.96755 -18.2385 3.51561 1.00746 -2.32217
1549 1 1.9333 -3.06511 -15.6882 -1.1598 -0.958275 -2.03447
3650 1 7.47649 -6.22577 -17.5533 0.99931 1.0778 1.65626
3659 1 19.2181 6.78239 -20.1517 -2.86858 5.17633 2.217
2874 1 1.44152 -10.9659 -12.8339 0.590575 1.67276 0.771833
3884 1 12.1024 -18.0546 -6.92677 -2.1592 -1.91931 2.84248
3665 1 10.2187 -6.61674 -17.9711 2.49936 2.49015 0.520064
3957 1 18.0393 -23.4358 -18.5161 -1.53099 2.18644 -1.76632
3670 1 13.7904 4.90826 -9.68056 0.837225 -5.65658 -2.35406
3679 1 9.54502 -20.9311 -5.22193 -5.30416 -0.375804 6.63275
3982 1 9.24107 -4.50309 -3.48119 -0.986272 1.05073 -4.07939
3692 1 8.43596 1.72661 -20.5604 0.79158 -5.31883 -0.51537
3696 1 8.35203 1.39835 -15.5964 -6.03588 -4.22651 -2.44272
3707 1 18.1614 4.91671 -13.6618 -6.39462 3.20753 1.66829
2813 1 -0.194206 -7.89316 -17.9409 -1.81094 2.58503 -4.05573
3723 1 8.54635 3.67886 -13.6737 1.63833 0.392166 -2.15616
3727 1 4.02409 -11.2839 -21.701 1.83638 3.19452 -2.11661
3731 1 4.38896 -18.2143 -21.3799 -1.21293 2.82943 4.6747
3733 1 4.05501 -14.388 -0.762002 3.51424 6.17054 1.1465
3740 1 5.56725 0.751408 -20.7617 0.438721 -2.27264 1.03951
3746 1 5.36453 -21.1627 -4.78877 -2.20163 4.38424 0.502443
1295 1 13.9241 6.42304 -2.17531 -1.54673 -4.16427 1.91302
3755 1 17.3318 7.43334 -9.15852 -0.388192 2.0184 -1.4024
3758 1 20.7146 -6.60224 -17.8321 -1.60346 -0.464568 -1.81204
3761 1 19.1277 -12.2773 -18.8526 0.00688031 4.36703 2.59117
3772 1 14.1316 -13.6283 -1.73087 -1.95355 0.1329 -2.68399
3775 1 3.36813 -0.0482998 -9.41938 0.578837 -1.38149 -3.7528
1411 1 19.4265 1.06468 -23.8691 -0.240667 2.45354 2.31971
3782 1 2.38785 -13.6122 -17.7958 1.24605 -2.44661 -0.773185
3790 1 4.77354 -18.541 -3.49545 -0.282909 1.09821 2.49912
3916 1 20.8857 -11.2638 -22.6397 -5.31421 -4.63295 2.75037
3800 1 14.9638 -0.196293 -1.85457 2.70269 0.786305 7.96012
3856 1 12.9627 -18.0062 -3.18543 -5.73872 0.973988 5.15103
3666 1 1.33779 -17.14 -23.0657 3.58578 1.40257 0.673876
732 1 13.5323 -23.8576 -7.1783 -1.44094 -0.961143 -0.980586
3107 1 21.4698 -13.8094 -23.5524 0.511027 1.35735 4.06667
1366 1 20.6021 -14.6889 -0.167387 2.99135 5.37173 -0.673337
3902 1 11.9386 11.2607 -7.15911 -0.877793 2.95542 0.784429
3872 1 20.7636 -24.3848 -8.13173 -3.98233 2.83818 -0.814494
3347 1 23.494 11.102 -14.2057 -1.71784 -0.979257 -2.17173
1015 1 0.705924 4.52381 -23.6681 -5.11242 -1.98807 -1.95195
3424 1 0.7161 -9.82484 -0.109986 -0.438608 3.83277 1.92664
850 1 17.0584 -21.1382 -24.039 -3.84764 2.33398 1.50344
2371 1 16.1717 -18.5329 0.155341 1.90795 2.56626 4.40672
2035 1 13.6091 -14.5903 -23.8825 -3.46272 -2.11309 -2.56723
3879 1 18.8518 -14.6541 -23.9182 1.95877 0.636448 -1.55247
1185 1 13.3667 4.57618 21.4646 0.322695 -2.83941 4.01185
2245 1 23.4721 -20.6417 8.59571 -1.23476 -2.56823 0.0927647
1213 1 22.7039 -13.0966 22.1645 -5.52176 0.694636 3.63177
11 1 8.16712 -13.0105 17.287 0.291711 3.07093 -3.92278
17 1 16.2602 -8.54084 17.1153 5.25269 -3.26578 -0.11941
20 1 20.8427 1.62712 21.7988 3.72341 -0.818273 -0.640704
35 1 19.1885 1.73913 11.0508 -6.9007 2.79855 -10.1824
10 1 1.77241 -6.64958 15.4294 -1.33867 -1.97944 2.75338
50 1 16.0643 -19.2986 13.5578 -1.05551 1.75225 -0.951064
65 1 18.5505 -1.7706 6.70307 -0.162844 -8.8575 -0.256459
82 1 6.64205 -23.7629 4.95806 4.82801 -4.77934 -0.166836
86 1 15.0566 6.54072 17.1481 -2.27223 -0.869885 0.152666
90 1 9.27779 -4.81825 6.58725 -1.1442 -1.46995 1.75867
102 1 3.17181 3.84491 4.88208 -4.01371 4.88266 -2.33634
106 1 14.865 5.23835 7.76356 -1.42502 5.20372 0.497041
107 1 18.9849 -4.17596 18.3751 3.12685 -0.126928 5.34672
2868 1 2.32205 -21.6221 22.4413 2.29882 -0.67942 -2.44383
120 1 2.94975 -1.5714 17.4767 -2.51084 1.79413 0.258183
2840 1 5.14651 -18.4636 23.9823 -3.62366 0.301054 0.0357068
127 1 10.5256 2.70108 11.0341 -3.77607 -2.40763 -3.8748
129 1 16.7275 -11.1428 3.79783 3.35982 -3.95497 4.32604
140 1 4.45867 -4.81419 20.7025 4.80372 0.207585 0.769433
141 1 10.4691 -16.4771 3.35733 -1.88334 4.1677 -3.90739
142 1 13.452 1.68018 20.9803 -2.21822 -0.12149 1.28546
145 1 17.1671 6.67355 19.0847 -1.78141 -0.522504 0.400051
282 1 12.8155 11.1476 13.6724 2.6837 2.28807 1.57094
151 1 20.4136 -1.07935 21.3446 -1.12315 0.955362 -3.70782
156 1 14.0284 8.66204 19.2245 5.64193 2.24927 0.999776
158 1 8.19589 6.89002 0.180268 0.443066 2.42218 2.52087
163 1 2.33201 0.0481213 14.3041 1.93422 -0.444461 -1.41132
164 1 20.9843 8.8199 9.85667 -3.14514 5.00627 2.25114
193 1 7.24321 1.25867 4.07397 2.98814 -0.690302 -4.40805
205 1 20.5426 -7.07167 11.1366 1.39144 -0.0772704 -0.692299
208 1 2.19086 -4.55949 17.4841 -6.48185 -1.3079 2.88006
211 1 15.0202 1.22177 5.74831 -0.031479 1.97994 2.98617
236 1 17.2504 -8.93475 7.90558 0.00730756 0.878636 2.5118
3533 1 18.2271 10.4961 2.78082 -3.2879 -1.04866 1.58177
240 1 8.62175 2.86627 14.6731 4.13294 5.19574 -1.5009
246 1 9.78103 3.54429 20.5348 4.1526 2.48187 1.55716
1722 1 18.6209 -24.6048 18.8429 -0.638039 -5.40604 3.00509
1332 1 12.8765 -23.3505 23.0434 1.02454 -0.458207 0.356254
272 1 13.9824 -18.3795 11.3855 -3.24365 4.65942 1.49523
274 1 12.1822 -12.3421 9.85868 -3.9432 -4.38762 0.871348
278 1 20.2575 9.5166 16.4761 -1.37696 3.34539 1.37892
3584 1 6.91407 5.1282 23.5759 -1.59114 2.21411 -0.560989
1777 1 23.0676 -11.6531 17.6224 -0.0926241 -1.41075 3.73624
293 1 17.5972 2.06546 14.2787 -1.22384 -4.36336 0.152893
3039 1 16.7031 -23.701 20.5841 -2.61099 1.69603 2.83976
300 1 15.0296 -1.85741 15.3527 -0.237245 -6.18018 1.87327
305 1 2.9622 -18.7711 19.861 -2.65188 4.92267 3.90066
309 1 6.52266 -18.5733 17.1614 2.12634 0.596054 0.925295
311 1 13.6511 -9.94016 1.93159 2.98903 3.34045 -1.07268
3096 1 4.96701 7.17992 23.6537 3.92391 6.33892 -0.55712
318 1 20.1346 -19.1161 18.2281 1.71015 -1.96632 -3.37406
3342 1 0.113946 3.55538 2.55758 -0.0641195 2.70895 -3.18562
331 1 11.497 8.15476 2.71094 -4.95896 -0.337087 -0.777926
335 1 23.053 -22.493 5.0659 -2.93973 1.26596 1.69831
338 1 5.28386 -9.20916 16.276 0.783475 0.317552 -2.86113
346 1 17.6093 3.19436 2.9621 -2.38495 -0.613024 1.43232
347 1 21.8841 -6.97402 8.69069 -5.96152 1.84025 5.96254
1936 1 20.6007 -22.1378 23.1499 -0.235334 -6.31488 -4.54683
358 1 20.8847 -12.2983 13.5507 2.21041 3.46778 3.5842
368 1 5.00599 -5.98817 10.0576 -1.90097 2.95733 0.464201
377 1 16.4123 0.864797 11.7124 2.7255 -0.377976 0.468222
2146 1 3.35521 10.7424 17.5288 -1.72663 0.421294 1.31649
387 1 5.27468 -20.8513 2.29758 2.37884 1.47006 -6.66869
390 1 11.3089 7.57042 7.16604 -0.251027 -5.79209 -2.67669
391 1 19.4717 2.688 17.2253 0.924911 1.58511 -6.48068
392 1 19.6579 -10.8513 17.335 -1.70291 -6.76817 1.4854
2604 1 12.4533 -12.2162 0.274683 2.11887 -2.14567 -2.97073
397 1 0.0451512 -19.3993 19.0278 0.449863 -1.00222 -0.807131
3314 1 0.443941 -3.64964 9.99762 1.71538 -4.07276 -2.96288
407 1 5.51245 -12.1318 16.3537 5.13505 -2.27756 -0.000274678
1682 1 4.06504 10.9701 1.6152 -0.509198 1.11727 0.384009
432 1 6.86442 -3.62173 12.0507 1.76149 1.29614 2.3175
442 1 4.5846 3.6784 14.6791 5.07195 2.81441 -0.324944
450 1 14.7922 -19.1803 7.44749 -3.42652 2.23973 -0.128533
455 1 14.0051 -14.3364 14.0674 4.1544 -4.90524 0.183759
3813 1 15.4373 4.68664 0.437345 0.542048 2.21309 7.70123
295 1 0.566044 7.61931 10.178 4.06442 0.925453 -6.56049
479 1 17.5794 -17.3488 15.4134 2.70967 4.63661 -3.85145
480 1 1.15585 -9.49533 10.0111 1.85178 -0.877209 -2.59119
2635 1 0.360124 10.163 20.5392 -1.4206 -3.80136 -1.16348
494 1 5.92996 3.8184 3.92276 -0.469557 0.0996029 -1.93301
502 1 14.1206 -14.1006 18.6064 0.179472 4.43897 2.76157
510 1 7.1111 -16.2426 13.0973 0.135362 4.54284 -2.05707
511 1 8.11202 -13.3866 4.88751 5.23425 5.29727 0.75427
512 1 1.54012 -5.60057 20.3213 -1.86766 1.44299 2.25651
1394 1 0.472215 6.47592 0.506454 3.83724 1.75116 7.65977
522 1 4.67003 -17.7847 8.26918 0.741278 -0.823106 -1.32134
2884 1 8.71884 -7.3 23.6104 4.00478 -2.54025 -2.36942
3865 1 1.40958 -24.187 16.2855 -0.0977046 0.196556 -1.00513
365 1 1.18915 -14.6255 18.2435 2.60966 0.339076 0.808296
537 1 9.94126 -5.42266 3.91316 -0.357306 -8.43729 -1.9456
2861 1 13.987 9.71969 21.9162 -6.27377 -4.189 -3.32743
548 1 9.34163 2.41876 17.8892 3.01917 4.03238 -5.76728
561 1 7.31877 -20.5872 19.3135 -5.21544 -4.44525 -0.499397
563 1 5.86618 -22.2736 8.96681 -2.99834 -5.51202 -4.18447
565 1 14.6001 -21.0334 22.595 -4.924 -2.28797 -1.2166
568 1 6.96818 -6.85304 8.28701 -7.69079 -3.27748 3.88548
3054 1 21.0107 -3.13601 23.1258 -5.88141 2.2675 1.49686
572 1 11.2682 -23.9346 3.96568 -1.14319 0.300756 -3.67567
573 1 18.3742 -6.57557 6.63036 4.0818 -2.85356 -0.503992
576 1 21.5568 0.776469 17.5729 -3.44176 1.87111 3.95016
591 1 22.0649 -19.8362 12.7364 -2.10698 1.35276 0.0385203
598 1 15.5594 -13.4966 5.20902 -5.49198 2.02841 -0.442497
599 1 8.97389 -14.7966 14.8552 -1.44455 -4.60386 -1.74402
923 1 5.06471 -10.8248 0.965781 -0.834459 2.56071 0.808732
609 1 10.866 -20.296 22.4162 1.66088 1.23006 3.46563
610 1 16.4473 -4.5874 14.2954 2.46001 -0.380503 2.12392
615 1 10.3973 -0.272095 17.5651 3.28497 0.24362 2.52404
616 1 13.9689 -3.98523 20.6403 0.232035 -2.34989 -3.0433
618 1 13.3178 7.16638 9.07804 -2.09033 0.280354 -4.10201
619 1 15.9561 3.15099 9.5043 -2.33329 -1.54485 -2.58095
623 1 22.4749 -14.2228 6.12833 1.30786 0.678199 -3.42276
640 1 1.85732 1.42197 3.86912 4.24711 -2.72814 0.888168
643 1 10.7877 -19.2228 7.80239 -6.9468 0.0430854 -1.86371
649 1 12.284 -15.4858 20.3462 -3.01363 -1.98588 0.422909
659 1 7.80165 -0.531413 19.4934 0.334921 -0.434019 -3.11576
660 1 9.45621 5.33946 7.41803 -1.47451 -1.47584 -1.51384
662 1 3.42703 -6.32779 7.75014 -3.82703 5.0812 -1.25236
669 1 9.85851 -16.9416 11.7964 -2.36128 1.51042 0.572079
676 1 6.85986 3.48659 16.7094 0.0263431 -0.760175 -5.75521
685 1 21.2626 -0.290565 8.76621 1.46006 -1.67309 4.04307
1168 1 12.841 -7.90251 0.25064 -1.65373 -0.698609 -1.92862
694 1 7.88746 -17.4928 2.26044 -4.79539 0.884971 -2.21095
701 1 17.2185 1.62349 7.57847 2.49597 -0.116644 -0.116991
706 1 3.54144 -0.112612 19.9049 -0.208041 1.86759 -1.37841
712 1 5.475 -9.36285 12.8782 -2.04382 4.19365 0.179496
713 1 2.35338 5.74063 3.05904 0.452421 1.11844 -2.88503
719 1 14.454 -5.88806 9.74286 -0.141302 6.55496 -1.07267
735 1 15.9205 9.40615 5.42535 -2.72571 -2.15906 -4.56401
737 1 20.2698 -16.3103 5.47169 -1.30642 3.37485 0.55545
747 1 11.2559 -9.83321 3.62945 -2.77174 0.308579 0.718056
752 1 21.5305 -18.6578 4.70866 2.58543 5.02197 2.57572
760 1 0.314091 5.071 12.97 -1.07428 -0.0359002 0.0876946
763 1 19.0045 6.70962 8.84502 3.28964 0.47697 1.28711
764 1 21.6441 3.87236 6.96433 -3.42736 -2.70977 -0.656604
1209 1 3.3975 -5.342 23.5436 -3.66199 -5.32628 0.101971
771 1 12.2504 -14.7837 11.41 -2.35648 -3.61224 -1.27085
772 1 4.95327 7.49832 6.41781 -0.755429 0.737056 -0.386004
773 1 11.0461 -20.9514 11.6177 4.54162 -2.80538 6.68004
3189 1 13.4517 10.3737 6.79525 3.56477 0.62025 -0.251568
783 1 5.59342 -16.6222 21.9611 2.74223 -1.00363 0.680184
790 1 4.83624 1.17612 13.5654 0.131589 -0.0950921 -4.52341
2639 1 1.58942 -7.90704 18.2721 1.16354 5.24172 3.46313
795 1 19.5773 -8.01377 20.7859 -0.882597 -0.174217 4.10148
816 1 19.9436 -22.0361 19.3559 3.32644 -1.81057 -2.68826
817 1 9.57303 -12.015 14.7552 -1.87389 2.81358 -2.25993
822 1 22.8498 -15.9923 15.7812 -1.90556 3.56817 -4.06521
823 1 8.38287 -9.55125 2.68441 -2.09541 0.0796032 2.0975
197 1 23.4508 -4.06571 22.0488 1.75695 0.74215 -2.90651
836 1 8.58251 -14.8588 20.9823 0.143982 -1.88342 0.09404
838 1 22.0812 -20.758 2.69996 0.184416 2.62086 -0.551798
840 1 3.81853 -17.6281 13.9954 6.27238 -3.62065 -4.21536
841 1 21.6035 2.39104 9.51767 0.132485 -4.46121 2.22455
843 1 20.859 -7.95314 17.9096 3.55985 3.4071 5.36636
858 1 18.1499 -12.8373 14.3451 -0.0548631 4.2179 -0.492738
863 1 15.9954 -16.5935 5.43949 4.39116 1.33675 -4.51066
3153 1 15.3336 6.09615 23.0978 1.35937 2.16982 -0.462959
866 1 13.5723 -2.76739 17.947 -3.08047 1.19923 -2.18271
2043 1 18.3405 10.1518 10.4894 -3.02013 4.28455 1.55884
877 1 4.17229 -17.4589 16.7636 -3.16295 0.0857476 3.78861
887 1 9.65791 -21.9528 18.7813 -2.15737 -1.47015 0.508975
890 1 13.8983 -19.5962 15.4725 -2.29762 -3.67234 -1.05609
893 1 21.748 -5.61059 1.10239 -2.89926 -2.91537 -2.91002
895 1 2.96346 -23.5544 4.95822 0.274838 -1.40557 1.49745
896 1 10.6718 -3.21667 18.0447 -8.19336 -1.79918 -0.0927042
899 1 15.2083 -19.711 18.3055 -1.88464 2.60284 1.28324
901 1 0.893095 -18.7566 8.73047 -2.35441 0.626147 1.80176
1403 1 14.7378 -23.2469 17.2187 -1.94578 5.01724 6.05102
909 1 16.669 -21.5146 11.7235 -3.29571 -2.55594 -0.253032
1719 1 19.9545 6.8939 0.420865 3.69479 0.453631 -0.265084
926 1 2.1417 -16.5257 7.41209 4.25025 -0.71215 -3.94309
928 1 9.39968 -19.1818 10.1303 3.37897 2.17823 -0.718075
938 1 19.301 9.86782 5.32416 -2.31085 0.906039 -1.23409
943 1 18.9976 -4.85216 0.766191 2.57931 -1.1226 5.11788
945 1 4.85846 -21.0772 17.5327 0.771372 -2.31549 -0.226294
953 1 17.7117 -2.15386 1.95475 0.981958 -3.46245 -0.40975
969 1 15.971 -21.039 1.03678 0.642442 3.79089 1.95052
971 1 14.1603 -5.25419 23.1227 -3.8801 0.197432 3.54264
977 1 3.13255 -23.7888 14.1274 -1.64126 -2.60198 0.317455
990 1 12.7777 -7.77056 13.0549 -1.26724 0.0515685 1.0772
3875 1 23.0082 -0.402021 6.37875 -4.42916 0.168037 -6.57677
1003 1 13.6059 -16.2208 9.49515 -0.439644 2.61725 1.39858
1007 1 12.8282 -0.177395 18.8078 4.13933 1.50719 4.46517
1008 1 4.46251 -3.69945 13.8021 -2.1564 2.35867 0.522289
1009 1 9.11413 -15.8703 6.08814 -5.84029 -1.48745 1.54914
1013 1 4.90872 -17.6956 2.20258 3.31664 5.18597 2.08985
1023 1 11.7361 -1.13793 4.74368 -1.21837 3.29203 -2.42671
1032 1 12.2529 6.99947 20.43 -3.99719 -1.0827 3.17981
1036 1 6.20181 -13.2377 20.2447 0.876345 0.0862822 1.73618
38 1 21.38 11.102 7.92947 -3.43264 -0.894728 -3.12778
482 1 23.7165 -3.55564 19.1446 1.87597 3.29447 1.67538
1051 1 4.54516 -0.331857 8.70295 -1.2602 1.65098 -0.667541
1064 1 13.1001 -16.3264 4.98451 -1.96392 2.3113 2.7262
1078 1 10.5686 -8.32466 11.2396 -2.04035 -3.04435 1.00884
1081 1 7.73735 -8.88372 17.7967 -2.90916 -0.787206 2.07354
1093 1 22.4313 9.06953 3.41061 -1.50648 -0.54138 -0.76039
1099 1 15.4523 10.1537 14.7662 -1.77165 0.223456 -0.667801
1100 1 11.3258 -5.14185 20.5754 0.605465 -0.757586 0.505341
1101 1 5.4394 -15.5386 10.0953 0.503886 3.33678 -0.0403595
1102 1 15.2187 -15.3833 16.2563 -0.0729828 0.208676 2.36067
2383 1 23.6996 -17.7124 6.38511 1.97192 -1.93669 0.301016
1107 1 4.8476 -13.803 1.89764 -4.55599 -2.64597 2.57022
1111 1 13.368 -8.49607 9.5184 1.8307 2.5147 1.82789
1119 1 9.10518 -9.80257 5.66924 -3.67408 -0.667408 1.50206
1132 1 21.3701 -5.41188 19.3778 -2.2508 5.7697 1.77639
1134 1 14.4029 -21.9982 19.8042 0.635415 2.84116 -1.07281
39 1 3.76179 7.52688 21.0559 -1.86907 -4.23528 0.0678583
1137 1 4.65346 5.01095 1.59617 -5.26111 -0.546268 3.91051
316 1 23.7311 -6.48558 3.0713 4.26779 1.75054 3.27971
465 1 -0.327436 -12.6183 3.01447 1.30373 -1.07015 5.96899
1155 1 7.65936 -18.4831 14.7436 2.74691 3.47682 -1.04303
1159 1 21.8647 -4.3609 14.0393 -2.86087 -1.10784 -0.354305
1162 1 9.31023 9.16874 1.30747 -2.82117 2.54431 2.68934
1169 1 12.3344 -5.09981 16.4715 -3.54098 -0.660353 4.9178
1173 1 7.69385 -18.4317 21.1921 -0.926004 -1.84957 -0.515988
2607 1 11.6844 0.880681 23.0985 -1.05243 -0.0188616 3.67026
1800 1 0.103548 3.0343 9.51988 3.20882 -2.10767 -0.527334
3753 1 6.88878 -2.71516 23.5213 -4.91892 2.35737 2.82474
3822 1 8.85209 7.71366 9.09892 -0.914165 -0.972822 3.35661
1193 1 10.169 -6.44021 13.3205 -1.50529 -0.379102 2.39178
1198 1 20.857 -22.4689 12.598 -0.411731 -0.52693 0.0316376
1200 1 12.789 -10.5032 11.7245 3.81229 -1.90236 -2.52037
1201 1 22.6871 -18.6288 19.3325 -2.30229 -2.90224 0.358797
1811 1 0.130246 4.27438 19.9655 6.02598 -0.277156 0.730549
2125 1 0.369718 -15.0367 15.2967 1.30844 2.58364 -4.09878
3996 1 6.28042 -15.4658 3.76118 5.91753 -1.57618 3.88678
1217 1 16.2677 -13.9073 2.29069 -0.201409 5.77185 3.81431
3241 1 -0.45824 -20.7509 16.5173 -0.476209 3.6938 0.353918
1224 1 16.9753 -7.04567 12.7627 -2.33151 -0.0683492 -6.06975
3179 1 1.24839 0.726046 18.1933 1.39039 0.794942 0.0152363
1135 1 5.83431 -2.02287 20.7852 -1.5377 1.40895 -4.34871
1248 1 7.41151 6.19357 17.4917 0.695883 1.34928 4.61399
1250 1 5.67869 1.73921 19.0238 4.83411 1.78443 2.96626
1251 1 22.0518 -1.21918 19.2547 -0.680976 -7.01155 -1.93349
1252 1 18.4818 -18.6427 1.47498 -2.30793 2.94233 1.95637
1259 1 19.5015 -10.0867 6.3642 3.46152 -5.38885 6.35109
1266 1 14.8874 -9.08651 4.39187 -5.72301 -2.90137 0.0990825
498 1 23.0339 1.11241 23.6281 0.785728 2.83424 -3.99746
1269 1 8.91756 -5.53023 18.9079 -0.790163 -1.1212 -1.58139
3037 1 0.551559 -10.0723 3.90178 1.27847 2.75377 1.84038
1273 1 21.2459 5.62885 22.2885 -1.61925 4.07646 4.96414
1275 1 5.03746 4.81696 10.2949 0.280744 -4.57203 3.74367
1281 1 13.6572 -11.1183 18.5074 -6.14827 0.455194 -0.202202
1284 1 7.3887 -12.1551 2.17467 -0.328579 -5.17655 -1.31603
1287 1 10.4341 -17.3794 17.9398 4.13889 3.42983 -0.937554
1924 1 22.8812 -16.2693 0.685556 -3.08755 0.995417 0.559705
1323 1 15.4123 -8.97519 14.2699 2.18695 -1.35086 2.54828
2366 1 9.9976 5.67373 2.14525 1.65819 -6.53775 -2.48282
776 1 9.06855 -0.526428 22.9505 -1.6388 -0.245607 2.75386
1337 1 8.64634 -23.3704 9.22471 2.66174 3.28954 0.0555612
1339 1 2.88715 -14.2015 20.7671 -0.807452 -1.50744 1.91986
1341 1 2.51297 9.99645 13.0258 -1.41184 -1.25951 -2.87267
1344 1 19.0287 -9.47539 3.58342 -0.34702 0.837162 0.896114
1349 1 2.20211 -13.8114 8.55832 -0.321684 2.82554 3.44284
1351 1 17.5211 -17.4856 18.4052 -0.987173 3.19876 -0.429834
1360 1 18.2608 -13.0408 8.48042 -5.03482 -3.4142 -0.553174
3680 1 11.0878 3.73658 22.9699 2.66302 -1.29399 1.23455
1370 1 5.14669 -13.8833 22.7428 -5.20857 -1.98087 -2.43433
1375 1 16.9283 -7.33998 4.11563 -4.71307 -0.816287 -1.37112
2948 1 0.429872 -18.454 1.39933 -0.237585 -4.60532 -3.46773
1382 1 15.8278 -14.2276 9.52251 3.24913 3.40832 5.77461
1388 1 17.7353 0.253882 17.3301 -1.5057 0.71965 -0.297337
1390 1 8.1885 -0.883229 11.9865 -5.68337 1.67418 -2.14972
1392 1 22.0312 4.17964 4.04137 2.43644 -2.38621 0.00968764
3728 1 14.5894 -8.19037 22.5242 -0.144409 5.97744 4.71284
2054 1 12.9717 5.03496 1.8552 0.852244 4.87802 -1.37115
2496 1 5.97011 2.51282 23.1628 2.1783 0.974946 3.00691
1404 1 21.6456 -11.6389 7.66994 -3.8572 4.89146 -4.27036
1417 1 12.6523 6.23752 11.6756 0.741525 2.67229 4.05248
3425 1 22.8444 -9.33587 19.4581 -5.88027 -3.52647 5.98492
1426 1 7.39944 -19.6531 3.97435 7.85395 -2.42094 -1.48246
1443 1 19.2856 -15.1098 18.2684 -0.440119 -3.48926 4.31813
1445 1 12.9672 -20.175 9.43105 0.397752 -1.26853 3.27218
1449 1 8.61193 -2.93462 3.30534 1.11355 3.30194 1.57134
1463 1 4.83803 -1.28976 15.3695 1.29697 -0.754054 0.85753
1464 1 5.17976 -19.3562 5.78044 -2.209 -2.3015 1.78697
3365 1 0.649492 -10.4577 12.854 -1.05216 3.07137 4.58411
874 1 10.4594 0.835933 0.891073 -3.91488 0.142098 1.52875
1479 1 10.987 -8.80013 7.80361 -1.53129 -4.29922 -0.654712
3199 1 14.3606 -24.7291 8.70949 5.78308 -3.15054 -3.7049
1499 1 16.5655 1.39753 21.1097 1.29896 1.18544 2.07811
571 1 0.925158 -11.0821 20.845 4.71461 2.8217 3.60105
700 1 2.02634 7.28602 23.6199 4.27667 -4.04472 -1.86738
1531 1 8.59245 -10.1701 10.5423 1.93169 0.583387 -2.54106
1535 1 3.32068 -7.77711 11.8828 -3.39119 -0.0920853 -3.03651
1543 1 0.534821 0.13861 12.2508 0.224454 -0.660281 -3.67901
1566 1 3.01427 -9.00506 7.87482 -0.822229 -1.9735 0.78787
1574 1 18.1264 -17.4279 3.83949 1.76656 -1.10113 -3.82835
1577 1 13.4679 -21.9126 4.85124 -0.915494 1.93245 -1.24036
1592 1 18.4096 7.35546 11.7842 -2.12882 1.26234 3.82269
1597 1 16.3314 -22.9358 4.71723 1.34861 1.62497 -6.57871
62 1 1.30265 -10.5023 16.6367 -3.03481 0.339889 -2.19925
1793 1 18.2889 5.75277 22.2377 -6.07469 -1.46375 -1.10633
1626 1 14.7158 0.62198 16.8285 5.82288 -2.19585 1.44591
1628 1 20.4105 2.14927 2.66516 -4.95633 1.75988 -1.38005
1630 1 10.2339 -8.03848 18.6206 -4.11948 -0.846501 -0.998995
1636 1 20.3025 -10.1512 11.3761 -0.367778 2.93591 0.438926
1641 1 19.7479 -12.6223 21.3461 -3.5973 1.14307 3.64666
1653 1 13.3368 -20.866 2.08333 -2.43612 -0.177222 -1.05539
1654 1 5.38953 -18.4821 11.5894 1.12518 -0.86328 -0.522966
1672 1 4.59193 10.5313 21.6766 -0.529748 1.32859 1.93704
1673 1 2.87948 -18.7585 4.249 8.02692 2.81664 1.2929
1675 1 0.830247 9.20846 14.9515 -3.23028 1.3871 3.65554
1524 1 0.846155 -19.4168 6.04782 0.460572 2.92315 -2.57875
3610 1 12.9754 8.06871 24.1044 3.17775 4.74386 1.97951
1686 1 11.9593 -9.37484 22.5377 -0.677007 -0.181184 -0.247999
238 1 16.101 -2.52304 22.0228 -3.44467 3.361 1.04168
1696 1 13.1908 -1.725 2.61564 -3.06903 2.25593 -0.818456
1699 1 12.6191 1.22982 14.9769 -0.516189 4.24108 1.64684
1702 1 2.2523 -21.6877 12.3776 -1.47611 4.20118 0.669717
1472 1 22.3779 5.1568 17.7106 -1.42164 -4.37164 -2.36733
1721 1 7.48007 1.89487 10.8806 0.192516 5.31625 -2.13731
516 1 8.23651 -23.3267 0.455527 -2.46116 -2.17831 -1.44324
1732 1 14.2144 -12.4665 7.88281 1.91361 -5.47802 0.259273
1736 1 18.1922 4.44296 10.7839 -5.97844 0.720551 0.477381
3132 1 2.91511 10.7132 4.52969 3.26726 2.13861 -3.54994
1743 1 18.8892 -16.2571 7.82479 4.3017 -2.49009 -2.09804
1749 1 21.9766 9.31462 14.1591 0.156161 3.16515 -0.72411
1751 1 2.85614 -9.31379 14.4418 -3.13282 -3.80623 -1.19157
1758 1 21.2053 -20.8986 6.7552 3.36991 0.450844 -2.97128
1188 1 3.18205 2.93534 0.749594 0.610093 -3.76861 -3.35492
1768 1 11.5074 -1.21893 9.1813 0.540529 -4.21168 -1.57664
2679 1 9.36965 -1.72125 0.834472 -2.7305 -0.557471 4.21729
1774 1 17.3409 -18.2063 23.4692 4.20693 -2.92442 0.949378
3908 1 23.0962 -15.9116 11.5041 4.58444 -3.8274 4.63671
1806 1 13.7615 -3.10657 13.2464 -5.89154 4.00786 0.789874
1808 1 20.9542 -12.9762 18.9658 -0.87156 2.703 -0.271247
3891 1 7.84312 -16.6014 18.7967 7.20785 4.48741 -1.8508
3536 1 23.1156 -15.9429 8.55823 -1.37326 -4.45512 1.3202
3850 1 20.4622 -19.2441 23.744 -1.52461 0.469397 1.53864
1826 1 19.8085 9.69675 0.475887 4.50201 2.89964 1.57976
1837 1 14.1697 -22.5983 10.4667 -1.7607 -1.2431 -3.35267
1842 1 10.9091 -19.1757 2.96723 -0.546431 -3.26591 -2.12413
1846 1 12.2162 -23.2804 6.97218 0.984215 0.568563 2.0219
1847 1 19.2976 -15.4771 21.3361 -0.289508 -6.2223 7.41304
1853 1 3.22712 -12.5187 6.17145 4.43462 6.30839 -3.95975
2042 1 5.77283 -21.3524 23.2475 -0.355217 1.49212 1.40047
2696 1 21.0014 -17.5972 21.3183 3.3407 -2.76605 -1.05082
1860 1 7.28457 0.37159 8.61637 1.42239 0.697589 -2.10802
1871 1 18.3571 -12.7275 5.7874 -1.28825 -5.61529 2.44617
1881 1 8.7422 6.11871 21.6017 -0.364492 -2.97811 -3.93161
1887 1 18.1897 -6.4708 17.172 -1.93322 -1.76633 -0.146442
1893 1 4.02531 -0.492019 22.7835 -1.07979 2.54077 -3.83586
1909 1 12.2226 -11.8971 14.1251 0.744124 -4.85967 1.29958
1914 1 20.0058 5.99377 5.45657 -6.03491 -4.53707 1.42883
3580 1 0.990304 -10.7446 6.4842 0.578198 -0.663341 -0.349922
1149 1 -0.487033 -12.223 8.93181 -5.66572 -0.760917 2.83191
601 1 1.03704 -3.03546 21.7989 4.05675 3.60448 1.47127
1935 1 19.0803 -15.0213 2.34112 -1.39579 0.532647 -3.36129
2385 1 0.488584 9.33285 3.42387 0.563108 1.29512 -3.85643
1937 1 2.25798 2.26576 16.1156 0.88662 1.05762 -7.71686
1938 1 1.73809 7.07483 16.6296 3.41533 0.352672 0.531792
552 1 2.92729 -16.9321 -0.123825 -3.16685 -0.685022 -1.06719
1954 1 6.20139 7.25065 10.7569 5.04077 1.60929 -2.88317
1958 1 14.6417 4.25781 15.087 0.0536356 -2.98508 5.23207
1965 1 15.6362 -5.27405 18.6157 3.69712 2.81677 3.5498
3848 1 6.15163 -15.967 6.60529 -0.911435 -3.3692 -3.22012
1973 1 13.9388 -18.0794 20.3441 -0.973952 -0.392799 2.08169
1974 1 17.9525 -10.7115 10.0343 1.81715 -2.76675 -4.68639
1977 1 15.6692 -10.833 11.8924 3.45791 -0.816364 -2.17463
1978 1 7.58911 -4.46079 21.1876 -0.634351 -3.1297 -1.05819
1986 1 15.0784 -5.67659 2.62056 0.832226 1.45065 -1.59383
3962 1 3.52424 -15.341 5.21109 -0.416915 -0.855848 1.88842
1995 1 1.9654 2.85144 11.6402 -3.83598 -2.09404 -0.24758
2005 1 4.92589 -3.62939 18.0425 -2.87022 4.83756 0.481744
2012 1 18.2791 -20.201 15.0283 0.573662 4.34215 5.17687
2017 1 10.5458 8.41816 22.4416 -1.96543 1.37427 -1.71203
2024 1 11.0098 8.96108 13.7944 5.17223 -1.48447 4.40716
3631 1 9.1115 10.6808 18.5748 3.62843 -0.642641 1.41533
2096 1 10.7934 -6.07674 1.20988 -2.38126 -4.83491 2.94618
2038 1 18.3037 -0.489975 9.32395 -1.24687 0.486865 -0.327725
3138 1 18.5049 -4.3542 21.5471 1.29394 -1.2187 -1.40189
3871 1 17.7292 -0.910782 20.0195 -0.309869 -1.68188 2.90998
2044 1 2.33311 -5.74379 2.05691 -4.22017 -5.16118 -1.72851
2057 1 15.847 -2.95884 6.30175 -0.426452 -6.89308 -1.45283
2059 1 1.74154 -7.55325 22.3698 2.8845 -0.344064 2.20751
2066 1 21.9478 6.54889 8.19931 -1.17537 -2.86217 1.50914
2090 1 17.2533 8.12976 15.4784 -3.22808 -1.23103 -0.372524
1271 1 0.0833254 3.6352 15.5664 7.1715 -3.53542 1.1103
2099 1 14.5794 -9.61441 7.20701 -2.9754 -2.26593 -0.308266
3177 1 1.21845 -11.2817 23.934 0.297998 -3.44171 -2.05785
2111 1 20.4024 -9.84754 22.8242 3.85314 1.83696 -0.428981
115 1 8.50988 10.0003 4.03782 3.74028 -2.17929 0.088872
2116 1 20.0534 -4.08791 5.89174 -1.81025 2.50602 -5.83779
2120 1 16.9525 -17.4214 11.1774 -0.715993 -2.04177 0.695266
3014 1 20.7791 9.94663 22.7624 -1.7334 4.8138 -3.79147
1225 1 -0.15888 -16.7057 19.7884 1.70754 2.89458 1.18339
2140 1 11.6468 -15.0181 16.9802 -0.543241 0.875361 -2.30389
2144 1 4.58955 -2.42188 6.29933 6.11722 1.89793 1.0233
2145 1 19.0176 11.021 20.7144 -0.194218 -3.91348 3.63223
2504 1 10.8573 10.704 11.3806 -3.62945 -0.768794 2.407
2147 1 2.97228 5.79235 14.3544 3.04789 3.05644 3.08052
2148 1 11.6125 -22.3923 20.6368 -1.22249 -1.355 2.9258
1651 1 13.4026 -18.2941 1.06181 2.05209 1.69514 -2.21789
2155 1 16.5179 3.12442 17.0655 -1.85909 -1.0719 -0.0685234
2159 1 3.29552 -19.6261 10.036 -0.199093 2.04413 -3.88794
2163 1 7.58363 -7.63214 13.7164 -5.07471 -0.340364 -0.0638458
2175 1 12.7137 -23.0165 12.8035 0.563113 -2.76238 0.368939
2176 1 10.2359 -19.2368 15.5295 -3.41277 4.29785 2.36629
2179 1 11.7418 -3.57758 6.54 4.63848 0.524638 1.38728
2183 1 5.80509 -3.10831 9.51337 -3.52408 -4.52052 -3.61412
2185 1 6.15601 10.2815 18.9763 0.861051 2.20153 5.73595
2187 1 16.7305 -4.79957 8.30612 1.70004 -4.12847 1.87664
2191 1 12.7895 10.8774 2.48142 -3.19064 4.69068 0.188763
2883 1 11.435 -14.4372 1.77852 4.55188 2.1799 2.2392
2214 1 9.89291 10.7841 21.2995 -3.58423 -1.74508 3.70992
2217 1 11.1399 -10.6104 19.8664 5.2897 3.24612 -4.35545
2221 1 20.2419 4.35353 19.6142 3.23975 -0.0553262 1.9491
2222 1 2.13784 7.66554 5.33875 -0.953179 -3.08787 0.747059
2226 1 20.1899 -1.9521 14.4805 -0.666697 -0.876462 1.61163
2229 1 19.9498 7.28628 14.5152 -4.95519 -2.11658 -1.86543
3263 1 22.5904 2.65074 19.6996 -2.76934 2.33446 0.181763
3964 1 8.87922 10.3292 15.535 -3.02344 2.90493 1.66429
125 1 15.5151 9.19823 1.53427 -2.4349 2.5527 -1.58561
2250 1 1.8123 1.11268 8.07643 6.02788 0.484062 -3.88884
3938 1 18.1044 11.06 15.7056 0.0213342 1.09244 -0.666491
2286 1 6.0851 -8.69178 3.72425 -0.872224 -1.43897 1.47712
2290 1 14.971 -8.88103 19.6731 -6.52939 -6.92073 0.580406
2293 1 2.60236 5.76863 11.4111 -1.5385 -3.80846 0.427438
2301 1 4.48359 -21.2903 20.4095 0.642292 -0.45975 0.599422
3895 1 13.1162 -4.30867 0.908934 -3.34563 0.892712 0.54963
2310 1 6.81649 -19.6056 9.27419 1.6884 1.47684 -1.00547
2311 1 6.48026 1.65013 1.17958 2.16901 -1.28431 0.498762
2319 1 6.35406 -9.44555 8.75371 -3.08935 0.0126504 -1.5345
2329 1 8.28802 6.3516 12.6635 -3.1454 1.90523 -0.0485184
2330 1 12.8777 -22.1307 15.4424 1.49009 -0.744341 -2.81645
2332 1 20.531 -14.4371 11.8726 -0.0490753 -1.89421 -2.4312
3878 1 9.86936 -21.9458 7.22444 -2.31939 -0.0461386 -2.37536
2340 1 8.9055 7.56821 15.0847 -0.385869 -1.8628 -1.30195
535 1 4.55385 10.9921 9.55499 -1.04606 1.88312 -3.41318
2348 1 8.76552 -0.748293 5.16405 -2.67908 -1.00328 -0.391175
2353 1 13.6992 -1.09091 7.04926 1.36906 -4.31322 0.403842
2359 1 8.90701 10.6029 8.99888 0.915526 2.43911 4.28033
1418 1 18.1276 -7.35665 1.43124 -5.26565 -5.80188 -0.396276
3776 1 8.68036 -4.1593 16.1915 -1.54288 -4.12264 2.79646
2369 1 21.1418 4.28975 15.0926 -0.104461 3.6141 -6.12361
2378 1 7.18164 -1.98126 17.0256 0.456141 -4.34392 -0.426332
2380 1 10.3336 -12.6324 22.2464 5.602 -2.11843 -2.08587
201 1 7.8517 1.65006 21.356 -2.62358 4.9612 5.83331
2718 1 9.0395 -15.2389 23.898 0.0554085 -2.06073 0.913648
2386 1 2.04179 -2.9107 5.81416 0.190495 -1.92013 -1.83689
2389 1 8.06847 -12.2525 12.3303 -2.65273 5.26088 -4.76414
2393 1 4.03785 -16.3716 19.5832 2.19432 2.82903 -0.80646
2400 1 11.0107 -3.49466 14.2774 -2.85108 -0.931564 -0.590942
3909 1 3.84323 -11.4175 20.3503 -1.90527 -2.4106 -3.3854
2427 1 14.9382 3.6955 3.90208 -4.88155 1.55812 0.105949
2428 1 11.6352 -15.7406 14.1566 2.20124 -1.36159 -4.95143
2433 1 22.21 -23.0106 20.7885 1.52595 3.0608 0.463114
250 1 0.479037 -0.698576 5.75535 0.928189 -0.282535 -0.520662
2449 1 18.1982 -22.9631 13.6617 3.53798 3.22153 -1.5283
2025 1 4.31007 -11.248 23.5966 -1.49106 -6.41827 -6.84896
2451 1 8.81679 -22.198 4.52087 -2.0584 -1.14888 2.51808
2455 1 13.1972 8.29627 15.5918 -0.472732 0.103284 -2.07287
2467 1 1.20825 -18.0754 11.4794 0.753655 1.38677 2.06735
2497 1 4.48198 6.89839 17.6063 0.891941 -4.27153 3.59354
2511 1 3.88114 3.88869 17.8379 -4.37561 -2.96244 2.74105
2513 1 21.7369 8.4273 6.03661 -3.20339 -3.93026 -2.50709
3832 1 22.4111 -2.74987 1.87839 -2.46866 -2.37875 -4.32263
2515 1 2.38327 -20.6063 2.21016 -3.95519 -1.31404 2.04154
2521 1 11.1139 6.65287 16.8103 -1.2922 -3.84023 -2.74883
2527 1 7.1611 3.94345 8.53704 3.01696 -4.62429 -1.82765
2535 1 14.8596 -6.40367 15.7934 -0.246176 -5.46139 -0.12496
2539 1 17.3182 -13.6861 17.0788 3.0175 -1.84045 2.75832
2540 1 21.7112 -9.96538 15.5052 1.72918 -3.30044 -2.30409
2541 1 4.40507 8.03975 12.8191 -2.42874 3.24955 0.794609
2544 1 13.2573 3.5645 6.16286 -4.18059 0.563796 -0.778868
2560 1 20.8021 -22.0766 9.82287 -1.41859 -4.14178 -2.06093
1613 1 2.13957 -16.3398 2.87959 0.145937 1.29204 0.106965
2571 1 12.3454 -1.47141 21.4033 0.561562 -2.07475 -0.538576
2585 1 16.4027 -16.5987 20.9591 3.57737 1.59969 1.36477
2587 1 16.8131 -21.1084 6.96457 0.885148 -1.86043 2.34994
2594 1 22.0607 -6.86607 15.5957 2.95826 3.82637 -2.75004
2621 1 4.9202 -22.1227 6.35203 1.21743 -0.414959 3.63203
3130 1 23.0866 -10.4027 9.95488 -0.4383 -4.23172 -1.97151
2706 1 2.47718 -18.7486 22.8364 0.982647 -0.595374 -5.81247
2645 1 5.49587 -22.5567 14.9289 3.11153 1.34982 3.23718
2648 1 16.5404 0.441063 3.53615 -0.762772 1.67044 0.324606
2661 1 6.44597 7.37587 19.959 4.24874 2.03798 1.43531
2666 1 19.9369 -21.0712 1.09983 0.892444 4.98039 1.18277
2669 1 3.97651 -8.83115 18.9311 -0.484255 1.56449 1.67043
2672 1 7.59206 -6.32284 11.0673 -6.74889 2.02465 1.50767
3969 1 18.3095 -21.6721 21.6805 -1.88892 2.08246 -0.344054
3786 1 19.7104 6.93151 18.0138 1.86334 -2.46813 -0.419282
2695 1 14.541 6.86068 13.5649 0.953318 -1.54527 -0.999581
716 1 1.01298 -23.1944 8.51281 3.22583 -0.630671 0.749599
2698 1 14.9766 -14.2879 21.4002 0.389207 -1.07524 1.97015
2704 1 2.87319 -23.4974 2.17538 -0.723583 0.584945 -0.883342
2797 1 16.6562 -9.96805 23.7602 -1.82397 1.15909 4.8403
2709 1 16.5719 -2.64628 17.8479 2.09981 -1.03665 0.240666
2719 1 20.6979 -11.391 2.27713 0.516521 2.13643 0.394617
2721 1 4.16572 -13.0867 10.9636 -0.207331 2.17437 -2.6179
2728 1 20.8015 -4.24236 11.5378 -2.9528 4.39896 5.95546
2732 1 0.923269 3.21775 6.51888 0.675911 0.712053 -2.46759
2734 1 17.7477 -10.3026 21.0724 -2.74504 1.28363 1.97883
3932 1 23.094 4.99873 12.8634 3.8686 3.45406 0.597743
2755 1 3.26415 -14.8369 16.0966 -1.26783 -0.189963 -3.32372
2757 1 18.4759 -18.9797 20.89 0.411207 2.10252 0.558923
2766 1 9.47681 7.7275 19.165 -0.492225 0.127597 4.62071
3682 1 23.0988 -24.0876 18.1896 -3.49331 -6.53895 -0.600792
2782 1 8.97986 -9.35912 15.3434 -8.41781 -1.67831 1.75652
2786 1 5.87791 -3.38197 2.40106 3.11003 1.97636 0.0470348
2796 1 18.2146 -15.5527 12.9296 -3.38824 2.56068 -0.642869
3898 1 19.9244 -1.67736 17.3249 1.95867 -0.360857 0.0428388
2816 1 5.94192 -14.84 17.7233 1.83794 1.72144 4.83537
2818 1 0.68912 -1.49492 1.11616 -2.08919 -5.97443 2.46398
3953 1 21.0106 -19.4614 15.3103 2.68685 0.267782 2.90132
2823 1 12.4075 -13.6099 6.17804 0.342694 0.960963 -2.9887
3745 1 4.1737 -10.1122 10.5108 2.97759 -2.85005 6.42938
2829 1 18.2196 -20.796 9.37261 1.07227 -1.16059 -1.08956
2838 1 17.0644 -12.7052 22.4754 3.35861 -3.03812 -0.2984
2857 1 17.7442 9.06326 7.75921 4.89517 2.62885 -5.13423
3817 1 2.55445 8.36884 1.40863 -0.796371 1.66713 -1.72224
1677 1 22.3937 -18.4927 10.38 -2.0189 0.718842 -1.93594
396 1 9.06279 -20.7928 1.80035 -1.31775 -3.66461 1.56764
2872 1 6.28667 9.14371 8.27739 1.88805 -5.73897 -3.19511
2877 1 12.9 -5.3656 4.62738 1.57287 -2.56844 -1.63839
3866 1 11.594 -16.1729 7.38083 -6.04216 1.44178 -0.949313
3075 1 18.4903 8.50298 22.6627 1.88692 -0.239272 -3.56907
2889 1 5.73219 -5.18905 6.31919 1.19632 -0.560529 -0.440988
2891 1 6.52819 -5.46042 15.0667 -2.80138 -4.75793 -0.828437
2906 1 11.6419 4.53044 18.6171 -3.20118 -5.15195 -0.491978
403 1 14.3444 -0.685505 23.7905 2.58731 0.0104423 0.449115
2914 1 2.10518 -1.01412 10.3015 0.920283 1.9068 1.29018
2925 1 19.9738 -8.44638 13.7222 6.07248 6.13336 -6.27014
3784 1 12.7928 2.09921 2.24419 4.96693 -3.164 -3.70256
2929 1 5.28383 -13.5554 7.99833 -7.01054 0.0913623 6.15438
1378 1 9.3212 -8.60667 0.163329 -2.57555 -3.68653 -1.76596
2384 1 7.52661 -12.6638 23.9651 -3.35659 2.3688 2.59433
536 1 0.305916 -7.897 1.93574 -4.92622 1.72578 -5.32495
2944 1 8.14097 -23.4878 15.0383 0.368473 -2.84962 -1.47425
2946 1 14.2563 -1.23722 10.9317 3.25143 -4.60089 2.65806
3899 1 5.77993 10.5502 16.0954 1.94085 1.01017 -5.11296
1485 1 9.42496 -10.3364 23.7253 1.49138 -0.974141 -2.42935
2955 1 11.206 -7.66967 15.7092 -4.45916 0.104848 -3.00374
2957 1 1.49559 -19.5158 14.0695 2.5594 5.95394 0.764216
3773 1 1.22395 -2.56106 15.1942 1.53526 4.32977 0.377111
2373 1 13.6947 10.6983 17.1191 -0.445769 2.6793 5.43099
2979 1 5.95297 7.97115 15.2354 -0.91762 4.81416 -4.30457
2990 1 13.5229 -17.4802 17.3698 -1.71584 -6.04617 -0.155237
2991 1 4.70562 2.00008 10.7387 -3.66811 1.58751 -3.40256
2994 1 20.4133 2.02049 13.5103 3.19042 -3.01665 3.79521
2996 1 12.5185 6.1736 4.86849 1.6615 0.681755 -0.430725
2998 1 1.81659 -15.607 12.7997 1.93847 -2.1134 -0.235382
3013 1 13.2246 -18.601 23.1677 -1.11997 -1.98662 3.46498
3022 1 15.5895 -11.5429 0.833811 -1.25885 2.9623 -0.278674
3024 1 22.0443 6.55745 2.30822 3.07648 -4.76413 0.220768
3025 1 3.28528 -22.6665 9.9939 0.436753 -2.85688 -0.706317
3026 1 0.583842 -22.3964 5.97175 4.81689 -0.67465 -0.113867
3027 1 13.2671 3.646 10.5891 -3.62215 -3.31227 -2.61323
3029 1 6.67712 4.09056 12.711 -2.56412 -7.77327 -1.0981
3839 1 19.0291 5.84972 2.76258 3.45549 3.50203 -0.618796
3040 1 6.75384 -20.7519 12.8962 -1.50705 -3.05406 -1.70148
3048 1 7.99995 -11.0142 19.6339 5.48664 -1.8331 -1.43734
3050 1 2.48367 -22.6441 18.5466 4.63555 -1.66909 0.838033
2067 1 22.6351 8.19372 21.6967 -1.4398 4.4414 3.92507
3055 1 18.8984 3.04749 5.82605 -0.677563 -0.922253 0.447683
3057 1 17.3622 4.08027 19.9346 -3.63455 -0.551431 -0.153108
3058 1 11.9979 -4.35949 9.49083 -1.81838 -0.6806 -0.944596
2827 1 4.1957 -8.92117 21.8902 -4.89858 0.286413 -0.514095
3764 1 16.9503 -11.1396 18.4795 0.849785 -0.583833 -5.14325
3072 1 2.36979 8.47134 18.9815 1.80855 3.17688 3.65228
3088 1 11.9459 3.87466 15.6882 0.0290535 -0.735339 -1.36705
3089 1 11.898 -18.5532 13.2199 4.38626 2.08572 -3.90854
3094 1 14.4302 4.1854 18.7835 -0.947392 -1.57438 2.21377
3102 1 3.26268 2.28581 21.8124 -3.66653 1.26256 2.46514
1999 1 -0.333396 -8.61495 20.426 4.90543 2.722 0.339027
3109 1 3.01456 0.0333373 1.71015 1.10294 -0.810438 2.12905
3110 1 5.68591 7.68111 1.52855 -1.81171 -1.16349 -2.458
3118 1 4.57492 4.90349 7.41803 -1.46852 -5.85634 3.98565
3127 1 16.5586 6.64523 2.4973 -4.02017 -2.16425 0.925547
134 1 17.6722 -6.5129 23.837 1.68446 4.24165 0.295679
2677 1 -0.0496255 -22.2956 2.12226 -2.43118 0.0761088 1.7973
3145 1 19.5561 -18.4738 9.89445 1.30061 0.706068 -1.08229
3148 1 7.74663 -7.19456 5.38429 3.31509 -0.609738 1.87973
3156 1 22.3173 -4.38298 7.53511 -0.612967 0.147374 -2.11078
3157 1 9.43958 2.83766 2.75916 -1.28364 -3.49696 1.30781
2192 1 0.551494 1.65799 23.4703 -4.70137 -0.292574 0.675066
3166 1 17.9039 -10.1066 15.1784 7.36735 1.77809 -2.0857
3176 1 22.3256 0.240198 14.7317 -0.221435 1.48775 -0.0799048
3555 1 23.5253 -18.3429 2.58466 0.971462 -4.44438 -2.43735
3184 1 15.3997 -3.08736 3.54947 -4.62742 4.20709 -2.14649
2622 1 0.344928 -16.8103 22.4088 7.41887 -0.300482 4.04907
3858 1 15.416 6.63417 5.08074 -3.3176 -1.817 0.306072
2447 1 3.11469 -12.2596 17.7551 4.69255 5.96291 -5.11064
3203 1 16.6678 9.15504 20.2745 3.48723 0.223889 -2.29487
3208 1 4.16016 -7.91773 1.58751 -3.67241 -1.74164 -0.24356
3209 1 11.5689 -15.9363 23.0856 -0.0477426 -0.91812 4.75028
3215 1 13.6356 1.30702 12.3469 0.45619 -1.00102 -0.519193
3216 1 22.2195 -2.60739 9.80489 0.128971 1.09717 2.76305
3217 1 11.305 3.41696 8.24802 2.03794 3.49075 3.66366
3825 1 20.779 -14.1379 9.08731 7.12547 -2.26274 -3.08045
3246 1 17.5132 5.48344 6.77161 -0.665201 0.968708 -2.83403
3942 1 10.2124 -21.8698 16.2366 -0.105945 -2.32698 -1.17163
3249 1 11.0618 -0.13336 11.7521 -1.9962 -0.115478 4.19236
1290 1 -0.12148 7.04796 7.18093 1.29945 4.64177 2.85151
3262 1 10.2268 7.68033 11.3307 -1.28379 -5.55692 -0.858222
2445 1 0.673431 -0.184556 21.1172 -0.412485 -2.62502 2.92807
2121 1 8.4378 -19.8162 23.5565 2.73245 1.12725 1.96946
3266 1 9.65961 -2.38178 20.686 2.5516 -1.92252 -2.28372
3268 1 8.69617 -22.6144 11.8865 -1.09501 0.550238 -3.24788
3270 1 20.2871 -16.7279 16.1742 -0.510639 -4.67472 1.11795
3271 1 6.82378 -10.0692 22.2404 -0.368993 -2.18912 7.14905
3274 1 12.6047 -19.1803 5.54375 4.86125 -3.9326 -2.29447
3275 1 22.5649 7.72004 11.9748 -3.08988 -0.448117 -4.88443
3276 1 10.4034 4.47894 13.2001 2.64169 -2.793 -1.5986
3279 1 7.34959 0.0666364 14.685 -1.09844 -4.14713 1.67925
3915 1 7.50537 -2.91509 6.79815 -1.82372 -3.64523 1.96419
3309 1 3.19784 -3.80013 10.8789 -0.441856 -2.85251 0.977033
3313 1 16.1769 9.05553 12.0651 -1.71717 3.05643 -0.838152
3821 1 12.9012 -9.89811 15.9697 -0.0746616 0.63775 3.28903
3317 1 3.80954 0.404009 5.82117 2.32122 0.133464 2.56419
3814 1 1.94642 10.0981 10.1226 2.60646 1.30721 3.63338
3336 1 14.0201 -15.681 2.22376 1.24935 0.843015 -2.76605
2589 1 0.629618 -6.48077 11.0219 7.1794 -1.96324 1.49465
3344 1 17.7832 -20.8797 17.5999 -1.3579 -3.96484 -0.551409
3905 1 3.34379 -10.4087 3.33275 -5.14427 4.40628 -2.73342
3357 1 6.71506 -7.19989 21.4974 -3.3556 3.80649 0.0781644
3853 1 20.4634 -13.737 4.17162 -0.280839 0.74195 1.62552
3368 1 22.3264 -21.2091 17.4374 1.19837 2.94098 2.13288
3373 1 12.9325 -6.89491 18.9618 0.645619 -3.34694 -2.09038
3919 1 10.3017 -13.5258 19.2876 0.0587273 2.25928 -2.88871
3377 1 5.59574 -12.0481 13.4756 -0.601926 0.74486 0.377554
3379 1 9.77894 -6.38437 9.06685 -1.18671 -1.95686 -0.165083
3995 1 5.84643 -23.7335 2.28098 2.75553 0.458594 -2.5875
3395 1 16.1855 -13.5458 12.4061 -2.68547 0.0257513 3.01235
3399 1 1.09317 -3.37878 3.19182 5.17563 4.9538 2.59034
3405 1 16.8505 4.87683 13.2964 -2.04221 -4.91241 -2.46806
3406 1 5.00625 -5.81055 3.56694 -2.83331 2.14644 -2.52355
3252 1 17.3478 -23.5236 16.324 -3.80158 0.289597 -2.39655
3429 1 2.23595 -19.6906 17.1349 -1.88506 3.07356 -3.38698
3439 1 1.0329 -13.0723 11.4057 -3.65737 -3.70003 2.07991
1627 1 16.8156 -6.87447 20.824 4.397 -4.27072 -0.885134
3465 1 1.72252 -4.6917 13.423 1.65065 -0.786023 -1.39162
3474 1 19.1927 -5.80012 14.5919 2.9738 1.11136 -1.98156
3478 1 10.7505 -12.7801 4.03084 -1.05132 -0.00146818 2.7352
3479 1 17.9196 -6.83315 9.91796 -1.18451 5.94919 -1.55469
3492 1 20.0865 -2.54251 3.53171 -2.30085 2.71202 2.7607
3763 1 11.2657 9.60321 5.08902 -2.51542 0.714814 -0.781995
3503 1 17.7607 -21.8118 2.83143 -1.3933 -1.13316 -0.0207004
3505 1 2.39243 -13.2745 3.36463 -5.15189 0.357566 0.725998
3515 1 16.0884 -16.746 8.29505 -1.45712 0.0898615 -3.02081
3531 1 2.85091 4.76915 20.2651 1.25884 2.07311 2.10546
3834 1 6.74006 7.67109 4.14558 -6.86476 1.45074 4.14153
3534 1 5.99222 -6.70952 18.7717 1.11222 -2.30039 1.20455
3739 1 0.633365 -5.03066 7.40044 -3.9705 -0.472746 0.499931
3538 1 4.36808 -6.43995 16.4338 -5.58743 4.37759 -1.84527
3542 1 19.1775 0.15271 4.73635 -2.94544 -3.41065 -1.11398
3559 1 9.87439 -4.0241 11.4292 4.38053 3.99117 -2.65399
3237 1 0.35482 -13.8442 22.0491 0.81051 2.00284 1.77412
3567 1 5.02671 -10.0527 6.1101 -1.14611 0.420554 -1.66039
3568 1 17.4581 -0.778552 14.1819 -4.83521 2.75326 -3.05689
3576 1 18.3462 5.3045 15.7976 -1.82928 -0.181616 0.818607
3578 1 21.0128 9.11445 19.3636 4.19403 -4.82141 3.35963
3981 1 12.5766 -7.99751 5.61298 -1.94017 2.01261 2.2023
3346 1 10.7651 -24.2519 0.916687 -0.509971 -0.212032 -0.341797
3585 1 8.69277 -1.99435 9.44883 0.261952 1.23444 -2.19899
3594 1 11.2664 1.83505 4.92615 1.81442 4.63848 3.83933
3609 1 7.13182 -11.6827 7.01717 3.27129 -1.60846 -0.360581
3622 1 8.2069 -14.5362 10.904 4.12081 3.52177 -2.774
3623 1 10.3036 -0.574018 14.7714 -3.24148 -1.3614 -2.79341
3624 1 23.6555 -8.38189 5.04816 3.03726 1.26629 1.73433
3625 1 10.412 -17.8057 20.8507 1.00333 -0.158342 2.35458
3628 1 10.0462 0.657977 7.49231 4.76871 1.15203 1.44438
3811 1 13.2066 -12.307 22.3836 0.0164748 -5.06688 4.32442
3638 1 21.2704 -5.80665 22.3744 -0.956178 1.68486 1.26781
3639 1 7.92661 -18.5461 6.55237 0.803426 -3.39853 -6.05682
3643 1 1.8826 5.23171 8.53654 -2.94039 -1.99879 -0.98493
3647 1 18.7709 -19.9883 5.14712 -1.67735 -0.0865165 -3.50301
3652 1 22.7885 -13.3772 15.2982 4.01254 4.50292 -0.806832
3660 1 14.978 9.49546 9.39303 -1.79193 -0.935417 1.1572
3762 1 9.94345 -11.4708 8.31173 0.0189742 -1.37715 5.9721
2114 1 0.359724 -22.3206 20.3646 -1.45826 1.56926 -2.23763
3743 1 4.46142 -14.7825 13.405 2.16721 -1.98896 -1.86497
3867 1 21.9286 -0.189727 3.70349 1.55177 -0.692478 -0.939267
3687 1 9.42363 -14.3397 8.45378 -1.33598 0.500384 -5.07631
3697 1 8.2953 5.16592 4.53942 0.406833 0.628194 -1.06157
3701 1 16.7105 -2.77007 10.2714 1.65017 6.03247 -3.72068
3704 1 18.35 -3.21937 12.526 -3.14033 3.5864 1.33834
3705 1 5.365 -0.914595 3.38049 4.59682 1.28293 5.55275
3708 1 5.71423 2.14361 6.42857 0.524192 0.459463 -2.46061
3722 1 21.0914 -7.83361 6.09289 0.710242 0.124563 -2.40513
531 1 23.1122 -10.2822 12.9182 2.83064 1.83186 3.94543
3730 1 14.3586 -5.7566 12.3415 -2.85938 -0.477466 1.98
1042 1 11.6595 -6.47489 23.1929 -3.30279 -2.98083 0.327084
352 1 14.7362 0.23973 1.10295 -2.26602 -2.32981 1.03438
96 1 23.462 -17.501 22.8025 1.43421 3.42924 -3.97856
3223 1 23.4967 7.75335 18.1395 -0.17545 -5.11225 1.98903
898 1 16.2572 1.45311 23.9457 1.37256 -2.00631 2.31704
2953 1 17.174 2.2752 0.436403 3.99425 -3.32874 -3.7085
793 1 23.539 -10.4791 2.84517 2.82873 -2.10992 -1.43578
3876 1 22.996 -10.3724 22.3236 -3.42925 -2.54913 -1.46737
3777 1 15.6144 -7.10839 -0.00249332 1.54067 2.92018 -3.56483
2927 1 13.0406 7.67787 0.440265 -2.70225 -0.398243 4.86589
478 1 2.69301 -2.59562 24.115 4.71778 3.53392 4.40584
3475 1 23.5918 -13.8966 19.5654 1.34867 3.59794 0.152456
1477 1 19.2627 -0.253861 0.364167 -1.6031 -1.4056 3.9213
1815 1 12.2677 -2.96929 23.922 -1.77887 -3.23312 2.25644
3926 1 9.42054 -4.34018 23.7497 -1.74224 0.67582 3.05828
2342 1 8.912 -13.7971 0.304151 1.56145 1.08847 0.70993
1105 1 21.1593 1.9198 0.13031 -5.23364 2.32017 0.21926
2968 1 0.470535 -12.9163 0.0554224 -1.49532 0.157975 0.0292329
24 1 11.358 20.5525 -3.90095 2.12996 -3.37777 -1.3409
85 1 5.67574 13.4655 -1.87695 -3.41684 -7.97591 5.14351
834 1 0.210828 12.1298 -2.58184 2.04298 3.66118 6.50312
91 1 17.3123 19.4036 -20.2657 0.590852 1.2991 2.77708
105 1 4.58759 18.6042 -19.5599 -0.988679 2.94889 0.866875
117 1 19.247 15.729 -19.9387 -3.61226 -1.69301 6.79155
166 1 7.7255 18.682 -20.1317 4.15837 1.08688 0.0751745
2220 1 -0.312234 18.8558 -15.4365 3.39452 2.96957 -2.62412
169 1 4.86569 24.6945 -12.3826 0.0477584 2.35231 0.577043
183 1 20.4394 14.1605 -3.06954 -2.42668 -1.05641 1.81092
186 1 15.2225 25.3069 -12.3317 0.781464 2.59121 0.0181366
194 1 0.397305 24.795 -19.6086 2.54463 0.958504 -2.86562
1738 1 3.35152 11.2886 -23.8021 -0.14721 -2.28292 2.38228
252 1 17.8049 16.5765 -12.7767 1.32643 -3.13789 0.910781
271 1 2.7184 23.0105 -13.3127 4.40031 -0.672234 -0.517563
275 1 11.5979 22.9974 -20.5872 -2.15266 3.43701 -1.49553
2094 1 22.4117 11.9239 -3.3668 -0.181622 -0.78481 -6.36721
306 1 12.8644 22.066 -13.3596 1.14268 -4.51152 1.31352
1506 1 15.6566 13.5825 -0.725984 0.60905 -4.14231 -0.519271
336 1 17.5542 15.9758 -22.3562 -1.51047 -3.51671 -1.827
354 1 10.3538 20.8386 -7.84616 3.64006 3.42823 0.0523774
367 1 6.73446 18.5929 -17.2947 -2.16863 -1.1147 5.39816
380 1 11.7646 16.2991 -20.9912 -1.1981 -1.05013 1.84648
382 1 16.4333 17.4226 -2.78202 -2.97159 3.35764 3.61678
414 1 4.81071 18.7676 -15.2264 1.30869 1.43222 1.8935
428 1 10.4042 13.0434 -5.66587 2.31215 -1.23452 -2.85965
437 1 17.542 17.9811 -10.3609 0.440354 -0.85536 -4.55858
466 1 13.6696 12.9393 -22.8089 -1.0248 -3.3551 -1.51569
578 1 22.7756 20.8904 -22.3685 1.76685 -5.64002 1.13428
1855 1 -0.0891119 21.4282 -16.3939 -3.61925 -3.32205 2.10297
1318 1 23.139 20.2116 -1.2127 -1.53414 0.519967 -3.25781
507 1 13.1051 20.4025 -16.1181 -1.33338 -5.46301 -2.59087
509 1 21.5114 14.0603 -19.7064 -1.00656 -1.16055 1.10812
554 1 3.31691 16.3014 -18.1281 2.98791 1.71473 2.75264
2415 1 22.4175 45.4126 -23.7562 -2.52145 -1.33821 -5.96229
586 1 15.9212 23.6208 -20.2068 -3.20509 -2.14664 4.15784
635 1 9.01163 12.6567 -3.03642 -1.08672 3.07871 -1.46215
638 1 14.2022 18.092 -4.35337 -1.03432 0.577717 -1.30735
2847 1 6.67591 15.9636 -0.972339 0.841916 -5.88581 1.06466
680 1 6.68725 23.7629 -10.3128 -5.49921 -0.918072 -0.968512
3703 1 18.4222 13.5589 -23.4895 -3.51988 -2.20077 -0.960874
703 1 3.87467 26.4488 -21.7472 -0.220834 0.567121 -4.88595
705 1 4.96196 21.8015 -14.7021 0.751794 1.12172 -2.58827
736 1 4.84259 20.6087 -7.38576 0.612515 0.807745 -1.36803
784 1 11.9925 14.54 -1.96998 -0.445879 2.47057 2.22021
787 1 7.64436 14.7199 -13.5358 -0.888441 -4.61321 -0.745877
468 1 22.1512 17.3994 -9.31275 1.67886 -1.78853 -1.17709
2935 1 7.87652 22.623 -1.36031 1.7581 3.09589 4.62269
807 1 15.5178 21.8142 -22.6882 -0.446558 0.347946 2.05876
862 1 1.39611 15.1605 -7.7717 -3.41989 -2.91706 -1.06635
1838 1 18.6846 19.3555 -0.292639 3.61525 0.313146 -2.11203
1059 1 4.13027 46.2595 -14.9953 8.00527 -4.16851 -0.0125691
883 1 15.8495 19.7044 -7.21135 -6.47324 -2.20524 -5.43197
974 1 -0.206587 22.8516 -13.2804 -0.970048 -1.08992 -2.82636
226 1 22.6554 17.3969 -13.8356 -3.24 0.792846 4.22458
1781 1 6.04119 20.3419 -23.0795 0.99125 0.884792 -0.522941
1670 1 2.9117 14.0812 -0.818982 0.206718 3.28522 -3.89781
979 1 4.28976 25.3896 -18.9474 0.57512 1.78163 -2.26495
1000 1 17.9275 20.7853 -11.1663 1.02455 3.59302 1.83372
2480 1 0.298417 21.6219 -8.78539 2.10867 1.12856 -0.603032
1035 1 14.0598 21.0099 -4.99051 2.42004 2.16977 -0.743613
1039 1 20.5553 24.0377 -9.57789 6.21022 -1.50177 -2.44336
1046 1 16.3453 14.4551 -17.4303 3.16657 -3.34666 -1.35155
1065 1 14.0432 19.354 -18.8139 1.2645 -0.617062 -3.99664
475 1 19.7417 12.136 -21.38 3.6073 6.12186 4.48817
1096 1 8.23634 17.985 -11.3803 -1.96237 -0.610999 0.411401
1127 1 12.4146 22.3499 -6.82703 1.6667 0.210722 3.01797
1165 1 17.3815 23.0687 -1.57096 -0.913837 -1.09478 0.955078
1181 1 7.56556 19.973 -8.4731 -0.541351 -1.27018 4.8965
1194 1 8.42768 17.2711 -5.98802 0.913597 5.98069 0.397035
1196 1 3.99363 16.5944 -13.7642 0.327225 -1.1669 0.269887
1221 1 1.44498 22.1328 -20.7395 6.19864 -3.68567 -1.27419
1241 1 12.2047 13.023 -18.2461 4.08347 -2.6176 2.09018
1243 1 6.62383 17.6388 -22.489 -0.944047 -3.13691 1.46129
1249 1 7.38092 15.2742 -21.4093 1.04729 -4.24099 -1.65512
1253 1 13.3433 25.1439 -2.40584 1.92756 -0.641011 -5.70898
1274 1 20.9527 19.2247 -20.9544 -2.49469 1.90947 4.56151
1301 1 8.5996 15.7877 -9.41518 1.67785 5.05647 -3.25331
1395 1 0.605136 11.6238 -7.23069 -0.323828 -5.71341 -0.0929153
1336 1 1.35177 20.712 -6.05884 0.209324 -0.159869 1.52221
60 1 0.554514 19.4857 -21.3504 1.5956 -3.09344 3.13995
2443 1 5.44856 11.6427 -21.9864 -2.45947 -3.09444 -1.62781
1380 1 15.5983 20.9216 -12.9256 -1.5363 -2.70394 4.9154
1384 1 2.63404 20.712 -11.6499 -3.94851 -1.34111 0.33919
1397 1 4.54622 23.9743 -8.39301 -1.89766 -1.15026 -2.1867
1398 1 3.90016 20.9854 -4.48956 0.459021 -2.5641 -2.70285
539 1 18.3335 14.4578 -9.31234 1.15305 4.60528 -1.68921
1419 1 9.47322 22.5372 -3.88532 0.281118 -1.76308 1.17698
1423 1 5.03565 22.6628 -19.4026 5.84038 2.81156 5.65885
2137 1 15.2974 17.3018 -23.5188 -3.82377 0.406652 1.70589
1435 1 19.0592 23.4874 -7.19275 1.16046 -1.87295 -4.19058
1437 1 4.1314 16.4192 -21.6187 -6.51728 5.77065 -0.29866
3882 1 22.4388 16.0488 -2.81703 -1.9846 -1.16639 1.33074
1451 1 10.2228 22.2249 -12.0482 1.1993 -1.87369 4.23852
3140 1 1.52645 16.5809 -20.5163 0.113554 -2.39659 -2.34643
1480 1 0.656757 14.9784 -3.86967 2.96644 -0.861205 -0.156763
3978 1 -0.0284954 20.1145 -13.101 1.87094 0.526921 2.71505
1501 1 9.1573 18.7292 -15.8799 -2.56725 1.32657 -1.93819
1503 1 8.04353 24.964 -22.8719 3.43449 -5.43144 2.18204
4199 1 0.245799 41.6886 -8.98812 -2.96753 -5.08745 2.14397
1509 1 10.7072 19.7863 -10.504 -0.942248 -1.26297 -3.1175
1561 1 19.7265 21.1303 -8.99709 0.080364 -5.3229 1.90444
1564 1 8.31214 14.5573 -7.01222 2.39684 -3.74795 2.61797
1568 1 20.2802 20.3539 -12.6651 1.6119 4.2917 -0.366699
1576 1 11.547 21.1326 -18.5632 -4.39232 3.29148 -1.88519
1588 1 3.21548 19.3815 -21.9892 0.18453 1.17181 4.08186
1593 1 2.06971 25.2331 -17.4802 -0.79099 0.919527 -1.84295
1595 1 6.95334 14.366 -4.19121 0.847879 -2.3963 2.53746
1601 1 6.21278 15.5793 -17.5534 -1.27016 1.21178 3.39021
1624 1 4.0197 22.4904 -22.0192 -3.28065 -1.41017 0.327993
1625 1 12.4932 12.8905 -9.33719 -2.47516 -2.21579 5.34557
1633 1 18.5995 18.7492 -22.8415 -0.0517624 -0.426239 -0.0110429
2411 1 7.72806 11.8959 -17.5205 -0.941472 1.52136 -1.76546
4350 1 5.42202 45.7115 -1.08242 8.87272 -0.539699 -1.20584
1678 1 2.95486 21.0133 -18.5397 -1.79981 3.2178 -2.85347
1683 1 12.8316 24.306 -16.9843 -6.70193 2.48064 -0.117
1701 1 11.6298 24.9544 -5.87272 -2.77996 1.48599 2.85047
1709 1 19.494 18.2172 -3.16337 5.71254 -1.3502 3.76096
1712 1 10.6343 13.8618 -20.2791 2.54093 -2.94817 -1.5216
1820 1 15.2271 12.5115 -9.56048 1.35694 0.0433339 -1.12768
1744 1 15.3916 24.2925 -9.54274 0.564077 -3.62261 2.84888
1745 1 5.39031 14.6504 -7.55543 4.48896 5.04363 -0.396928
1746 1 16.7305 23.5384 -14.0353 -0.789044 2.24937 -4.26208
1752 1 21.7722 16.6269 -21.495 -4.16758 2.26493 3.02559
1775 1 7.23267 13.8508 -10.9675 -1.42893 1.5826 -3.67603
1776 1 9.25615 14.3152 -0.65644 -0.647241 -1.00557 4.31964
3604 1 9.80277 11.6516 -21.956 3.40659 1.23911 0.125123
1787 1 5.3136 19.9172 -12.4571 -2.71217 -2.80009 -0.0661348
87 1 1.62368 17.8765 -7.34909 -1.4815 3.0915 -0.404075
878 1 7.50967 13.2502 -23.3253 1.56232 0.488004 -1.83204
925 1 3.13405 12.3557 -3.15288 -0.78838 -2.48982 0.286951
2244 1 23.3197 21.9841 -15.9794 -4.20883 -0.658664 -2.11691
1482 1 5.26782 24.6227 -23.3312 -0.946583 -0.803575 -0.121537
656 1 -0.278357 23.7338 -10.5503 -7.3993 -0.593476 -1.67951
3691 1 19.0891 46.5441 -5.966 -2.50344 -1.79838 4.88532
1921 1 17.0187 15.4775 -5.02405 1.28944 1.23971 -0.669642
1943 1 2.73098 16.5612 -2.64786 -0.943517 0.712346 -1.85979
1950 1 21.6088 22.9455 -5.97621 -1.8211 -2.1437 1.51289
1964 1 20.4233 24.7196 -17.5108 0.362084 -1.41886 -0.624639
1981 1 15.3634 23.3343 -3.61034 -3.11507 -0.583365 -0.76752
1993 1 1.62458 13.6644 -14.2773 6.90054 0.982752 -0.930505
2027 1 5.34004 17.4371 -11.2523 -0.995576 4.06519 0.52098
3272 1 2.3205 13.2862 -5.72036 -0.307611 9.71907 -0.847586
2048 1 1.39393 14.3852 -17.1227 -3.59104 1.51295 -3.15079
2049 1 16.1079 21.1675 -18.1865 4.27019 -2.55435 0.367535
2089 1 8.55152 14.6769 -18.9025 -2.41843 3.16548 -1.66018
3073 1 3.70389 22.4144 -0.780895 -0.761304 -1.51238 -0.914013
2138 1 14.8926 22.5818 -16.137 1.57021 0.794966 0.523141
2152 1 8.45187 22.8753 -6.62258 -0.636667 0.500638 0.391773
2165 1 18.1235 18.5452 -16.3311 -2.17351 -0.531191 2.36127
3661 1 23.3645 11.7744 -18.847 1.22711 -2.45589 1.49979
2184 1 14.1378 16.6816 -19.4825 0.87583 -0.902154 0.499634
2189 1 2.9285 18.3489 -9.76176 -2.21401 -0.71297 -5.98273
2198 1 4.35172 15.3076 -4.96298 -1.29141 1.64008 -0.145894
2208 1 17.0366 22.0065 -5.47885 -0.918644 6.37961 3.50049
2215 1 9.74133 18.7374 -2.18575 0.63153 -6.4553 -0.787179
1026 1 0.932916 11.3803 -10.0882 -3.44906 -2.73283 7.89895
2230 1 4.74115 19.5301 -0.762758 -0.972362 5.25301 -1.38398
2238 1 14.0243 13.312 -15.8961 2.37628 2.64802 -1.54427
2243 1 10.832 24.7587 -10.8857 -0.20776 4.03925 0.423795
2808 1 3.96308 46.0391 -12.2142 0.707557 -0.91835 2.24612
2246 1 2.45028 18.7007 -16.7747 -6.28507 3.72789 -0.600816
2256 1 14.5487 19.2822 -21.71 -2.55569 -2.35687 4.31622
2260 1 20.4164 17.821 -18.3615 -0.18446 0.080981 -2.1632
2345 1 5.12791 14.3606 -15.1568 -4.29156 3.55938 -4.59995
2394 1 18.6529 19.3684 -7.06447 -1.99447 0.472545 -0.428187
2402 1 15.2986 14.6321 -20.9492 4.741 -1.13828 1.49086
4352 1 10.2956 43.1943 -1.32923 -0.0422053 0.933259 -3.47623
2432 1 16.1572 12.3187 -19.4238 0.71393 4.81617 -2.70335
2452 1 11.7981 16.0963 -13.2554 0.246093 0.0592905 2.71272
2464 1 10.4918 20.953 -14.9574 0.742292 3.10164 -0.21354
1069 1 22.7403 14.8835 -23.4474 0.428159 -1.2017 1.54288
2489 1 7.78847 20.8969 -11.1441 -0.605115 1.23108 5.82929
2493 1 18.8118 24.4128 -19.959 -0.191923 -3.62184 -0.370981
2503 1 14.3329 16.0897 -1.25158 -0.165163 2.89889 2.28108
2508 1 12.6151 24.5724 -8.77021 3.45957 0.153868 1.85576
2524 1 7.11147 21.4594 -20.9257 -7.72345 -4.32995 2.65844
2549 1 3.94117 11.8717 -15.2084 -3.39048 -3.30148 -1.88076
2554 1 16.519 24.5805 -6.89778 6.58657 -4.43332 -4.96811
2555 1 4.21337 17.9922 -6.19258 6.13738 2.28469 -2.81659
2577 1 14.4694 20.872 -1.87822 -0.0459729 2.12498 -0.51893
2640 1 5.02164 13.9993 -19.8794 0.417361 2.72364 1.75745
2033 1 10.8744 16.7338 -0.117633 -1.35327 5.15663 0.292062
2676 1 19.3997 21.6125 -20.2151 3.50907 -1.7932 1.13693
2693 1 6.53331 21.4322 -17.1354 0.529728 1.32288 -0.666934
168 1 21.9171 22.2387 -3.03691 1.96696 4.7473 -2.26914
3473 1 22.8874 23.5122 -21.3605 0.135275 4.20415 -6.42794
2764 1 8.87169 23.2965 -14.7234 -0.578182 -3.50946 -2.88237
2791 1 19.5361 13.7783 -5.85391 3.08109 2.26567 7.78451
2794 1 6.47854 17.432 -8.19581 -1.04857 -4.11648 1.61133
2795 1 18.7926 13.0575 -18.603 4.14923 -0.589376 -7.06494
3482 1 17.3257 20.3446 -2.77843 -2.01971 2.07141 3.91718
2810 1 6.25755 24.3652 -14.8826 -2.43369 0.140523 0.72665
2825 1 13.4102 20.103 -11.3133 0.0564018 1.96924 2.45039
1029 1 13.0768 12.3089 -0.701583 5.99091 2.93366 5.11979
2916 1 15.464 21.0435 -9.48186 1.54057 3.3197 -1.76217
3849 1 16.1748 11.5196 -22.9225 1.18513 1.92193 -4.94426
1810 1 11.8478 45.7202 -5.72544 -0.196041 -3.25144 1.88028
2978 1 13.4404 17.681 -15.1342 4.33561 -2.31303 1.73756
2989 1 19.7231 18.0451 -14.2234 4.06286 -0.271872 1.91923
119 1 16.9425 13.0608 -6.96198 -0.463614 0.98592 -1.80195
3004 1 16.9295 16.9763 -18.6252 -1.87886 1.06048 -2.52734
3023 1 4.95125 18.5764 -3.34494 -4.57176 -1.72185 -1.69044
3063 1 8.93706 24.7843 -17.9667 -0.291322 2.49509 -2.42438
3067 1 17.2618 14.5417 -14.8426 -1.87553 -1.96421 -1.37102
3068 1 21.3705 18.0353 -1.01716 3.95499 -2.19341 -0.659568
2992 1 19.6905 11.809 -12.0664 0.391661 -3.53447 0.31366
1526 1 20.1189 23.1096 -1.25918 0.930302 -0.987664 -2.56993
3142 1 1.20349 25.7125 -22.178 -1.54184 0.587847 0.929087
3143 1 20.6927 25.1962 -22.0106 -3.21047 0.118866 1.99007
3183 1 19.7099 16.8212 -5.5057 -5.07084 0.253508 -0.016244
3206 1 15.05 13.1309 -4.68575 -0.121048 2.1486 -4.79024
3227 1 5.77061 23.0007 -6.01161 0.905235 3.3068 2.52778
3238 1 22.6744 20.336 -5.207 1.68386 -3.43428 -1.6184
3244 1 21.1644 16.2046 -16.3002 6.3812 3.21574 -0.418101
3269 1 7.40574 17.4017 -3.25108 -3.33854 -2.5035 1.55378
1405 1 18.7108 21.6094 -23.1801 0.305107 3.92475 2.41759
3284 1 13.4217 24.8815 -19.7994 -0.530384 0.95764 5.8851
3285 1 2.43991 22.8689 -16.4029 2.50814 -1.61644 -4.56316
3291 1 21.3104 22.6994 -13.9774 -2.79255 -2.22663 3.36778
3339 1 10.4982 18.733 -19.8567 2.62129 4.36483 -3.61822
3341 1 21.5009 20.5937 -18.1902 0.874673 3.27364 -0.992576
3345 1 12.655 22.2969 -23.1366 5.32553 2.38789 -0.301399
3349 1 12.6624 17.411 -10.965 0.24755 -2.0368 -1.13538
3421 1 9.19767 16.9702 -13.7857 3.72357 1.52322 -0.55676
868 1 0.656057 18.3911 -1.97152 -7.34458 -2.44043 1.81113
3434 1 11.4176 15.5308 -9.0225 4.60205 1.57638 -4.20833
3437 1 12.725 16.3467 -6.55382 -2.38909 1.34001 -2.82375
3440 1 3.08154 21.7903 -9.21639 1.34711 2.8273 -0.254142
3449 1 6.46639 25.853 -17.0921 -4.71239 -2.56332 -4.31607
3456 1 8.77524 23.7098 -20.6268 -1.25535 1.95866 -2.11017
2670 1 22.525 23.3744 -18.5726 0.236168 -5.17299 3.12106
3483 1 12.2309 22.5293 -1.57969 -0.0328105 -1.91728 -0.143249
3488 1 16.1272 14.4098 -11.2465 3.7017 -3.0674 2.83237
3500 1 19.4993 16.9282 -8.61392 2.27671 5.11894 0.877096
3521 1 0.935561 16.6547 -13.8478 -4.64008 4.85839 9.18212
3820 1 21.8385 12.8016 -7.706 -0.604089 -0.512925 2.82114
3526 1 10.9451 18.579 -6.00242 -0.277683 9.49037 5.43818
3539 1 12.5266 25.0017 -13.1569 -3.01595 -4.5056 4.78602
3546 1 19.4625 14.6676 -11.9474 -0.465459 1.95578 5.42551
3554 1 14.5812 15.0735 -13.5689 -0.441309 1.92372 1.69816
3599 1 12.5145 14.3536 -4.56475 -1.81969 2.82196 0.651495
4342 1 5.86875 46.1918 -8.44322 3.81328 -0.667416 6.87856
3608 1 18.7838 21.0671 -17.2296 0.42535 -4.82051 -0.300327
3644 1 19.6831 21.0797 -4.65689 -1.21317 1.96152 -0.108842
1816 1 0.506811 17.7456 -11.2502 -2.56221 -6.17446 -0.00509633
3657 1 22.6292 23.2924 -11.4061 2.13899 -2.21427 -3.88791
3667 1 12.7822 15.605 -17.1812 2.24268 3.42083 3.37141
3676 1 14.9922 16.7321 -9.75706 1.83751 -3.34187 2.72747
3894 1 11.5307 13.1896 -14.1301 3.80111 1.41441 1.47347
2421 1 22.9929 15.4839 -7.45384 -5.42619 3.11771 2.71121
3693 1 5.48487 22.8819 -2.83402 2.31608 -0.107291 -2.47483
4351 1 10.2293 45.9108 -1.38848 -2.35636 1.27677 -1.09291
3712 1 14.3928 25.5529 -5.34742 2.83032 -4.18229 -2.82726
3734 1 15.4028 17.0211 -7.00687 1.67033 -0.0327207 -3.23416
3750 1 10.6029 25.1835 -15.5725 -0.649363 0.982897 -0.925121
3778 1 2.33462 13.627 -11.5612 0.855176 1.66505 1.93936
4223 1 0.106604 47.1419 -8.95647 -1.301 -2.09348 3.56504
3787 1 9.28818 22.254 -17.2321 1.52675 6.10714 -0.707788
3789 1 19.0201 23.299 -15.6289 -1.63374 -2.72775 2.17064
3799 1 17.8277 23.7094 -11.2203 2.35265 8.75658 1.21836
3801 1 3.51697 15.2793 -9.68322 -0.29385 -2.66535 -0.593349
2487 1 4.06266 16.8038 -0.217705 -1.97813 2.96362 3.41502
2892 1 22.1566 20.3159 -10.5768 2.01679 -4.59563 2.71241
3854 1 17.8319 14.9268 -2.01825 1.17582 0.0770764 0.593104
3883 1 22.0352 15.6282 -11.4507 2.22382 4.09819 -0.0172231
3564 1 19.6283 13.9496 -15.966 1.31094 -2.59682 1.76348
4175 1 0.0144178 37.1422 -9.27636 -1.43226 1.10106 -0.978413
3927 1 12.8092 18.4749 -1.69873 0.161157 0.885164 -4.95475
1444 1 11.929 19.8 -22.272 4.34267 0.485833 4.4339
3948 1 10.1206 16.7074 -17.6336 -0.0816801 -1.27016 0.780694
3986 1 16.0791 18.4568 -14.1681 -2.18061 1.8143 5.58628
4123 1 0.24035 27.5739 -5.31612 -3.58304 5.814 0.539515
4124 1 1.45896 25.2904 -6.65784 -3.2864 -2.54238 -0.591064
2928 1 22.2554 46.2118 -10.2261 5.04732 2.75722 4.8472
4128 1 0.945116 25.9605 -9.55381 0.0913884 -2.42742 -7.88974
4135 1 0.698894 27.2721 -2.5291 -1.13857 2.0506 -2.82108
4136 1 1.71077 24.9238 -1.22544 2.32998 -0.96109 -4.56697
4147 1 0.374587 32.3538 -4.7058 -2.48845 3.87174 -0.833571
4148 1 1.52591 30.0159 -6.08465 0.464159 5.82728 -6.75488
3453 1 13.3674 11.6022 -20.1349 4.19037 3.56784 2.79992
4152 1 1.08752 30.3807 -8.7047 -6.38743 3.33046 5.59463
4159 1 0.627069 31.9207 -1.83124 -4.98262 -0.869707 -1.47498
4160 1 2.14542 29.4611 -1.34155 1.06141 1.20906 0.0669384
4171 1 0.531164 36.9095 -4.51663 5.08444 -4.7244 -2.06166
4172 1 1.4044 34.7026 -5.92266 -3.40501 0.641052 -0.692581
4252 1 9.33499 24.7862 -0.316194 3.71479 -1.93579 -1.56691
4176 1 1.39632 34.8836 -8.75518 -1.02621 -7.70975 1.37729
4183 1 0.962163 36.4219 -1.92393 -0.65187 0.754441 5.19032
4184 1 2.32598 34.0737 -1.07408 2.65037 3.26553 4.79589
4195 1 0.347933 41.3689 -4.75414 4.00902 -0.0571238 -2.04773
4196 1 1.87762 39.1482 -5.71074 -2.46446 2.96352 2.06843
2460 1 8.81755 12.086 -14.6152 0.787505 2.85361 -2.88912
4200 1 1.60067 39.4262 -8.63322 -4.58361 -3.20744 -2.89811
4207 1 0.545815 41.1146 -1.77385 -1.179 -1.8685 -3.26072
4208 1 2.0742 38.7749 -1.39327 0.182745 5.51604 0.830063
4219 1 0.740853 46.3967 -4.51596 0.237523 0.139287 0.574238
4220 1 1.41303 43.7354 -5.44215 -0.0324687 0.22076 -4.00965
3836 1 20.8105 12.984 -0.118608 -3.49614 -0.164122 2.79771
4224 1 1.25359 44.2096 -8.17662 0.920137 -0.406449 -0.424503
4231 1 1.24704 45.7366 -1.97433 -0.573985 -4.34141 -2.35603
4232 1 2.04445 43.2864 -0.909468 0.690968 -0.822557 -2.39885
4241 1 4.12068 25.4394 -5.76356 0.0046345 -1.53596 -2.03063
4242 1 5.56694 27.6892 -6.5568 -0.918203 1.23951 -0.9131
4243 1 8.38169 27.9434 -6.0444 -1.61065 0.346057 0.199527
4244 1 9.22258 25.4344 -7.32392 3.08306 0.489975 -1.56885
4245 1 3.63825 26.2161 -9.98815 3.26954 -0.421887 3.06277
4246 1 5.1764 28.3407 -9.2517 -0.0976186 -2.40678 -5.48594
4247 1 7.67158 28.4471 -10.7719 -2.31239 -4.82789 -0.552044
4248 1 8.38468 25.7867 -9.98848 3.69221 0.501384 2.05702
4253 1 3.99717 25.3678 -2.63779 0.402581 -0.820153 -2.33814
4254 1 5.94968 27.2525 -1.79611 3.40099 -0.543288 -0.153555
4255 1 8.34968 27.2563 -3.23621 -4.32556 2.97769 -3.2797
4256 1 10.3186 25.3401 -3.1289 1.34383 -1.59935 3.79742
4265 1 4.32241 30.0795 -5.59218 -0.573499 7.51065 3.09229
4266 1 5.6364 32.4858 -6.18984 5.35751 -1.16316 -2.05732
4267 1 8.62269 32.5596 -5.83888 -0.32933 3.76801 4.15553
4268 1 9.66062 30.0706 -7.04296 -2.41181 9.00704 1.98644
4269 1 3.53645 30.5784 -9.63611 0.709545 0.899755 1.27308
4270 1 5.40134 32.6306 -9.02187 -0.804365 -1.78009 1.41959
4271 1 8.01521 32.6732 -10.2289 3.57111 -2.23548 1.32403
4272 1 9.43767 30.4702 -9.66599 -6.51537 0.97596 1.19596
4277 1 4.90172 29.7493 -2.52143 4.14608 2.05097 -2.13049
4278 1 5.95809 31.976 -1.8814 1.96395 -1.50487 -5.8589
4279 1 8.35368 32.1654 -3.05792 -1.56131 4.6391 0.0696657
4280 1 9.56997 29.7672 -2.02408 -2.09674 3.60317 -8.08518
4289 1 4.31804 34.7774 -5.50619 -1.60497 0.0082475 1.47802
4290 1 5.94386 37.1123 -6.20808 -1.25579 0.84805 -1.18716
4291 1 8.75919 37.0499 -5.8019 -1.3753 0.591261 0.859271
4292 1 9.94274 34.7407 -7.01954 -1.07819 -0.517938 -1.53727
4293 1 4.05441 34.943 -8.35903 -0.117344 -0.499741 -2.43497
4294 1 5.44881 37.344 -9.04407 1.24839 4.73372 -2.46516
4295 1 8.06102 37.4059 -10.2216 -0.308923 2.36165 -4.45539
4296 1 9.25787 34.9604 -9.61568 3.47394 -3.20087 -0.974882
4301 1 4.57231 34.4686 -2.64659 -2.78578 -0.0337681 -4.63043
4302 1 6.01142 36.6229 -1.62795 -1.44009 -1.5705 3.52501
4303 1 8.45919 36.7756 -3.05236 -1.28256 -5.29272 3.64843
4304 1 9.73829 34.3355 -2.22209 -2.03112 -0.460094 -2.32895
4313 1 4.55415 39.3507 -4.98062 0.878871 4.34573 1.30951
4314 1 5.66957 41.5351 -6.57083 -1.82413 -3.88738 3.77951
4315 1 8.39467 41.7647 -5.35664 0.802881 3.21332 1.17153
4316 1 9.58439 39.6034 -6.52987 -2.01157 -0.42858 -2.08797
4317 1 4.09639 39.6453 -9.88195 1.07635 -0.984671 2.17306
4318 1 5.20983 42.1404 -9.29902 -0.737445 -3.93115 1.46111
4319 1 7.86252 42.4896 -9.9956 3.64954 1.42578 1.71382
4320 1 8.94789 39.8959 -9.43754 -7.99726 -0.0821628 -1.30821
4325 1 4.79421 39.0384 -2.2551 -1.09161 2.23764 0.306379
4326 1 6.41452 41.0891 -1.32066 1.5387 -2.42733 -0.826735
4327 1 8.83066 41.3268 -2.70531 1.41703 7.23795 -1.97493
4328 1 10.1737 39.0131 -2.03128 -0.681423 -1.12143 1.79386
4337 1 4.26981 43.4183 -4.94673 4.49185 -2.94185 -0.400276
4338 1 5.17008 45.931 -5.64327 -7.76914 -3.9223 -0.453619
2802 1 4.9342 12.5415 -10.1661 1.53027 2.30953 4.77147
4340 1 9.3847 44.406 -6.18669 2.68799 -4.40176 -3.9618
4341 1 3.79152 44.4213 -9.93364 3.4917 -3.70604 -3.48027
2603 1 22.4471 17.2075 -5.29804 -3.63934 5.10206 -4.34449
4343 1 9.59916 47.1234 -10.1265 2.00171 2.45401 -3.38992
4344 1 8.3276 44.9535 -8.65423 3.50175 1.68685 -0.487953
4349 1 4.53378 43.112 -2.14735 2.21138 -3.83199 -3.23329
3765 1 23.1858 46.1478 -3.19475 1.92297 -1.09563 1.43557
2351 1 16.9067 11.9946 -13.1641 -0.497132 -2.09482 -1.96638
2731 1 23.3057 22.8154 -8.6436 -1.59197 1.30154 3.44939
1376 1 6.75421 11.9937 -7.64902 -5.12972 1.46486 -0.144599
920 1 0.635016 14.5036 -23.2373 -2.75526 2.27653 -0.503456
1809 1 10.3016 21.0011 -0.173852 -6.34749 -2.49594 0.412141
4339 1 7.74666 46.3718 -4.76342 0.20558 -1.16754 0.184688
1424 1 19.6414 11.8111 -9.15041 -2.07663 6.1692 -6.16253
690 1 -0.324637 23.0644 -6.2969 5.62553 -2.70333 0.578035
3562 1 18.188 12.0827 -0.861225 -1.33908 0.571551 3.25954
3835 1 20.4237 45.8533 -3.31593 5.41403 -0.779963 2.11375
229 1 11.4036 11.9042 -11.6626 -4.24144 0.531557 2.15812
2392 1 9.27213 46.7861 -14.7517 2.85441 0.742545 1.30566
68 1 0.135758 13.7904 -20.6107 -5.96508 0.537343 -0.766026
2352 1 1.19329 23.1571 -23.3019 0.539661 -5.75947 3.72444
1507 1 23.5177 19.849 -7.80321 0.97254 -3.73552 2.24861
4151 1 -0.237894 32.8233 -9.56304 0.872756 1.94674 -1.28604
759 1 -0.174589 14.2035 -10.1448 4.39948 -1.43039 -0.900865
1735 1 0.0285383 18.1484 -18.5443 2.1259 -8.44729 0.561574
846 1 8.7562 11.4087 -10.9071 11.0643 -0.338504 1.50539
2491 1 11.9015 46.9891 -3.27982 1.66437 -1.16266 -1.03422
4127 1 -0.365289 28.3481 -9.5117 -3.01965 2.7208 1.78041
3684 1 12.5696 15.8966 -23.5367 -1.88655 3.89803 -0.752004
3689 1 23.5696 15.1608 -17.7417 0.384389 -5.88234 -0.369438
2058 1 20.4901 11.3549 -14.7116 0.502548 -1.60616 -1.03026
1348 1 1.90227 11.4202 -17.203 2.74459 0.067008 2.29845
1215 1 3.59444 11.501 -7.5087 5.04001 2.17085 1.50215
188 1 7.60727 46.967 -2.13117 -0.715081 0.35651 0.419108
307 1 11.1052 13.4166 -23.7458 7.90844 0.951729 -0.153491
6 1 3.2679 17.6674 19.1105 -3.16412 5.99144 2.41497
7 1 6.57482 22.5751 8.237 -0.195957 -7.48917 -2.01931
18 1 20.9055 22.9031 1.60237 4.59237 0.989382 4.06652
25 1 6.60269 24.9652 15.3042 0.728172 -0.201906 2.66805
473 1 4.51943 12.3291 12.1193 -1.85442 0.755864 4.85797
49 1 23.3954 13.43 3.19597 1.33971 1.95496 2.81458
1333 1 0.741859 11.3929 6.46371 0.779776 -2.8994 -1.069
103 1 19.207 24.8593 20.7275 -5.63404 0.600476 -4.81592
123 1 11.9949 16.6992 8.04664 2.56039 -1.55195 -1.38778
138 1 11.8501 16.9347 5.12573 -0.691736 -0.403138 2.83443
147 1 8.65564 20.0214 5.93884 -0.993868 2.48195 -1.42383
175 1 8.93743 17.2754 5.31609 5.7109 -4.9894 1.90557
185 1 20.3643 22.5925 16.9341 0.554592 4.03782 0.0853513
202 1 11.7376 12.8305 9.73945 0.115844 -0.16717 -3.75162
215 1 9.00671 23.9384 16.0267 0.862893 4.82903 0.354232
217 1 3.59428 21.4577 8.37706 -1.97278 -2.0229 1.10952
220 1 5.72304 21.1508 17.132 -2.5855 1.58999 -1.63358
227 1 16.2658 17.9628 3.60574 -3.00074 0.274509 -2.59553
262 1 18.5417 17.4881 9.35043 0.412179 4.16099 0.572222
281 1 15.5744 21.2378 12.6175 1.86325 -1.68345 1.44922
4348 1 10.3373 43.0673 1.36443 -0.457821 2.8306 0.278614
288 1 18.7749 24.6096 2.80338 -1.01956 -0.296722 -4.41721
310 1 1.38632 12.5656 13.5619 0.466874 1.69354 -3.55174
328 1 15.6724 19.9552 15.0726 -1.50909 1.42314 0.00539035
2756 1 21.2102 13.0662 20.0887 -3.49854 -3.2102 -4.77008
3930 1 13.9852 19.9053 0.797607 1.20826 1.62857 1.39902
418 1 21.3495 20.6061 5.68427 -0.947761 0.383359 -3.2843
435 1 1.33152 22.8119 7.10698 1.29529 1.84192 -1.4628
443 1 18.9436 24.5434 15.6009 4.54501 2.09349 1.4513
447 1 7.58492 19.903 12.9515 -2.6438 -2.45307 -3.39132
3911 1 21.5502 18.6228 2.04133 -2.40944 -4.30515 -5.73927
457 1 8.40366 21.6445 17.8954 -4.26517 5.00672 -0.0536766
4324 1 10.3779 38.5765 0.823201 -2.84641 -0.82144 3.20535
463 1 6.17014 14.9795 10.9664 0.433159 -1.5529 -0.63638
4300 1 9.65941 33.8446 0.475804 -1.28315 1.53788 -2.58668
487 1 1.99101 23.7725 18.2115 3.94901 -4.36487 -1.2461
566 1 18.7889 16.0769 14.3919 2.36074 3.01057 0.153562
1353 1 6.93069 20.7198 0.574002 3.75808 -0.641121 -1.86809
627 1 19.7411 14.5001 12.0885 1.29059 -0.161914 -1.32412
646 1 14.1157 23.5564 15.8851 -2.46954 7.03261 -2.38506
2751 1 10.468 46.1499 7.86519 4.02591 4.20133 -0.3587
671 1 21.1512 15.12 3.58582 0.244453 -0.0650006 1.03384
715 1 3.10338 17.6249 12.1469 5.39282 -2.65401 -4.11258
725 1 2.37076 18.9335 23.4039 6.00027 -2.49664 7.6519
1108 1 14.9706 12.563 22.832 0.211637 3.24979 2.09214
4360 1 10.6906 43.0402 6.03889 -0.481534 0.000666377 1.73098
762 1 4.72583 18.9823 21.3831 -2.37537 2.6923 -5.1956
769 1 13.0424 24.082 18.6 -0.185106 0.415148 -1.07571
774 1 16.4948 17.6632 13.0913 -1.25598 2.87686 -0.402157
805 1 9.92659 25.4976 23.3593 -3.54606 0.0271543 -2.0232
1319 1 14.2827 25.6077 0.253803 1.2552 0.1848 -2.76528
820 1 1.93826 14.2522 8.65067 -1.41917 -1.63978 2.26544
829 1 16.4643 14.9654 20.0395 -0.595087 2.17501 1.97724
870 1 15.5632 20.9914 19.9022 2.65797 -4.3691 -0.844928
875 1 21.0551 14.0526 7.56321 -1.66119 3.50297 1.58178
880 1 3.59741 14.7296 21.1593 3.22052 -5.73945 0.143114
1913 1 1.87034 19.8718 0.270674 -1.94612 2.54735 -0.600596
927 1 8.47329 13.3909 19.2159 -0.954135 0.619378 -1.3654
936 1 9.53617 13.0856 12.0907 -2.32744 2.27255 -3.63734
937 1 0.850499 14.55 19.7338 0.694316 -2.05819 -0.427582
958 1 1.4089 16.0092 17.3261 2.51111 -1.37966 0.436615
980 1 4.58041 20.22 10.8136 1.34316 6.28314 4.17771
1726 1 16.5138 21.4217 22.7268 -4.37627 0.422744 3.02368
1019 1 5.9863 16.4423 5.40169 -0.678882 -1.52385 0.43122
1050 1 17.7852 19.8816 18.3606 1.39732 -2.69081 -5.02502
1219 1 14.2352 11.7837 11.076 -6.88061 4.54256 4.75604
1097 1 16.6979 23.1746 14.3874 5.40336 -2.32489 -1.26837
4357 1 5.64173 43.124 5.15458 5.23298 -2.27464 -6.11568
3230 1 22.5086 12.7287 22.7609 0.550437 -0.759719 -4.28824
2940 1 14.8181 17.2527 1.31225 -0.498348 5.9178 -2.56902
2416 1 7.12116 12.136 10.6385 3.68464 1.24715 -4.23902
1142 1 7.0218 13.2791 7.86864 9.3415 -2.7401 -0.218072
1145 1 2.77544 21.2224 21.5021 -4.76258 4.91735 -5.755
1146 1 9.96526 17.4165 19.7146 3.90994 2.65811 -1.20706
1170 1 3.23725 14.8146 11.2807 -0.719629 0.654334 1.2692
1184 1 5.53846 21.6364 22.5019 -3.6366 3.80095 -2.13529
1189 1 12.1221 13.9205 4.57727 -3.89691 -2.76542 -3.59356
1222 1 20.9773 22.5312 11.4045 -2.30124 -1.25426 1.30185
1234 1 14.5702 12.863 6.05441 -5.82068 5.8826 -5.31627
1235 1 11.5496 20.1618 2.32046 3.506 0.264681 1.6608
1297 1 15.554 13.9696 15.6467 -1.96946 -8.33829 -0.697889
1313 1 16.8338 18.2389 22.3886 -1.51976 0.796324 0.902541
658 1 20.1228 11.9862 13.7723 -4.55347 1.21925 1.93838
284 1 0.428694 14.8592 0.606778 1.36231 -0.633459 -2.26206
1352 1 6.41656 24.3284 19.9638 3.07051 2.59788 -2.10183
1362 1 19.893 21.7575 8.0647 -1.38194 -4.56197 0.296867
1381 1 17.2675 15.5483 11.1734 0.246478 0.236439 -1.9409
1414 1 6.79489 23.0161 5.46692 -0.353072 0.221164 1.69072
1896 1 16.6611 23.8806 0.949914 1.15574 -2.7404 -5.0717
1468 1 18.6065 25.6662 18.0876 1.16642 5.56435 1.33332
360 1 5.79205 15.9731 1.96357 0.581554 2.56476 -1.19291
452 1 23.1291 14.8194 0.775384 -2.72243 -3.13842 1.87762
1528 1 9.51746 14.5253 16.5487 -1.29669 -0.676484 4.52783
1530 1 17.3007 13.9475 4.84146 5.12193 1.40687 1.09613
1533 1 13.0922 19.8422 12.3782 -3.12289 2.76521 -5.64314
1538 1 7.2215 16.3126 16.9991 -1.80043 -2.72223 1.70207
1559 1 21.3715 17.8775 4.72886 -1.371 -4.30974 4.52253
1569 1 7.19372 13.5893 2.70655 0.838927 0.936238 -4.98353
570 1 22.6406 13.8568 16.4892 -2.04923 -1.70477 1.28536
1598 1 3.14161 13.6105 3.85899 -1.62877 -1.22728 -0.700839
1618 1 11.2929 15.8947 14.6862 -0.391505 2.48375 1.88929
1619 1 15.0131 12.8961 18.3097 2.20096 -0.742565 1.76784
4359 1 9.69652 45.514 5.10879 0.936595 1.63425 -2.03433
1639 1 12.7431 13.9124 19.709 2.98556 -1.70156 -0.603777
1684 1 5.94488 16.1465 14.6711 1.07697 2.67134 -2.08676
1713 1 21.9615 16.2054 11.8647 -2.40819 0.0891995 0.496185
1715 1 13.4812 20.8068 16.5696 -1.51711 4.12892 2.27737
740 1 17.3807 11.3501 18.4778 -0.584469 -1.01576 -1.86241
1740 1 3.40567 20.9365 18.7075 5.06837 3.51926 1.0073
1741 1 9.07925 15.1735 23.2583 -0.926975 1.39206 -4.25868
1750 1 17.2063 24.3061 11.8002 -0.252561 -2.06803 -0.0710318
1762 1 3.05098 20.749 3.0751 -4.73928 -3.3332 -1.77625
1767 1 10.1947 23.9342 18.6936 4.08888 0.521959 -2.67391
3669 1 -0.307871 21.2742 5.24437 -0.980496 1.91554 -6.01627
1773 1 18.6303 15.2271 7.39323 0.506651 2.86347 0.347397
1797 1 2.12072 18.5392 16.249 1.70601 -3.80916 2.30887
3818 1 11.2793 18.2861 23.4761 2.26549 -1.55331 4.17403
1821 1 19.4052 25.7966 13.2123 -0.818466 -2.01838 5.2957
1829 1 1.55848 17.2459 5.3028 1.273 1.27757 2.19865
1835 1 5.07772 24.0243 17.4359 -1.30057 1.99301 4.00986
3460 1 0.762171 20.9495 17.3544 0.947057 -3.68912 -2.15692
1839 1 19.66 24.3726 5.40296 4.01253 0.301296 -4.21039
1866 1 8.34972 22.5402 12.12 0.550916 2.30292 -4.02818
1884 1 16.1709 14.0672 8.15246 0.0813966 -2.74775 2.33114
1886 1 20.2541 24.8278 8.23157 -2.77815 -1.39658 2.25588
1922 1 10.1061 14.7675 20.7854 -0.885223 4.75208 -3.6316
1929 1 7.17389 18.2037 3.14687 -2.64232 -4.22646 -1.14566
1957 1 14.9953 16.3293 9.19377 1.86168 -6.60749 5.1138
1878 1 23.4216 21.7373 0.952537 1.2165 -3.279 -0.0829386
1988 1 6.12722 19.7544 7.6244 -2.81493 -6.05163 -0.782935
1992 1 13.0202 23.6011 3.7159 -8.59573 1.12511 4.77238
1997 1 21.1746 25.3807 10.8847 5.65598 -1.6511 0.0141216
1151 1 22.7943 45.9345 21.5822 -0.0472456 -6.57843 -3.31139
2022 1 17.5639 25.5716 9.14379 0.835989 5.45806 -4.94552
2026 1 9.10336 21.3937 9.51072 1.88015 0.938816 -2.09355
2055 1 3.40455 16.475 7.45753 2.81754 -2.05104 0.701589
2084 1 14.5204 18.2615 20.7798 -1.58125 -0.507265 0.890373
2088 1 7.8543 21.9018 20.6509 2.66446 1.43216 1.51593
2886 1 11.8851 23.9371 1.11991 1.36444 -2.45925 -5.4258
2134 1 12.928 20.4376 7.75006 1.00445 -1.11548 -2.59812
1591 1 14.0046 13.4934 2.11615 4.04783 1.67477 -2.48169
2177 1 18.4429 17.0187 17.914 -2.42012 0.405595 1.84081
2197 1 16.478 23.9394 20.5325 -1.76466 -1.05489 -1.39085
2240 1 13.6114 17.7855 15.7389 0.33696 -1.46324 3.18565
2254 1 5.27181 20.8347 14.4344 -2.64416 1.45535 4.6644
2281 1 17.583 13.1128 21.7736 -0.0635019 -2.04245 3.02455
2287 1 21.1476 17.6624 14.4305 3.04238 -2.88513 -5.12317
4356 1 11.7136 42.7302 8.55637 -0.74515 1.74036 3.77238
1430 1 -0.356042 18.7666 7.23725 -2.24094 -2.26392 0.237656
2304 1 8.78755 15.6933 7.56612 0.32355 -2.09635 -2.37811
2309 1 18.7255 16.7394 20.9677 -0.46654 -1.572 1.69141
2343 1 9.7277 22.1837 2.368 4.3447 -0.549331 1.85392
2344 1 14.8447 25.464 4.76737 1.84998 -4.41433 -0.566434
2360 1 14.1202 18.6985 5.10786 -0.633547 -3.29633 -2.85273
2367 1 7.332 18.8999 10.2852 -4.27738 -0.290564 -4.87968
4355 1 12.4288 45.1959 9.66163 -0.182861 -3.68459 -0.738678
2375 1 10.5203 23.1358 13.8228 0.92545 2.05067 1.88126
2388 1 8.68681 25.7176 20.6374 -1.37799 -1.58247 1.0243
2395 1 6.06055 18.6219 18.4827 1.8692 0.712752 -1.28736
2272 1 0.45692 14.0123 11.4166 0.536087 -4.89444 2.31334
2412 1 9.52582 18.4084 14.4265 1.69583 4.49816 1.73437
3251 1 0.350024 18.4048 10.9417 3.50119 1.26207 -4.99596
2423 1 12.5239 21.0698 4.8366 4.79609 -2.33717 -0.112532
2444 1 12.8822 21.3076 19.1698 0.526516 4.91505 5.55003
2456 1 19.2077 20.0026 22.4895 -0.770382 2.06331 1.70726
4354 1 7.87651 45.4615 8.87409 7.82245 3.22822 0.130335
2770 1 21.0741 11.5305 2.51868 -0.681172 2.49548 -1.15979
2500 1 10.347 21.9326 6.96493 -0.946357 0.917471 2.22033
2501 1 5.30691 13.6516 5.74158 -1.34315 1.49937 -1.8684
2993 1 21.0874 17.2479 17.2784 4.79891 0.968168 -2.72399
2553 1 0.79429 24.5784 15.8891 -1.21636 7.75207 2.55202
2565 1 13.6774 17.069 12.8918 2.48857 -4.85091 0.212521
3304 1 0.627335 17.884 13.9525 -3.49911 0.867035 0.373673
2576 1 22.4168 21.7153 13.6838 -4.32915 4.98014 3.76514
2582 1 13.6295 22.9202 8.72493 1.77819 -1.42656 3.61757
4358 1 7.02605 45.4005 6.12577 4.30084 0.0217538 -0.13415
2600 1 4.81109 22.4611 1.96508 -4.53059 -1.13004 3.33041
2606 1 14.852 16.9256 18.382 2.7036 1.41579 1.43159
2627 1 15.875 24.2556 7.0222 4.29472 0.218488 1.02022
292 1 15.5553 11.3572 3.51675 0.502343 0.765421 2.05695
2671 1 10.6485 22 20.8835 -0.390398 -3.19007 4.27782
2712 1 18.0808 15.8571 3.00138 0.706461 -1.97952 3.66026
2716 1 17.0961 13.2647 1.92311 0.514383 -2.25028 -1.70356
2717 1 11.398 19.6985 9.96205 -6.71368 1.85159 -1.82055
2736 1 14.6397 15.3289 22.0477 -1.35893 0.685125 -3.5151
379 1 21.9736 22.9479 4.25049 0.49356 5.46737 0.53425
2773 1 9.56652 23.7372 4.74699 -2.50797 2.63738 -5.29277
2779 1 19.6237 13.7939 15.9586 0.440685 1.81273 -6.4121
2781 1 14.5752 23.5638 11.3117 -3.29454 4.01394 0.720603
2801 1 2.52002 18.5625 9.13449 2.85605 3.71381 1.0022
2824 1 8.2471 12.8888 14.4698 -1.98284 2.77226 -0.40552
2844 1 22.606 16.4221 7.14201 -1.78901 -0.397335 2.4484
4353 1 6.45404 43.268 9.77299 -0.448754 3.93639 0.711228
2879 1 1.76969 17.2972 1.44901 5.06222 3.70626 -4.22606
1769 1 23.4053 16.3784 15.6666 1.88499 -5.02215 0.431378
1474 1 1.98045 23.8856 22.225 1.6858 -2.38821 0.820274
2932 1 9.04883 18.7074 17.3854 -0.207951 -1.46339 -6.31382
3641 1 4.84039 15.0746 18.3616 0.700703 -0.717719 1.24237
3001 1 11.027 13.9904 7.23683 -0.472272 -4.69114 -0.78507
3003 1 16.9133 12.6047 10.5324 -0.0719102 2.9255 -3.52872
3035 1 18.6864 17.5903 5.48047 -1.89647 3.54039 6.02799
3036 1 11.6888 19.2983 20.9953 -0.961615 2.61444 -1.45293
3047 1 5.01032 19.2691 4.77431 5.62709 -0.277289 3.31005
3086 1 15.129 22.0777 2.32503 -2.04068 -3.59869 -3.17797
3123 1 14.8325 14.3816 12.7904 -3.86452 0.989248 0.868999
3154 1 7.25349 21.0531 3.45705 -1.54181 -0.949432 5.19696
3170 1 4.69801 24.1547 22.1116 0.902982 1.77406 -0.323121
3173 1 9.76155 17.5045 9.67585 3.76242 -4.31288 -0.802505
3178 1 17.6775 19.596 11.4792 -0.740678 -3.3129 1.74479
3236 1 18.2974 22.1551 10.5331 -2.13285 -3.09381 0.584493
3243 1 7.62649 18.8951 21.1476 -0.144162 -2.17944 -3.09152
458 1 22.3159 19.2487 18.7722 -0.216304 3.58061 -1.7204
3253 1 10.1763 17.7176 2.47928 0.0792886 -0.826585 4.01154
3259 1 16.9606 20.7798 3.82706 -5.34034 -1.23775 -0.735199
3280 1 10.2418 15.9295 11.9756 2.48893 3.237 2.11811
2908 1 1.05163 11.7613 16.4292 -5.90084 3.31168 2.13952
3310 1 17.6812 22.2692 6.11504 -3.22606 3.33351 -4.17284
3338 1 11.4049 20.6228 14.56 -1.5713 -0.766121 -3.78082
3352 1 3.57013 16.6629 3.57361 -1.01257 1.00968 -1.78002
3380 1 1.48989 16.8413 21.4057 1.4877 -2.90831 1.4208
3418 1 19.9566 20.0628 13.6397 0.426036 -0.211735 0.512406
3457 1 18.8272 13.9284 18.6272 -2.68697 -1.78974 0.496968
3467 1 12.7727 13.5726 14.9595 -2.51527 2.27745 0.289329
3476 1 2.36514 15.1882 14.0873 -2.77043 -4.15 -1.00086
383 1 11.6881 46.1286 12.3749 -1.60674 -3.05325 -2.80226
2967 1 0.0746838 12.015 9.26984 0.944434 4.19104 -0.349574
3486 1 15.8894 24.7217 17.8153 -3.45642 -0.412086 -0.471923
3493 1 3.09995 13.8152 16.5329 -1.69993 -1.94902 -3.34832
3537 1 21.5029 23.8664 19.3975 -0.267527 -0.809831 3.726
3545 1 4.28637 18.2212 14.563 -7.21153 -3.19888 -0.399086
3552 1 15.1767 18.6959 7.75821 -0.0123267 -5.31609 -3.9435
3570 1 12.0283 23.6539 22.8418 1.3337 -2.73447 -0.135541
3571 1 2.07726 22.8823 10.3391 -0.498116 -0.407364 3.23636
3602 1 0.520884 26.3214 22.0768 1.70426 -2.58538 0.221705
3605 1 18.2029 21.0272 15.7719 -0.894317 3.00368 7.17533
3613 1 0.832579 22.6892 13.9738 5.72762 -1.16332 0.593226
3615 1 0.637935 22.4713 2.96467 1.50059 -1.29868 -2.03658
497 1 8.55552 18.1228 23.6543 5.69776 -1.79255 -3.36882
2450 1 5.97506 13.0796 20.1891 1.05367 0.145708 1.79282
3522 1 19.9851 14.6182 22.2814 5.00255 3.92091 0.145187
3664 1 7.55231 17.0176 12.5373 1.71201 -2.84442 -2.87698
1469 1 19.9475 12.8502 4.94677 0.96314 2.95793 -1.89281
3713 1 2.43975 19.9357 6.01637 -2.67918 1.82977 3.41101
3715 1 20.2891 20.9266 19.9792 0.846203 0.585761 2.97878
3720 1 16.4995 16.6591 16.0512 0.346682 -1.48824 -1.91508
3732 1 17.8158 19.6084 7.48293 -2.27752 -3.00486 2.33294
1115 1 21.9884 19.7754 23.2065 4.59774 -1.50774 -2.43112
3760 1 16.1001 26.3403 2.51079 -0.0341496 1.46412 -4.39355
3783 1 19.3569 20.5574 2.24341 -2.43333 1.12947 1.34501
3788 1 6.27095 16.8116 8.75255 -4.20528 -2.65858 -0.375328
3795 1 13.803 24.9179 21.1364 -6.37566 2.67583 -3.54398
3804 1 12.7106 15.4398 10.6065 -0.96813 2.79778 4.71969
1133 1 11.2263 12.3032 17.4694 4.11033 1.28777 -1.26972
3819 1 3.70848 22.2763 12.7099 0.685188 -2.99844 2.27647
819 1 12.2208 11.9691 22.0784 -2.25614 2.45346 0.548539
3837 1 9.61874 12.9148 3.85114 0.0289253 1.3414 1.28995
3859 1 21.4893 17.7332 9.57815 2.81659 -0.594402 1.86249
3885 1 13.1276 24.4164 13.4015 4.02776 2.64851 4.05633
633 1 7.16477 11.2319 22.309 -0.279132 0.72661 1.9492
3897 1 6.19703 14.6676 22.5922 -2.06919 -0.36454 0.334983
399 1 12.5699 16.0153 2.41198 0.140575 1.22541 6.02992
3974 1 6.14413 23.9496 12.7237 0.961309 -0.163952 -2.19962
3987 1 12.0949 16.1019 17.8394 0.0679274 1.93608 -5.46474
4131 1 0.943871 27.2181 2.42528 4.06705 4.59814 0.725061
4132 1 1.76977 24.8258 1.57748 0.0454437 -0.88945 5.18412
4139 1 1.70052 27.2579 9.52102 4.9578 -0.264987 2.3869
4140 1 3.55928 25.1002 9.38454 -3.03613 -4.02014 1.39272
4143 1 1.30423 27.3545 5.28479 -0.21683 -2.35813 2.67407
4144 1 2.62262 25.34 6.57815 0.227094 -3.10432 6.91178
4155 1 1.31222 31.7729 2.81565 -0.454911 2.4231 2.26595
4156 1 2.16715 29.5166 1.40542 2.40173 0.499357 -5.51718
4163 1 1.59798 31.9835 10.058 -3.76822 0.925672 0.257647
4164 1 2.8555 29.5965 9.36579 0.443679 -2.68178 -0.209223
4167 1 1.35765 31.6939 5.61731 -2.07905 4.72221 1.42613
4168 1 2.64075 29.4845 6.54745 2.62519 -0.613201 0.216224
4179 1 1.10539 36.6372 2.42143 5.78191 2.87719 -2.62587
4180 1 2.5986 34.3875 1.71756 -1.63217 2.27051 0.104255
4187 1 1.96997 36.3657 9.97891 -2.41555 1.07053 -1.19682
4188 1 2.80202 34.0385 8.72693 -0.365321 2.89889 -3.71182
4191 1 1.69902 36.7167 5.22413 -2.2523 -2.35979 -3.43725
4192 1 2.73854 34.0725 6.08316 -2.45965 -0.337154 1.18736
4203 1 1.46828 40.8322 2.68097 -1.50445 -1.35085 0.372376
4204 1 2.7689 38.5942 1.4238 5.78156 -1.52436 5.26663
4211 1 2.07959 41.032 10.0328 -7.04214 -3.7779 0.78327
4212 1 3.25569 38.6114 9.2995 6.74667 3.43067 -0.975176
4215 1 1.60545 40.9169 5.68568 3.71226 2.38648 1.24778
4216 1 3.01405 38.6801 6.42866 1.59527 -3.18291 4.19855
4227 1 1.13209 45.8657 2.57063 5.23111 -0.114274 3.4995
4228 1 2.30743 43.3219 1.66172 1.77357 1.42273 -0.323425
4235 1 2.11276 44.8868 10.487 0.333921 -2.85868 -0.3151
4236 1 3.56366 43.0156 9.30787 -1.63886 2.61044 3.58028
4239 1 1.76358 45.2628 5.3793 0.370229 2.30588 1.02453
4240 1 3.11196 43.0952 6.52566 3.37207 -0.292851 0.315399
4249 1 4.43597 25.4186 2.49127 -2.84844 2.06771 -1.64489
4250 1 5.98948 27.3163 0.963678 4.01814 2.66128 -2.45041
4251 1 8.69718 27.0887 1.31614 1.34019 0.0283571 1.79282
3484 1 3.34794 12.2175 7.21711 -0.215335 0.714713 -4.71793
4257 1 6.3474 24.9916 9.93439 -2.31118 -4.34571 3.96005
4258 1 7.27021 27.1032 8.62222 3.17742 -2.1908 -4.86892
4259 1 9.99998 26.5815 8.95422 0.331015 -4.22485 -1.80957
4260 1 11.4981 24.5471 7.6317 -1.81261 1.1871 2.13844
4261 1 5.11484 25.43 5.17342 -3.63388 -0.0982174 -3.70591
4262 1 6.89709 27.5466 5.59781 0.71132 -5.50898 -2.09054
4263 1 9.31322 26.7534 3.96552 -0.687872 -1.9694 4.0096
4264 1 11.8762 25.8725 5.03678 -0.500947 2.28628 -1.63682
4273 1 4.83491 29.5722 2.41016 -3.00929 -5.00546 -2.81734
4274 1 6.2908 31.8446 0.867413 2.72373 1.53841 2.18985
4275 1 8.91261 31.63 1.84159 -1.73226 3.50126 -1.33215
2887 1 21.6283 17.5346 21.0583 3.92839 -0.0118394 3.96192
4281 1 5.64971 29.3311 9.32833 -2.36379 0.775484 3.54444
4282 1 6.72285 31.7644 8.43053 1.11013 -0.745653 4.56198
4283 1 9.78863 31.4169 9.13147 -1.01338 -0.709856 -4.06271
4284 1 10.7631 28.9703 8.06926 2.76577 1.66973 -0.407727
4285 1 5.11669 29.7931 5.16271 -1.25321 2.21669 -1.09526
4286 1 6.54201 32.1984 5.70584 -2.53106 -0.170262 -1.18338
4287 1 8.9766 31.7192 4.69309 1.26438 -0.922116 3.71418
4288 1 9.36333 29.1753 5.56416 1.90754 2.28571 3.09872
4297 1 5.38487 34.0413 2.17034 3.149 -3.29166 1.50671
4298 1 6.74207 36.42 1.05943 0.770433 -2.17914 2.23318
4299 1 9.37444 36.1935 1.90322 -1.86607 -4.45135 3.73501
2209 1 21.861 22.4624 22.0175 0.199377 1.03437 1.89445
4305 1 5.39996 33.961 9.50564 1.45639 4.00688 0.238021
4306 1 7.0076 36.0732 9.01294 -0.342607 -2.39786 0.677283
4307 1 9.68402 36.2448 9.05045 -1.43927 2.13059 1.3894
4308 1 10.8394 33.7495 8.19065 4.91762 2.39342 0.673866
4309 1 5.25945 34.4788 4.87409 2.8797 -2.32629 -1.34982
4310 1 7.00638 36.3424 6.25309 4.3082 1.76016 -2.17531
4311 1 9.28605 36.2334 4.57113 1.6106 -2.13246 -0.368464
4312 1 10.5183 33.7622 5.46137 0.0776817 -1.54322 3.1033
4321 1 5.45532 38.6823 2.3777 0.603994 0.9308 -2.88499
4322 1 6.55624 41.0484 1.5343 -0.552651 2.9777 3.33099
4323 1 9.39232 40.6904 2.09371 4.2229 -3.0573 -3.35339
150 1 22.1542 11.3619 17.9554 3.69613 -2.62039 -4.35049
4329 1 6.05103 38.5532 9.68684 6.73613 -0.672486 0.563217
4330 1 7.61781 40.9041 8.84273 6.5289 -2.34941 -0.626433
4331 1 10.2212 40.4735 9.52628 -3.34669 -1.73525 0.508958
4332 1 11.3333 38.3016 8.30456 -3.32939 -2.59217 -2.12913
4333 1 5.75363 38.6119 5.18916 -0.891414 -6.66578 -1.13299
4334 1 7.19813 40.9642 6.10465 1.05895 2.75012 -3.2281
4335 1 9.76611 40.5986 4.83849 1.37604 -0.662627 -3.3133
4336 1 10.7448 38.2002 5.68318 2.40436 1.00927 -2.00365
4345 1 4.95027 43.1673 2.43268 3.37863 2.62027 1.34558
4346 1 6.38568 45.1597 1.45034 -2.16933 -0.581691 -4.70395
4347 1 9.18565 45.3231 2.22268 -7.51132 4.51147 1.88975
1854 1 3.81981 46.62 11.6525 -3.78665 1.05229 2.01209
1823 1 6.53836 45.6447 11.564 1.94145 -8.39526 3.60181
72 1 22.5211 15.4562 18.9796 5.08394 3.48401 1.1931
1925 1 21.0085 45.8445 19.0139 5.31698 1.61244 1.73395
2819 1 16.9375 12.3029 13.3737 4.00464 -2.08113 0.619784
4276 1 10.076 29.3107 0.698545 2.10908 -0.114165 4.66636
1984 1 0.285212 18.71 19.2481 4.76569 1.12099 1.13267
801 1 20.3926 16.0112 0.880995 1.06081 2.58464 -4.09783
2409 1 5.52214 12.9885 14.665 -4.41662 6.43351 4.14514
749 1 -0.318915 15.8212 7.35276 -0.291874 -6.04756 3.45986
2300 1 6.58568 12.029 0.364403 1.31471 -0.629333 5.9126
2019 1 0.0227701 23.5773 20.1299 1.61804 -0.885473 -2.31216
2865 1 1.76564 12.4963 1.44001 2.28361 3.03684 -2.25036
84 1 19.8443 23.8318 23.4943 3.88498 2.98162 1.9834
1716 1 15.3433 47.1 23.1211 -0.957289 2.34983 -1.06517
180 1 22.0584 20.4906 9.66425 3.42978 -0.614814 2.20713
3334 1 22.5197 20.9385 16.4401 -4.40626 -1.89483 -4.88887
1759 1 20.078 12.5199 9.98273 -2.1892 -0.67791 5.48458
2583 1 8.2395 18.1365 0.321042 -2.05925 0.269612 -1.2611
794 1 4.56979 17.2783 23.7015 2.49858 2.63016 1.55661
1328 1 9.22278 11.7404 6.46601 1.03378 1.13002 0.842286
2235 1 8.98441 46.3867 12.9206 -4.8689 2.94603 0.356554
1004 1 23.3629 25.0524 8.95808 3.82309 -1.44209 -3.51866
1939 1 10.4134 12.0556 0.973503 2.7866 -1.5412 2.65534
2291 1 -0.146305 20.8558 21.0951 0.739439 2.09985 -3.4167
894 1 2.46447 11.8632 20.2606 -4.27793 1.10626 -0.0905902
4234 1 -0.324263 45.9581 9.53718 4.0059 -1.57645 3.78374
3683 1 5.79637 11.293 3.88204 -1.65268 -3.67762 0.336092
3658 1 22.0588 11.2495 11.604 -4.16927 -3.35686 -7.2392
3815 1 -0.0382723 20.6092 23.9205 -3.21463 6.26206 3.50858
3382 1 23.4212 12.1292 14.293 -2.8249 3.93275 -2.32956
2920 1 23.6001 13.837 5.93583 1.46005 -4.5987 -0.589101
978 1 3.48914 14.2731 23.8778 -1.05955 0.42131 1.79831
1845 1 20.6097 17.1493 23.8741 0.137257 4.36597 0.639647
2631 1 17.5912 16.8625 0.202799 -2.83099 -4.4432 -1.53339
