ITEM: TIMESTEP
6800
ITEM: NUMBER OF ATOMS
4360
ITEM: BOX BOUNDS pp pp pp
-2.4418905691411112e+01 2.3609741591459134e+01
-2.4518223401468070e+01 4.7034659001468064e+01
-2.4018423504504767e+01 2.4010221904552601e+01
ITEM: ATOMS id type x y z vx vy vz
555 1 -13.475 -12.9998 -1.93584 -3.63463 -1.33883 -4.2812
15 1 -3.63128 2.47054 -11.8122 -1.23842 -0.0755225 2.39069
22 1 -12.9094 -0.586493 -15.9573 -1.03143 2.62613 2.63396
1371 1 -20.9074 8.80323 -0.28056 0.10033 -1.2268 0.553167
29 1 -6.93344 -11.0459 -8.71307 2.89211 0.96415 -4.98349
37 1 -12.0697 -8.7556 -3.1512 -1.05552 -2.46217 1.08147
1540 1 -19.3206 3.6926 -22.8609 -3.26555 5.59056 -3.56116
44 1 -3.18192 -17.4561 -7.20562 1.98172 2.66906 2.12252
54 1 -17.33 -11.7372 -12.269 -0.893967 4.82964 2.83744
55 1 -3.9395 -6.72729 -13.1845 -2.0677 3.13474 1.50096
57 1 -15.8029 -10.3487 -4.25018 4.33754 -0.957279 2.7474
66 1 -11.1172 -18.3543 -16.0455 -3.53026 -2.90471 -3.48351
75 1 -18.5685 2.2802 -10.0657 -5.69583 4.81485 2.04285
842 1 -5.8034 -23.0828 -0.769315 -3.12207 0.840548 -3.41214
97 1 -5.12956 -13.4329 -20.8696 5.10575 1.20059 -3.14036
3038 1 -20.7354 -24.3944 -17.4055 3.75552 -1.23814 1.05372
1307 1 -16.2589 -22.8094 -5.21519 -1.73922 -0.668659 -0.453555
112 1 -14.1897 -0.18964 -19.1262 3.18703 1.17634 -4.66816
126 1 -8.85504 -1.92747 -7.73769 -7.46647 0.532466 1.53046
128 1 -19.7589 -1.90377 -8.33475 -0.0776343 1.79923 -5.8196
132 1 -7.45429 -4.41693 -21.7876 1.329 -0.226001 1.12403
135 1 -13.659 -6.16327 -20.0884 2.13763 0.638403 0.615534
2463 1 -12.6815 -21.524 -23.5675 1.27022 2.47515 -0.92299
137 1 -10.5479 4.41664 -14.6271 -0.389366 -3.94825 1.33029
139 1 -18.6666 -19.1695 -16.5936 0.696944 -0.00721518 -3.47937
143 1 -3.93237 -2.66068 -5.7428 -1.17209 -0.894776 2.92534
1550 1 -1.85236 -7.37908 -11.545 -0.0554894 0.502817 -0.126625
149 1 -18.8296 -23.0205 -19.1135 -4.33168 2.44489 -2.48094
160 1 -5.99049 -16.3619 -4.27098 5.66025 -0.462575 -0.804454
167 1 -13.7156 1.91151 -2.1371 -0.371051 2.61961 3.93174
170 1 -6.18529 -14.9236 -13.139 0.916468 -0.0558367 1.94621
174 1 -16.8194 5.99849 -21.0331 0.355362 3.92779 2.76996
179 1 -6.51784 -6.78661 -10.4967 4.87749 1.90848 -3.23231
181 1 -1.78387 0.237839 -19.5272 0.450275 -5.57969 -3.9126
187 1 -11.6415 10.3159 -8.01138 -4.08825 3.34157 -1.78197
3378 1 -4.16406 -17.7312 -0.801233 6.62574 -3.09586 3.68796
198 1 -8.83622 -22.5665 -19.3448 -1.2269 0.203218 0.385055
1302 1 -4.89888 -5.41361 -22.2483 -3.08502 -2.32632 1.16752
204 1 -9.10218 -14.3711 -8.21935 0.105706 3.96647 -0.964915
206 1 -4.71161 -16.8053 -20.3105 -3.12448 0.519983 2.50452
2523 1 -16.7775 -23.8364 -20.7708 0.656639 4.19432 -4.25016
213 1 -20.9481 -20.6992 -2.89097 -4.57626 0.889454 1.10496
221 1 -15.0246 4.17782 -2.00288 -7.52115 -0.71205 -4.68132
1840 1 -20.9258 -13.0235 -0.864728 -0.373225 -2.20254 -2.58176
235 1 -23.383 -1.78547 -6.49056 -1.02973 -1.43171 -3.73994
242 1 -8.7751 -5.41069 -11.7123 0.265089 1.78427 1.59781
248 1 -16.6456 5.21645 -12.8413 0.831921 1.21378 4.70859
251 1 -20.2707 -1.48133 -21.6312 -1.66858 -4.33093 -4.07145
253 1 -3.58055 -4.0133 -20.0836 3.85951 -1.172 -2.08809
256 1 -10.6105 -7.62512 -9.76385 3.81508 1.18849 -2.45114
3124 1 -15.7174 11.0664 -8.04544 1.27848 5.93801 0.1864
258 1 -5.98601 -0.43564 -7.59888 -4.71701 0.564138 -1.7904
263 1 -22.4571 7.45535 -6.29868 -5.37511 -1.68234 -0.106658
269 1 -20.5104 -7.24281 -16.9023 -0.143537 0.545668 -1.20956
1452 1 -6.74921 -24.3903 -16.5555 -0.877968 -3.52621 -5.373
280 1 -2.39297 -20.708 -11.789 -1.15311 -4.78201 -3.42877
283 1 -2.68845 -23.4944 -20.0915 0.79167 -4.36098 2.64311
290 1 -4.44217 -12.6374 -15.8314 3.61813 -0.556061 3.87498
3855 1 -1.43805 -7.46049 -23.3618 1.90304 -0.486162 0.727688
303 1 -21.4993 -19.3711 -7.47765 -0.235885 -2.65711 -3.59742
312 1 -8.35188 2.65116 -6.79033 -1.55195 3.01922 -1.64495
313 1 -17.3631 -17.4588 -14.8553 1.29908 -3.5456 -2.63594
314 1 -13.9582 4.33025 -8.31405 2.96492 -0.0150759 6.5511
317 1 -9.88051 -12.5743 -23.2339 0.48451 1.16571 0.841606
321 1 -19.1233 -12.9533 -14.48 -2.41193 2.25688 -0.769698
2596 1 -14.3074 10.6608 -20.4548 5.39564 1.93664 2.38772
339 1 -2.93383 -15.0825 -21.9036 -3.84402 1.59313 3.10816
340 1 -13.147 1.89102 -17.2059 -1.56284 0.502222 3.40564
341 1 -10.2401 2.1239 -12.9065 2.47278 -2.32143 2.25127
1634 1 -17.4001 -9.77795 -22.0292 4.24706 -3.56211 0.169358
343 1 -2.89278 -13.6744 -6.22174 -1.06786 -0.0830623 -2.79427
356 1 -2.08714 -20.6753 -20.0416 5.54422 -3.20057 -5.66106
359 1 -14.134 -21.733 -11.3748 -1.63973 0.0736149 4.00454
3196 1 -2.23891 0.245727 -1.98653 -0.688489 2.57312 -3.53275
364 1 -10.8063 2.68147 -7.97098 3.16361 2.62913 2.28521
366 1 -23.1875 0.553731 -8.06438 -0.0814221 -2.89428 4.16729
376 1 -2.32235 -14.5231 -15.1222 -0.82869 1.65811 -0.255591
3528 1 -24.3917 -24.2467 -0.770906 -2.30923 -1.93844 -4.20017
393 1 -12.7075 -18.8463 -10.7308 -0.164204 1.45685 -0.871957
222 1 -11.6956 -6.01831 -1.65565 1.75211 3.27861 -0.689683
2130 1 -23.5397 8.95866 -8.55817 -1.48407 1.23009 3.81462
191 1 -0.952141 -5.19226 -20.4247 2.28265 -5.36052 -3.42873
970 1 -2.55525 -22.6633 -7.75888 -0.663157 2.06586 -2.20255
415 1 -16.3396 5.65079 -8.05621 -2.55975 -0.580594 -1.62759
3688 1 -10.3344 -22.998 -0.433546 -2.26768 -3.13886 -0.805639
426 1 -15.7528 -3.68196 -9.81558 0.293661 -5.65882 0.500093
429 1 -6.29424 8.60047 -12.9642 -3.78755 0.644939 -0.442207
433 1 -17.86 0.794462 -16.9817 1.79648 5.44762 -4.39264
434 1 -13.4536 -3.71388 -11.302 2.65213 4.14401 0.294335
436 1 -15.7751 -9.17535 -11.3302 4.8221 -1.87653 -2.86097
438 1 -17.8148 6.7978 -3.60489 -0.950284 -1.37262 -0.0577042
444 1 -23.0688 8.22548 -16.8404 -3.36558 3.09855 -1.22905
454 1 -5.9092 -3.31196 -14.8692 1.34329 -2.2159 -5.9661
470 1 -20.1027 4.71102 -9.56564 -1.52738 -1.72743 -2.16502
476 1 -13.7182 -5.03954 -3.46638 -2.71349 -1.0072 -4.23673
477 1 -14.0515 -11.2879 -15.2747 -1.48881 0.418348 3.19742
3343 1 -24.3066 -7.6276 -19.06 1.94914 1.31979 5.76331
492 1 -13.94 -16.3889 -11.8324 -5.45617 -3.52061 -1.40869
3231 1 -17.7438 -16.9692 -0.689453 4.30134 5.87408 -1.60846
2267 1 -10.3661 -16.8334 -0.31883 7.29168 4.43744 -1.03828
501 1 -15.3984 -12.2088 -8.24946 -0.87958 -0.885039 4.37125
1892 1 -1.0797 -13.8074 -17.4325 0.694814 -4.85065 1.69253
2835 1 -6.54017 7.20972 -1.65058 0.0522162 2.33179 7.57341
517 1 -13.6996 -3.95998 -21.9447 1.19146 0.655258 -2.71727
519 1 -20.7036 -14.8976 -7.8994 1.53549 -1.90254 -6.26134
520 1 -5.07007 -21.7022 -10.7459 -0.0695384 -3.11953 -3.96686
523 1 -12.8245 -15.222 -9.35485 -0.738161 -1.04019 6.38414
525 1 -5.4751 -0.34163 -4.7422 -0.00770649 -3.75205 -0.631941
532 1 -9.9898 -0.666246 -3.64943 1.09821 1.68471 1.25376
544 1 -4.69439 -20.5311 -18.4534 -0.706551 -4.09081 -2.99211
546 1 -6.23267 -12.2654 -13.8593 4.3338 -8.32705 -0.325001
302 1 -1.16093 7.92628 -2.38346 -1.67576 -1.0991 3.86261
575 1 -15.6014 4.98651 -4.57835 -0.377428 2.26672 -0.886163
580 1 -5.3523 5.11932 -21.3035 -3.80298 -0.664072 0.42411
582 1 -4.21729 -16.6361 -17.3686 -1.7598 -4.63747 2.3864
2737 1 -20.8891 -19.8826 -0.171049 2.65574 -1.40809 2.86156
2593 1 -24.0888 -6.1525 -22.0953 -2.89563 1.34029 2.4029
1425 1 -0.697365 7.39794 -9.97608 0.0948606 -1.6384 -0.774739
603 1 -7.36299 7.92998 -4.44609 4.43924 2.54219 -0.714462
611 1 -3.24811 -9.40506 -5.50876 2.03339 2.70284 4.65577
614 1 -17.3119 -10.5772 -6.75003 -1.08796 2.60113 -0.269801
624 1 -7.29437 2.95417 -20.447 -0.0502304 -1.45716 3.92121
626 1 -3.27767 4.00958 -19.2718 -1.58999 3.41703 2.76853
3200 1 -22.9759 -5.94673 -6.56061 2.05545 -0.290464 -3.40668
629 1 -6.77035 10.7526 -8.98657 2.28926 -0.077073 -3.11583
636 1 -20.2874 1.56793 -17.8051 -1.668 2.53648 -1.54355
1024 1 -3.84799 8.68318 -22.7312 -0.343787 -2.02311 2.84885
639 1 -10.3932 -18.3678 -20.5278 -3.95719 -3.07812 -1.68597
645 1 -8.65527 -7.42126 -18.4809 -1.12025 3.82148 4.97094
651 1 -22.2597 5.29448 -11.2705 -1.03127 -0.842733 -0.511477
652 1 -6.28044 -5.09727 -17.1325 -5.64872 1.51535 -1.09177
2859 1 -23.4752 -23.2104 -20.9098 2.04928 -1.92845 0.814394
654 1 -7.95109 -0.986268 -18.9578 -1.89199 -4.06647 2.78293
655 1 -4.07889 -10.8319 -12.5137 -1.31791 4.49092 3.65829
661 1 -17.6396 -6.54622 -20.6366 -3.91529 0.559061 -1.16674
663 1 -13.8894 -20.6725 -8.40089 -7.80494 4.99637 1.14567
666 1 -8.24978 -7.08053 -8.30519 0.372037 3.56174 -1.18951
1852 1 -0.613791 -2.56515 -19.089 0.261336 0.000155221 -4.39676
3064 1 -3.68214 10.8984 -19.9296 2.20874 -2.6331 0.100297
674 1 -9.32955 1.25443 -19.5486 -3.45222 -1.62416 -1.3055
675 1 -21.7463 -13.013 -9.61153 3.74792 -1.80535 5.54818
2338 1 -1.92766 -2.7017 -16.6389 -2.39861 -5.36746 -4.5134
679 1 -18.4374 1.88625 -6.58498 2.45066 4.36732 -1.71238
3965 1 -7.11774 -0.206709 -0.406774 0.885706 0.0539897 3.62693
688 1 -11.8156 -12.6107 -14.0604 -4.19745 3.49426 1.2381
2995 1 -4.35901 9.73783 -8.25868 -3.77119 2.95672 -2.32721
709 1 -7.56807 -4.58771 -7.14938 -2.07835 -5.41511 -0.437212
711 1 -16.9769 -5.68483 -14.5188 -1.15577 2.05734 1.69846
717 1 -12.8388 -5.12297 -13.8602 2.60886 0.429898 -5.58449
721 1 -8.34912 -10.1994 -13.3932 3.39428 0.622339 0.260792
741 1 -17.0892 -21.5242 -11.7278 -3.03929 0.312299 -0.790186
3824 1 -9.51975 -23.9468 -6.99943 -1.97321 -1.24826 -1.73699
756 1 -6.76552 -1.89122 -2.55821 1.2176 -4.57956 -2.93122
761 1 -11.3601 -13.5892 -6.5343 1.6916 5.52424 -0.681458
780 1 -6.3711 -8.75275 -19.4719 4.09398 1.34346 0.63844
796 1 -9.5244 -11.7588 -15.8257 -3.06429 5.53771 1.47444
798 1 -15.8272 0.622341 -6.9093 0.0979024 -2.24375 2.34693
808 1 -3.11564 -18.6537 -9.86019 0.0986895 3.64805 3.574
810 1 -20.7799 -13.4868 -4.63401 1.60134 -2.68451 -3.47593
811 1 -12.0543 -9.49838 -7.82878 -3.00988 0.690716 3.89331
1908 1 -15.5623 -7.17198 -0.0873025 -1.31775 1.07178 4.92407
1354 1 -1.69726 -5.82523 -16.9325 1.91724 0.00303332 1.02241
1475 1 -23.0949 -24.0053 -4.30133 -3.12679 -1.31094 0.130509
826 1 -11.2055 6.80772 -2.85703 -1.03094 2.93645 1.98218
833 1 -9.6012 -4.96966 -5.38672 -2.35707 -1.60815 0.686351
837 1 -21.4578 -16.7031 -3.36358 1.22584 2.72294 0.619404
1147 1 -11.1043 10.057 -0.37202 -3.89436 -2.52329 3.21559
1941 1 -0.932174 -24.0728 -11.8848 -4.19428 1.56218 2.16177
856 1 -22.0307 -3.60257 -8.09985 2.17315 0.105208 -3.05407
3989 1 -18.2592 -10.8233 -15.948 -5.23356 4.87653 0.0158775
872 1 -1.83274 -10.3839 -19.7531 -1.71509 -1.1696 4.41596
2812 1 -9.22326 -0.782842 -23.0539 0.0201661 1.97335 -0.245644
882 1 -12.8434 -2.45417 -2.2499 -4.75524 0.960777 -1.82574
885 1 -3.95497 -18.4794 -3.64451 0.765379 0.457352 -3.93058
3614 1 -1.41205 -5.19752 -4.0215 -0.352452 1.79124 -2.84178
900 1 -11.6382 -16.3817 -13.7183 -1.82743 -5.7433 -0.248323
904 1 -9.53484 -7.503 -4.28734 -1.41166 -2.25263 0.914736
907 1 -16.1902 0.615303 -9.76097 -1.78502 -0.443873 -4.05596
910 1 -10.1195 4.5131 -4.5175 1.81712 -2.67512 -6.19369
922 1 -10.0304 2.54186 -16.8265 4.39973 -1.85645 0.77991
929 1 -8.78524 -14.1237 -0.206353 2.61542 -3.62212 2.78071
930 1 -20.9284 -19.6125 -12.6437 -5.46235 3.83941 -2.77702
939 1 -7.68329 -14.1268 -15.7566 2.0938 1.78167 -3.45172
942 1 -5.75486 -14.4048 -17.8307 -1.70291 2.67217 3.00181
948 1 -20.359 5.55539 -7.01223 -2.85607 6.554 -1.44425
1387 1 -18.1293 -0.843941 -1.85593 -0.88082 2.51249 3.66409
956 1 -14.7858 -6.45626 -10.7375 -1.45059 0.445126 -2.94595
962 1 -4.67589 6.99132 -7.85645 2.96973 -0.932296 6.61883
2205 1 -23.5627 8.65685 -13.8851 -4.06292 2.59232 -3.34321
2506 1 -21.1332 10.565 -11.0324 2.45281 -2.92457 0.745295
2396 1 -14.6733 -22.1898 -1.03325 2.44983 -1.74948 -1.10998
1001 1 -20.0726 -6.09488 -7.32247 2.61664 -1.07192 3.67757
1010 1 -14.2385 2.68595 -10.614 3.30975 0.620574 -4.99947
653 1 -23.6105 -19.1035 -13.3846 4.87368 2.47961 -2.63786
1022 1 -9.59863 -22.6981 -11.1622 7.54876 -2.36227 2.2931
342 1 -2.15183 -15.0221 -10.8716 -1.7436 1.53503 0.768268
1028 1 -6.31962 -9.57762 -11.1931 -4.90114 1.47918 -3.09799
1030 1 -16.2245 -17.7093 -22.8582 2.43535 0.243823 0.712817
1031 1 -2.0698 -11.6324 -2.95188 2.78103 2.71872 1.85227
2799 1 -1.44821 -15.2449 -8.03535 2.75611 2.0826 3.50543
1041 1 -1.23131 7.28318 -15.4921 -0.60544 2.39951 -3.37807
2494 1 -13.4694 -17.2131 -23.5607 -2.16086 -2.0535 -4.59613
1052 1 -20.0384 -3.26517 -19.5034 1.62758 -3.41212 -0.223547
1057 1 -8.35343 -17.4558 -14.9576 0.91508 -3.5534 -0.113201
1080 1 -19.0405 -9.29652 -9.53389 2.37064 0.971352 4.65972
1082 1 -17.5676 -18.2378 -5.37102 2.41532 -0.778272 -0.958822
1084 1 -3.12619 -15.4868 -4.0942 -8.13215 4.06021 -1.16583
1085 1 -10.3513 -15.9122 -4.66429 5.13634 2.86197 2.53388
1086 1 -9.39089 9.05995 -2.55938 -1.76056 2.68736 -4.45388
1090 1 -21.7664 -21.6084 -10.8625 0.233473 2.08417 -4.32651
1092 1 -20.5517 -18.9086 -4.85225 5.0424 -2.29171 -1.1116
1120 1 -6.71653 -16.7234 -1.20508 -0.99744 -1.28648 -0.508464
257 1 -2.43327 6.32367 -21.2997 5.19073 -2.73871 -0.371447
3977 1 -9.20945 -20.2503 -17.7064 -0.061054 -1.4031 -3.40548
1136 1 -19.8164 -20.9373 -21.0598 2.95891 2.77033 2.34225
1160 1 -9.02673 5.92197 -10.243 0.149051 -1.64329 -7.83433
1512 1 -12.1142 -10.5506 -1.03753 9.0296 0.422927 0.654175
1172 1 -22.039 -15.7221 -16.3016 5.44148 2.81384 4.13116
1174 1 -22.6222 -20.9612 -16.8934 -1.76836 -0.867626 -4.00441
499 1 -21.9513 4.14014 -5.11038 0.0965965 -3.24305 -1.12405
1191 1 -4.62097 -2.53129 -17.6705 1.92467 3.709 0.122257
1192 1 -14.025 -1.16482 -9.9094 -4.08256 -0.296051 -2.41882
1199 1 -13.6693 5.06115 -12.6539 -2.3832 0.15503 5.02386
1202 1 -15.1491 -1.58023 -5.20187 -2.83046 -1.42776 -0.34549
1203 1 -15.9337 -11.2339 -17.735 -2.90163 -3.97553 -1.46466
1496 1 -3.20049 10.6575 -10.7794 -0.209446 2.00209 2.95645
1230 1 -16.4832 -16.503 -8.87152 3.01149 -2.4225 -2.77584
1231 1 -19.6363 -11.6763 -10.889 3.57206 1.33113 -0.311553
1233 1 -0.996748 2.90175 -20.9245 -3.79539 1.87536 -5.08129
1245 1 -17.6602 8.77211 -21.1206 -1.77042 3.00921 0.408398
1247 1 -3.21721 0.15588 -10.085 2.1642 -1.73608 -2.5711
1257 1 -5.34539 -21.8711 -7.65225 4.65464 3.83143 2.69978
1263 1 -14.815 -7.87786 -3.22865 2.64072 3.92549 -3.6872
1264 1 -23.1205 -11.6545 -4.67082 -4.21719 3.76765 0.707911
1268 1 -24.0788 -12.3468 -19.4428 -0.663499 2.81936 3.67456
1276 1 -4.04312 -10.664 -21.5242 2.56943 -7.27489 -4.76037
1286 1 -6.16148 5.46871 -16.5218 9.25069 -4.76583 5.59343
1299 1 -11.5033 -10.5371 -5.35903 -1.58921 3.4994 0.543397
1582 1 -13.9168 7.12215 -2.01101 3.23939 -1.1276 -1.21574
1303 1 -8.22347 -6.93985 -15.6909 1.66492 -1.94446 1.0701
1434 1 -21.1124 5.88025 -22.3029 0.771972 3.48023 0.572794
1011 1 -16.9421 3.07221 -0.450515 -0.923723 -0.352013 -0.333068
3463 1 -24.0784 6.67741 -22.474 -3.13412 -0.580855 0.919549
2236 1 -23.5435 3.39975 -15.0267 1.84626 7.41552 0.0713541
1315 1 -21.7984 -10.3684 -21.6039 -1.98445 -1.07314 0.564696
1129 1 -0.592812 -10.2028 -23.3961 -1.89513 -0.544117 -4.54621
1324 1 -10.7354 -22.4399 -21.5202 -2.71977 1.31369 2.6505
1326 1 -19.0659 -18.4069 -20.3065 -2.58544 2.58237 1.21913
1331 1 -19.1231 2.01713 -2.04655 2.16742 -2.70491 1.365
1343 1 -9.94623 -11.6064 -8.22214 -4.02135 0.366349 -3.50705
1345 1 -20.3913 1.23696 -20.5206 -5.56724 3.0751 -2.04747
1347 1 -16.8443 -12.4246 -20.3771 2.88141 2.69209 -3.4918
1350 1 -15.3132 -0.521348 -2.38146 0.806348 0.199015 6.14361
1356 1 -17.6642 -13.7904 -3.71559 0.754202 1.41622 2.32724
1357 1 -21.4587 -7.38976 -11.6197 1.14775 2.67187 -2.87305
1363 1 -14.6668 -10.6548 -21.5108 -0.509181 -4.14084 4.47095
2551 1 -6.73223 10.9204 -14.7968 -0.474909 -0.465298 -1.22384
3851 1 -4.54975 7.58844 -4.92153 2.09379 1.94044 0.0292839
3972 1 -3.90919 -7.70781 -9.61684 4.77943 -3.47921 -1.49316
1399 1 -1.46849 -23.1088 -1.98993 0.0246281 -0.405569 -0.956278
1402 1 -18.6468 -5.26666 -17.8694 -3.41697 -6.92376 2.65407
1406 1 -5.83712 1.7575 -13.2841 2.08878 2.6753 0.965569
294 1 -9.38708 2.21353 -1.49529 -1.05124 4.33791 -1.83095
104 1 -14.6529 -24.4482 -10.3032 0.273312 -2.01727 -0.984426
1413 1 -11.7842 3.49335 -19.4199 2.9719 -4.8248 2.5518
1422 1 -15.0741 -19.3708 -15.1085 -2.64284 -1.32117 0.539425
1431 1 -7.70747 2.03664 -11.1732 2.53559 -1.8467 -4.93759
1433 1 -20.0926 -10.1632 -18.1764 2.43296 -1.58611 -1.26007
1436 1 -19.0584 -3.67334 -15.4398 1.02265 -0.223195 6.62704
2194 1 -18.3567 3.62421 -20.1659 -1.77853 1.00115 -3.92958
1439 1 -18.8259 8.78753 -10.4234 0.529772 -4.28308 4.77474
1442 1 -22.3795 -9.76338 -6.64869 0.855317 -1.25525 -2.24454
1450 1 -2.96238 -5.60193 -8.03172 -6.51422 -0.0487738 -3.82841
2936 1 -22.2721 10.614 -5.85422 1.46555 -0.107607 0.0353034
1931 1 -9.85607 5.96806 -0.638203 0.710766 -0.555431 5.26242
1455 1 -15.1268 -18.1583 -3.64854 -1.20546 0.311838 -5.22361
1457 1 -15.9652 2.79541 -18.3574 -0.306984 -4.40193 -0.725998
1459 1 -10.6206 -14.0269 -2.39185 1.88795 -1.74199 4.56702
1460 1 -14.4106 9.92903 -12.05 -1.02388 4.98253 3.3463
1466 1 -17.4849 -7.91961 -4.31003 -3.35456 -1.74165 2.52381
1471 1 -1.10685 -4.50884 -11.9806 0.314821 -2.65084 1.83491
2028 1 -1.61457 0.140006 -16.7069 -1.68348 1.12296 0.258993
1487 1 -3.75491 3.64102 -16.5649 1.00181 2.56322 -1.05681
1490 1 -21.9912 6.49008 -3.58481 -3.79071 2.57648 0.520053
1493 1 -6.20573 -8.35111 -14.2946 3.0865 -1.27358 -1.40574
1494 1 -8.623 4.65795 -18.193 -0.384795 5.52904 -1.22583
2053 1 -20.8512 10.9699 -19.6074 -5.87353 2.27644 -2.52671
2257 1 -0.877446 3.94228 -7.50698 1.1636 -2.99545 -4.3497
1504 1 -2.85224 -23.0047 -4.5739 6.97558 2.0324 1.72405
1799 1 -10.6829 10.7447 -15.0248 -3.82581 2.59733 -0.428085
1514 1 -13.2818 -5.26167 -6.16963 -0.299202 -5.71195 -1.86676
1522 1 -13.956 -1.70912 -13.3994 -2.07961 2.22232 -0.396731
3354 1 -16.5074 7.74682 -1.13242 -4.76351 6.84428 -3.20479
2727 1 -13.8045 -19.2616 -0.921893 0.31989 -1.06244 -0.539632
3847 1 -15.7309 -15.2344 -15.3645 -2.79782 0.416834 -1.4028
1554 1 -8.27414 -4.64663 -19.1805 1.21211 4.10069 -1.37176
1555 1 -19.6113 -4.23859 -4.63103 2.21115 1.55829 -2.8013
1570 1 -22.2005 1.02216 -10.7257 -0.143388 -1.68227 0.853485
2009 1 -6.42139 2.32307 -1.65222 -0.97617 -2.06694 4.39857
2468 1 -22.7664 -23.7883 -7.1261 -0.972457 3.46583 2.12655
1171 1 -24.4386 -3.82684 -4.77945 -4.02874 -3.05132 -0.510925
1589 1 -11.336 -22.7188 -3.39422 -7.68415 -0.860943 3.31427
1596 1 -3.06359 -4.69926 -14.9845 0.521569 -6.24006 4.64989
1602 1 -21.4332 -12.9968 -20.7374 0.444771 -1.11403 -0.461209
40 1 -1.42145 4.45283 -15.6477 1.36804 0.0804051 -2.09204
1615 1 -5.51847 -16.0355 -7.3828 3.02344 0.328186 -1.29142
1617 1 -15.2965 -13.4352 -13.2105 -4.14767 6.08907 3.04769
1632 1 -6.02044 9.30046 -20.8881 -2.45816 -1.69538 -1.83904
2922 1 -16.2833 -22.4486 -23.2605 0.219498 2.39838 -1.1711
1640 1 -17.5916 -23.8388 -13.3519 1.58825 -1.80001 2.99744
1645 1 -1.92787 -7.03182 -5.89834 1.3782 1.25847 -4.28792
1646 1 -21.447 -8.12659 -19.7187 -4.88177 -2.18614 -1.02872
2725 1 -0.763931 7.91726 -18.2643 -2.91192 -0.202938 3.50634
1649 1 -18.4592 -7.87303 -11.9241 2.52676 -3.58393 -2.67116
1662 1 -10.0329 -21.6112 -8.56159 -1.36282 1.48884 -2.79902
1663 1 -15.2593 -2.44196 -0.220349 -0.360808 -1.76324 -4.2449
1676 1 -19.1461 0.206909 -4.27703 -3.47102 2.20289 1.8656
2347 1 -13.1104 9.789 -15.8801 1.16521 1.9379 -6.85523
2252 1 -23.4441 -11.9107 -1.81035 -3.63841 1.59823 -1.64559
1688 1 -19.211 -3.25325 -12.5336 -3.18782 -5.62047 -1.85216
1694 1 -16.7614 2.39114 -12.6 2.01875 -0.0254436 -5.4888
1710 1 -10.5672 -22.6677 -15.3577 -6.20771 4.9538 3.56839
933 1 -18.9334 -21.2194 -23.6788 -2.59741 6.35193 0.318174
1725 1 -13.9113 6.36071 -16.2931 0.993269 0.128548 -0.719537
3959 1 -19.6809 -4.70127 -21.9749 -1.56191 -0.883446 0.998646
1789 1 -23.7019 0.370479 -4.51984 -1.34139 -2.62122 4.32019
1737 1 -18.0279 -2.44784 -6.14632 0.129104 -3.15742 -3.6142
1753 1 -22.5571 -15.6468 -22.2217 -2.79504 -2.91287 1.19077
1755 1 -7.74509 -0.92993 -10.0126 4.36698 -0.511996 -1.58323
1760 1 -17.4873 -15.1306 -22.0678 2.37824 -3.92161 0.933769
1778 1 -18.5824 -8.30484 -14.8003 1.0657 1.91799 -0.237268
1782 1 -23.2147 -15.0183 -11.3822 -0.392344 -5.08563 -0.715005
1785 1 -8.42408 8.32795 -9.02435 0.296631 -2.94624 -1.21683
1786 1 -2.90758 2.49553 -6.04795 -0.186996 3.32223 -0.145248
1680 1 -23.3501 -18.1069 -20.9514 -1.20794 0.244124 -2.87134
917 1 -24.3398 3.71893 -21.4282 0.887048 0.997227 2.07856
1801 1 -12.2384 -19.7907 -3.44079 -0.265279 -3.45601 0.170227
1802 1 -18.1732 -21.4018 -9.10264 3.53237 -0.646535 1.50204
1804 1 -3.58245 -23.0298 -12.9252 3.00283 0.404878 0.252113
1812 1 -11.0463 -4.87885 -19.4073 7.39339 1.57564 -0.504578
1049 1 -24.0074 0.210351 -12.9351 -2.39256 -5.93426 -2.41108
1830 1 -16.3764 3.10289 -15.5514 -0.160022 -0.275755 -2.84501
3751 1 -4.35 -0.882729 -0.159252 -4.60293 -0.0130147 0.0311612
1851 1 -7.97205 4.68583 -2.37093 1.57776 -0.482423 -1.95462
1861 1 -14.9347 -21.7694 -16.8038 -2.63736 2.19053 -1.78641
1862 1 -10.9643 -4.83137 -9.71934 -6.18392 -0.922418 -5.28532
1863 1 -5.69176 -13.1789 -6.72275 -0.025023 -4.20921 -3.52094
1872 1 -2.72887 -11.6536 -10.0825 0.862675 0.110463 -1.06086
1874 1 -7.38894 -15.3336 -20.3233 -0.160034 -0.371526 -1.3785
3973 1 -12.1529 -20.6853 -6.35478 4.64759 0.0838383 -0.190308
1876 1 -21.4102 8.10103 -19.2096 -4.14356 1.15448 0.726027
1879 1 -19.892 -16.9306 -17.9307 -1.77945 -0.145571 0.355283
1883 1 -9.32605 -11.988 -3.9831 3.02237 0.245723 0.424164
1888 1 -11.099 -19.336 -13.1303 -1.67151 4.16661 -1.35282
873 1 -4.31367 -1.09999 -20.4973 0.898762 -2.90493 -0.138148
1959 1 -23.8591 -4.70453 -2.07318 0.329321 4.67507 -0.203674
1901 1 -10.136 -14.5607 -19.6515 1.87924 6.65695 -0.424145
1905 1 -15.8638 8.25586 -7.1116 3.02904 -2.17324 -2.14787
1918 1 -17.3423 -1.34853 -21.2053 -2.96869 7.97028 -1.25779
993 1 -23.0191 -0.313418 -22.6154 -0.365359 0.949169 -3.54082
2605 1 -16.9526 10.5339 -1.6158 -0.138412 -3.99655 -1.72119
1930 1 -6.29816 -18.7978 -16.8387 -0.967055 1.73465 1.49932
400 1 -24.16 -16.6505 -2.18758 7.51773 -3.83216 3.32914
3968 1 -3.5938 6.16769 -2.41549 -3.00239 -2.69658 -0.0522621
3945 1 -21.7208 -13.1 -15.5845 2.63811 -0.991504 -0.79867
1944 1 -20.362 -23.4323 -3.10341 2.25046 3.79371 -4.32781
1949 1 -9.10932 -9.18753 -6.51571 -0.808094 1.07902 1.43366
1960 1 -15.9794 -5.46347 -18.3147 0.788476 0.94481 3.04754
1966 1 -18.01 -18.7738 -12.3041 3.35948 -0.151009 0.429072
1980 1 -19.9294 5.43501 -18.588 5.25103 -0.942373 0.246276
1996 1 -6.63807 6.45797 -23.7279 2.8689 -2.84236 2.0024
2001 1 -7.3853 -11.1328 -1.81903 2.29417 -0.393603 1.18265
421 1 -15.2948 -24.1647 -15.1818 0.940346 -3.53802 -1.74254
3877 1 -23.5965 2.91329 -2.65677 1.73547 -1.21093 -1.75821
2016 1 -8.0157 -14.4771 -5.51994 -3.25063 4.80245 0.947889
2031 1 -7.32795 -22.468 -12.6934 -3.74004 -0.515953 4.75208
2034 1 -9.18864 -2.67414 -17.1087 1.11157 0.258911 -1.08667
2036 1 -13.4608 5.99085 -22.8915 -0.414375 1.14931 -0.381244
2040 1 -5.84105 -22.759 -3.67138 -0.952206 2.0363 -0.151489
2050 1 -13.0209 6.73563 -10.093 -1.49193 -2.17822 -3.17604
2051 1 -21.6486 9.45084 -3.14821 -0.496319 4.31183 1.216
2052 1 -9.61793 4.72808 -21.0648 -0.531228 2.3419 -2.27738
2060 1 -8.21507 0.0805338 -5.79359 2.93445 3.96768 0.866774
2070 1 -22.7545 -0.61936 -0.27632 -2.50409 0.932142 -3.32373
2063 1 -9.88966 -11.7916 -18.6215 1.8361 1.58586 2.40797
2068 1 -14.3635 7.58625 -4.68495 -2.08174 -1.0501 2.02355
3994 1 -14.5822 -20.8097 -21.4899 -0.720878 -0.0224742 4.93833
2073 1 -17.0609 7.488 -14.5655 0.17928 -1.23808 -1.09369
2078 1 -13.5947 1.39016 -22.3715 -7.95015 1.46648 -2.86934
471 1 -24.0114 -9.81545 -15.2215 0.36343 3.17864 -2.60862
2085 1 -20.7407 -22.0419 -8.08393 4.3483 -0.431164 0.176095
2087 1 -10.0902 6.6106 -16.1976 -1.87901 -0.408682 -1.75712
2098 1 -13.3768 -16.6578 -5.21744 1.8463 0.927875 -2.13864
2106 1 -19.8635 -16.8614 -22.4267 -1.40899 1.36605 1.51027
2107 1 -6.78117 5.77769 -12.2915 -2.80601 -2.13495 -7.7095
2118 1 -12.3241 -1.65435 -5.07328 3.23008 0.20842 -0.625984
2128 1 -18.1788 -19.8692 -0.719624 -2.2801 -2.49908 -1.14065
678 1 -18.479 -7.88759 -1.02434 -9.84964 -0.0751545 -3.54752
2139 1 -7.49637 1.55707 -15.6128 -0.00787002 -2.16466 2.36053
1897 1 -12.3444 -23.6305 -5.81261 -1.58331 -0.0174372 4.36357
2167 1 -14.457 -13.7449 -17.5029 4.05737 2.93978 -3.91803
27 1 -20.2714 5.85037 -1.06643 -0.582469 1.36246 5.37202
2195 1 -9.93151 -18.7903 -9.26768 3.38577 0.486061 2.42946
2196 1 -1.41441 7.15897 -12.6853 0.740873 -4.07091 2.49643
3845 1 -3.34769 4.22821 -23.4992 0.792874 -0.0269256 -1.84981
2206 1 -3.39956 -9.19114 -14.6387 2.27068 0.640235 -1.04875
2207 1 -22.5004 -7.85336 -4.56386 -1.46874 -4.06551 1.75876
2211 1 -15.6983 5.69753 -18.4266 -1.36971 -2.71798 0.902088
2212 1 -17.3498 -6.4084 -6.427 -0.897145 1.85184 -0.905515
2228 1 -7.30263 -11.7274 -22.5269 3.05218 -4.09343 0.752887
2233 1 -9.96673 0.154695 -14.9501 -0.213395 2.78927 -0.739684
2234 1 -4.44706 4.46386 -4.39002 -0.932414 -2.65094 2.67988
2241 1 -22.587 -2.88431 -18.6081 0.7032 -3.18603 -0.00406519
1648 1 -18.7457 -12.4766 -22.5451 -1.72844 -4.44385 2.84142
2251 1 -13.1873 -7.92332 -12.8893 1.0228 5.79429 7.26902
94 1 -24.0812 3.07303 -12.1018 0.591548 -4.25125 0.236246
42 1 -12.5831 -15.1252 -0.467405 -3.25988 0.800616 2.55763
2278 1 -14.1248 -14.233 -6.98695 -2.43051 3.17993 -1.66701
2292 1 -13.7506 -12.4353 -4.6658 1.33515 -5.73342 3.20782
2294 1 -20.4502 9.37919 -15.9227 1.82047 -4.39423 -1.31086
2296 1 -22.5984 -11.0595 -17.3424 3.74292 -1.672 3.03459
2298 1 -1.12197 -20.6026 -4.58514 -3.07557 -2.32647 1.5216
2317 1 -4.05978 -10.1751 -8.10719 0.760824 -1.00274 0.135628
2328 1 -7.3322 -8.01058 -2.27536 4.12706 4.6086 4.61879
419 1 -22.116 2.45934 -22.7961 5.27587 0.669076 -7.71947
2361 1 -22.6696 8.18822 -11.3594 0.122984 0.177597 -2.05997
2368 1 -7.76343 -20.855 -6.89627 0.0685333 0.0216222 -1.38725
1724 1 -18.6329 -24.1684 -5.20705 0.641902 3.52094 2.92788
1293 1 -10.1965 -0.422127 -0.824252 8.35873 -0.0586333 0.624305
1890 1 -23.0789 9.11558 -21.6294 -1.45668 -1.73857 4.76626
2377 1 -5.1508 -8.05956 -3.91496 -0.516206 -4.34705 5.472
2390 1 -21.4181 -8.37517 -8.76856 5.86346 -3.05924 5.17068
681 1 -0.675263 0.90827 -5.765 -3.51551 -0.582875 -0.362265
3886 1 -10.2307 -16.1157 -9.95042 3.30954 -1.01512 -1.80769
2404 1 -19.8982 -7.87989 -22.1812 -0.116946 0.930915 0.750967
2141 1 -21.5669 -23.7026 -0.475026 1.31063 -2.37433 0.167817
2408 1 -23.2639 -3.27882 -13.8591 5.10942 1.65047 -2.15664
276 1 -24.3599 5.0115 -6.50236 -0.911382 -1.86148 2.23259
279 1 -21.9393 -2.47813 -1.93501 2.86972 0.264775 -1.83441
2425 1 -13.0557 8.76849 -22.2575 -3.91807 0.446616 0.309279
2429 1 -10.7156 -8.86672 -12.3703 -1.77766 -0.0951661 1.8307
3812 1 -4.37749 -12.7582 -1.92725 -2.87112 -3.72819 4.05836
1727 1 -24.2216 0.00107419 -20.2008 -3.99134 -3.2831 0.0279326
2442 1 -2.60022 -10.7965 -16.9306 1.01037 1.30063 1.61609
2454 1 -4.69877 10.5201 -16.8983 -1.19833 3.01347 -0.0618036
2465 1 -7.40322 -13.5109 -10.3575 4.29432 1.82563 -4.86971
3944 1 -14.7541 -7.41036 -15.1736 -1.23566 0.249492 -3.94328
2474 1 -4.77111 -8.63994 -16.9742 1.30971 -1.91287 3.48662
2476 1 -5.08539 -23.3496 -21.7132 3.74844 -4.36855 3.97163
2370 1 -23.8816 -11.6575 -8.62953 1.68021 -6.10774 3.38402
2481 1 -13.9662 -7.26965 -7.89859 0.650054 0.81933 3.78604
3993 1 -4.4919 -11.6421 -4.74878 -2.86252 0.276054 1.77988
689 1 -1.07363 -1.94475 -5.78028 -5.32127 -1.80826 -3.17097
1467 1 -24.3087 -16.5736 -17.8938 -4.1182 2.74429 -4.91512
2510 1 -21.6787 1.93795 -0.770138 -2.19897 -5.95222 1.46818
3099 1 -20.2175 8.58181 -22.082 0.5695 -0.41063 -1.46591
2520 1 -21.3501 1.46115 -5.75576 3.85029 3.13574 -0.381961
2711 1 -12.3963 -5.43142 -24.0672 -0.658785 2.34023 -2.51191
2525 1 -13.9715 -17.6978 -8.09684 3.61789 2.06416 4.06407
2526 1 -10.3414 -8.87083 -15.3123 -2.23226 2.93115 -0.547767
2529 1 -19.8339 -10.7186 -5.4276 -5.74022 1.74218 0.37864
2531 1 -17.7386 -8.92283 -19.112 -1.20686 1.66545 0.765212
2534 1 -17.1747 -11.6448 -2.15089 7.14269 -0.306544 -2.34275
2572 1 -22.4171 -15.4549 -5.68692 -3.6067 1.01083 -4.99266
2542 1 -12.946 -9.03531 -19.7827 2.79109 -6.69248 5.71439
2543 1 -16.5996 -8.32205 -8.30248 3.77166 -1.61279 0.096334
2550 1 -22.2576 -18.7008 -18.3729 -1.33867 0.00976656 -1.21963
2558 1 -18.9844 9.33786 -18.403 3.46417 -2.06199 -1.33622
2562 1 -21.6864 -4.49495 -11.6779 -2.76189 1.64116 -2.095
2564 1 -9.05656 -15.6141 -12.605 -1.00857 -3.14978 0.986656
2567 1 -12.14 -2.99591 -17.5354 1.06073 1.70157 1.65581
3874 1 -20.097 -23.475 -14.7427 0.359277 -2.19727 3.04216
637 1 -9.47044 -24.4098 -22.9609 3.67754 1.42545 0.634641
2578 1 -16.6302 -15.3978 -6.12799 -2.06555 0.00445818 -2.59298
2584 1 -11.7808 -22.1691 -12.9171 3.90706 3.07003 -0.26236
2949 1 -8.72125 -20.0992 -22.4904 0.875504 -6.19694 0.614908
2595 1 -2.43863 -19.0317 -17.4103 -1.90469 -5.00403 3.8958
3864 1 -2.11922 -1.98642 -12.8142 1.97981 -0.707432 -3.26638
2597 1 -21.6868 -4.62039 -16.2474 0.204558 3.25726 -1.20902
2602 1 -7.00903 -14.1017 -2.46483 -0.986365 -0.876469 2.21734
2749 1 -10.9057 -10.0444 -23.8413 0.736003 0.765528 -1.21866
2609 1 -13.3252 -5.426 -16.6398 2.24184 -5.85741 0.398885
2618 1 -8.56878 -18.5859 -11.9693 2.95648 0.228051 0.474753
2374 1 -6.02034 10.0786 -0.325261 0.913117 -0.300957 0.629354
2633 1 -4.62405 -16.4641 -11.1888 -0.963669 -5.96333 -5.30868
2403 1 -11.1375 0.0130524 -21.2444 3.89943 0.565088 -1.84281
3671 1 -1.59107 10.0965 -14.8969 0.0181012 3.51062 0.0990237
2652 1 -23.4927 -6.97493 -16.1936 1.78423 -6.4796 3.64218
2015 1 -1.05432 -7.21684 -2.13473 -3.2383 2.15913 0.53915
2656 1 -3.40358 6.78242 -18.4859 -3.19948 -1.64964 -0.409129
2667 1 -9.01428 -3.22152 -3.23285 -1.00207 -2.85177 -0.143911
2668 1 -8.30118 -17.6421 -18.8245 0.995603 4.01689 -1.38725
2673 1 -14.1173 -23.5344 -3.35759 -0.920302 1.0626 1.44647
3401 1 -21.9934 -23.8467 -12.3927 2.32165 2.71175 4.41061
2681 1 -15.2003 -8.41442 -17.9483 -0.952995 4.16906 -1.64346
2683 1 -17.8373 7.01263 -17.2887 -1.52166 -5.33196 1.65171
121 1 -4.59673 -19.3806 -21.7281 0.945581 -0.468782 2.96415
2689 1 -5.06102 -3.46107 -8.28276 -7.0379 0.0158652 -0.587497
2690 1 -16.5051 -15.0095 -19.17 -3.86407 -4.07542 1.19943
3146 1 -1.5965 9.37133 -7.97506 0.160236 -0.705338 -2.04062
2714 1 -17.7443 6.02396 -10.3359 -4.52683 2.92408 0.558822
2720 1 -12.9667 -12.0876 -19.3923 -0.641506 0.0684465 0.558076
266 1 -21.0356 4.4351 -13.6216 2.3799 -2.24076 0.463116
2726 1 -10.8622 -8.53716 -21.4755 3.14566 4.3377 -4.72498
481 1 -1.45669 9.25182 -20.7274 -3.44125 -2.90446 -3.22184
2729 1 -4.3171 -23.1818 -17.7235 0.272001 1.82641 -5.1615
2733 1 -7.5362 9.58756 -18.3166 2.70593 -4.85833 6.42242
2735 1 -4.25891 7.71518 -15.6923 3.86919 3.27598 0.66774
2740 1 -12.3421 -16.3268 -20.924 3.85767 2.10022 2.40564
2744 1 -16.1887 -18.8464 -20.2819 1.15198 -4.15939 1.30202
2748 1 -5.16622 -2.25805 -10.8333 -5.22598 -0.25061 0.90015
2758 1 -20.5295 -17.325 -9.14585 3.77908 -2.037 4.14778
2767 1 -12.0525 -20.4237 -19.9705 0.669509 3.34892 -0.0157119
2771 1 -19.3484 -13.0039 -18.8221 -0.232263 2.09528 -3.37751
2780 1 -11.2259 -3.39935 -7.21706 2.58546 -2.7932 2.09266
888 1 -7.43329 8.10769 -15.672 0.49917 -5.32835 3.01122
2790 1 -9.95166 -5.18109 -14.2141 -1.20938 1.06455 4.94355
2798 1 -21.1323 -1.83472 -4.56547 1.39833 -0.781889 -2.94851
199 1 -23.9463 -3.80975 -10.2989 2.89347 1.33117 -3.09073
2800 1 -9.46583 -15.9666 -17.1155 -8.05367 3.46125 0.566224
2805 1 -14.0498 9.23748 -9.23864 1.40237 3.63796 -4.58078
1580 1 -17.1963 -23.8903 -8.88482 2.55855 6.68741 5.81398
3896 1 -5.28363 -7.66953 -0.0145396 -2.16584 1.45976 0.917859
3862 1 -3.99115 1.07339 -15.6315 0.723094 3.74402 2.87895
2839 1 -15.9585 -2.78703 -23.1858 4.79263 -4.01503 2.76651
2842 1 -4.64066 -13.9829 -9.4053 1.27649 3.05412 4.18025
231 1 -24.0543 -2.94293 -22.2642 4.10042 1.08262 -2.23404
2855 1 -15.2982 -7.65851 -21.7753 0.823371 -1.98593 0.666316
2417 1 -4.28458 -3.16092 -1.87639 -1.51876 0.847286 -2.29768
2885 1 -6.73369 3.2581 -9.02122 -2.72436 -0.0294062 2.58713
2888 1 -11.9265 3.71098 -22.3148 -1.90441 -0.949856 -2.04265
2890 1 -2.56953 -7.52125 -20.4962 -0.355915 5.07889 -1.50808
2898 1 -8.66483 -10.0382 -20.1662 0.276396 -1.88856 3.09147
2901 1 -13.7168 -17.0711 -16.713 1.76528 -0.271353 -0.545244
2902 1 -16.1241 1.19603 -20.9205 0.332195 1.34045 0.0907402
2909 1 -10.3326 -5.72738 -21.9621 -0.271813 -5.15368 -3.44394
3958 1 -1.86377 8.54546 -5.13094 1.57282 -0.943998 0.70311
2518 1 -1.66023 -2.44177 -2.8029 -0.750996 4.22638 -1.86412
2926 1 -10.971 6.32119 -12.3051 4.63838 -4.87822 -1.13648
223 1 -21.2169 -5.81268 -2.70304 2.9964 -3.91639 -3.53781
79 1 -22.4465 -0.165431 -17.7726 -2.77297 2.12914 0.593601
2937 1 -18.6308 4.90156 -15.1319 -2.15625 4.38492 -2.99255
2938 1 -7.07332 -5.26888 -2.79233 0.0198046 -1.83866 5.78577
2941 1 -4.55773 1.74706 -8.25134 0.343416 -1.81137 -1.62489
373 1 -16.3099 5.74275 -23.8959 -2.87517 -2.35591 -3.98488
1289 1 -23.6935 -12.7899 -13.3212 -3.1052 -1.33662 1.20821
2960 1 -12.4324 -2.18602 -20.2552 -1.2043 4.84393 2.47091
2961 1 -12.1199 -13.5391 -21.5292 1.95653 2.5317 2.01721
2962 1 -8.85339 -2.47916 -14.3997 -0.767604 2.96881 1.62112
2972 1 -8.28667 10.0994 -11.5258 -1.74359 -2.84335 -4.45162
3922 1 -18.325 -14.7409 -16.7644 -0.540969 -3.45787 -0.450795
3007 1 -6.52462 -21.2952 -20.6801 1.25837 0.11479 1.21066
3010 1 -15.2629 -19.151 -12.1402 1.03195 -1.5829 -1.00483
3011 1 -9.44946 -2.54782 -11.4595 2.22481 -3.75199 1.51935
3018 1 -22.3276 -0.808736 -14.9005 -0.0300148 1.82117 -3.14396
1536 1 -5.9113 -0.119634 -23.8018 -0.756065 2.617 2.40698
3034 1 -12.1746 -10.4173 -16.9442 0.0832276 -3.91698 -0.254935
3635 1 -1.45054 -16.3 -18.6914 -1.28335 2.01299 1.71017
3049 1 -12.1372 -21.0058 -17.3028 0.219716 5.59907 -1.17698
3051 1 -17.8805 -1.84683 -10.3455 0.461038 2.64684 -4.48313
3059 1 -8.44551 -22.7978 -4.54385 1.95819 -1.22735 3.2315
3071 1 -4.40162 -5.09012 -3.94645 1.00726 2.38931 -0.892146
3077 1 -14.6991 -23.3646 -7.61448 -2.73655 -2.78505 5.03745
3078 1 -21.0712 7.38816 -13.6958 3.64957 3.30049 3.0511
3085 1 -15.805 -4.12775 -7.01408 0.737434 0.391899 2.31968
3093 1 -13.311 6.11493 -19.9964 -0.0209903 -1.08903 -1.88544
3095 1 -15.1157 -14.9915 -3.47659 -0.330224 -1.08651 -3.57395
3097 1 -5.21874 -11.2765 -18.6825 6.7985 -4.59427 -3.18942
3991 1 -15.7491 9.98658 -23.1626 0.769188 -0.549525 3.0133
1891 1 -7.3707 -15.4515 -23.0967 -0.154357 4.28619 3.73196
3120 1 -11.2419 -7.42652 -17.7197 2.68144 -0.289066 -1.26781
3125 1 -2.47656 -15.1424 -1.23453 -0.0190547 3.0431 0.821893
3135 1 -18.5779 -13.2848 -6.79027 -2.27851 -0.779197 -2.28064
814 1 -19.5005 -3.3859 -1.1201 -0.910874 2.77554 -6.79881
751 1 -18.7896 9.40633 -13.4229 -1.21083 -4.39193 -5.93159
3963 1 -14.8604 -16.6137 -1.11335 0.578225 -3.60924 4.1073
3161 1 -9.89303 -18.3256 -2.8676 1.04978 0.926049 0.618972
3162 1 -12.0921 -14.6804 -15.9248 -4.18413 3.64978 -2.67784
1412 1 -20.4067 8.58991 -8.06092 -1.58317 3.87569 -0.89173
3202 1 -16.6516 -15.0952 -11.5023 1.69846 -2.46131 -0.0666027
3205 1 -12.3502 0.917724 -6.35483 -3.07948 0.0492473 3.68811
3210 1 -15.033 10.3674 -4.04379 0.0912515 -3.1864 0.879707
3212 1 -11.9087 8.02004 -18.0284 -1.69803 -0.0537043 1.5058
3213 1 -1.64607 4.27252 -12.7421 1.9474 -0.0484273 0.503071
3219 1 -7.89688 -21.8456 -15.5532 -1.44392 1.72804 -5.63525
3221 1 -3.34157 -9.17917 -1.89224 5.71819 -0.174878 -0.83235
3741 1 -18.7884 10.3334 -3.9539 1.45973 -2.18984 -1.72776
2646 1 -5.11517 10.3268 -3.23293 -2.6702 -1.59101 -4.28844
3229 1 -11.3241 1.81828 -3.74313 -3.45606 -0.628228 1.36713
1942 1 -3.18916 9.59779 -1.09463 1.65662 -0.249056 1.46002
3240 1 -14.5718 -22.9128 -19.3258 -1.39216 0.0106212 -4.02648
3247 1 -3.5254 9.0169 -13.0966 -3.70596 -6.26306 -2.19478
3261 1 -15.2177 -3.50877 -15.0556 -7.49506 3.56724 3.55555
2625 1 -5.25648 -8.15935 -22.1063 4.25497 1.33633 2.83969
3294 1 -19.9493 1.9048 -12.4032 3.27403 1.06841 0.979795
3300 1 -2.64536 5.68093 -8.89855 2.12447 -2.07187 0.757074
1894 1 -1.41893 -17.5916 -4.96705 1.46522 -1.41285 -2.32024
3326 1 -22.5234 5.06493 -19.8832 -2.38448 0.789535 -0.435457
3331 1 -18.2635 -5.59373 -2.56699 -0.591685 0.602601 5.94968
3838 1 -7.3171 4.81887 -5.22621 2.27294 5.92297 -5.04631
3823 1 -7.39003 -18.0443 -7.95752 1.88216 0.450049 2.39356
3355 1 -16.4217 -20.8927 -2.88527 1.2239 -1.8506 0.128381
3362 1 -7.64869 4.13578 -14.5147 1.78104 1.10488 1.89242
3364 1 -20.0583 -9.0437 -3.14391 -4.54448 3.46611 0.22324
3366 1 -23.3468 -23.5103 -18.1245 4.9365 -0.794811 0.311565
3888 1 -6.54068 6.93308 -19.1524 -0.152657 -2.55345 1.84432
3370 1 -18.761 -15.5398 -13.3234 -3.61529 2.23293 4.00664
3381 1 -1.80504 -18.8078 -21.9965 -0.523598 0.423922 -3.77313
3385 1 -3.60083 -20.1125 -6.16982 1.04245 2.04188 3.0681
3389 1 -16.1854 -9.83096 -14.2449 -2.60924 -1.99145 -0.662452
3392 1 -5.87194 0.151585 -17.6202 -4.33151 -1.06877 -0.0213033
3396 1 -19.6417 4.726 -3.53645 2.46431 -0.18386 0.290756
3398 1 -6.20154 -20.0502 -4.56662 4.26411 1.7726 -0.790949
2419 1 -23.271 5.65265 -17.1538 0.96507 0.213015 -3.05541
1438 1 -4.74939 -1.01269 -13.4501 -0.0215584 -0.140446 5.83264
3413 1 -3.93631 -19.4637 -14.9348 4.48844 2.67463 -0.320718
3414 1 -18.1303 4.49889 -6.0969 3.71613 -0.7956 0.418412
3415 1 -17.5972 -1.36212 -15.0941 -0.74527 0.954585 -6.84649
3431 1 -10.8169 -3.25344 -0.486168 4.64311 -2.07254 0.612974
3433 1 -7.05666 -1.68144 -21.5951 -0.788057 -4.70203 4.5535
3445 1 -11.4959 1.71682 -10.4495 0.810929 2.86373 -0.313437
3446 1 -2.63236 -22.1622 -15.7348 -1.28338 -0.156672 1.8361
3447 1 -7.14772 5.93889 -7.81037 -1.47143 1.31627 2.93158
3450 1 -1.75556 -12.8222 -12.6783 3.99543 -2.31432 0.0415248
3452 1 -11.4986 -0.640298 -12.2703 2.21819 2.28375 -2.36088
3466 1 -11.3541 5.48289 -8.22198 2.62765 8.49987 1.15538
3470 1 -16.446 -20.2492 -7.02752 -3.06375 4.93141 5.58472
3471 1 -17.1767 -20.7043 -18.2385 3.7869 1.27241 -2.24405
3472 1 -14.341 7.90381 -13.9378 -2.1602 0.678644 -0.782124
3477 1 -19.7063 -0.62859 -13.4678 4.60654 0.167335 -1.76676
3491 1 -8.60564 7.50672 -21.7825 0.129878 5.38181 0.10661
3496 1 -9.74684 8.47357 -13.7344 2.06789 -0.947156 -0.461255
3508 1 -1.16437 -13.277 -20.3085 2.89302 4.04801 -0.362373
3509 1 -22.6336 -20.7629 -21.74 -1.91179 -0.323899 1.04623
3513 1 -20.4422 -20.7463 -15.1652 2.92431 0.211411 -1.73507
3516 1 -20.9601 3.86297 -16.4361 -4.50598 0.831063 -0.663805
3952 1 -3.96669 -6.32551 -18.3913 2.67993 1.5515 1.6034
1903 1 -1.78068 -18.4468 -13.3809 2.62375 -0.188938 -0.520399
3980 1 -23.229 -16.4566 -13.8211 -5.30683 1.42612 -4.15924
3558 1 -19.5029 -15.0304 -2.16068 -4.52686 -2.59405 -1.30965
3569 1 -4.86291 4.73686 -10.5265 2.1158 -7.05617 2.08175
3572 1 -14.4752 -17.0856 -19.3001 -4.95972 3.37608 1.78248
3574 1 -17.3903 -5.34148 -11.687 -1.56664 -2.39167 -5.71689
3575 1 -11.1044 -11.081 -10.8827 0.286603 -1.55729 -2.64814
3577 1 -9.518 9.00184 -6.51498 1.08404 -3.84388 2.15499
3579 1 -17.6898 -13.2325 -9.59984 -0.732376 -2.31062 -0.514818
3588 1 -21.5519 -8.55226 -14.3066 0.600668 -1.44425 -2.85777
3589 1 -11.5229 -0.900417 -8.66691 -7.54361 -1.65509 1.40525
3592 1 -8.18111 -18.151 -5.10831 -3.63759 -1.49989 -0.563294
3596 1 -7.10681 -10.1505 -4.73912 2.65973 -2.07192 1.76236
3598 1 -13.7721 -10.6518 -9.91381 10.4306 -3.87037 1.25296
495 1 -0.445598 -10.2673 -5.0893 0.916191 -1.37663 -4.93676
3829 1 -11.2937 -17.9723 -6.82219 1.43342 0.505717 -0.177909
3626 1 -14.542 2.85237 -6.07667 -2.34773 5.29231 -5.49713
3645 1 -18.1468 -18.6298 -9.56331 2.02706 0.16383 -0.220194
3649 1 -17.8203 -1.74758 -18.5216 -5.89829 -4.74071 1.6427
3663 1 -20.9538 -16.842 -12.0509 1.72956 -3.79381 0.100705
3082 1 -1.55931 1.83723 -23.834 2.92033 0.478105 2.12526
2688 1 -15.7479 -4.65275 -1.66147 -4.68727 -4.16166 3.25926
3961 1 -2.0376 -19.9562 -1.79668 -9.13701 0.540181 1.9034
3690 1 -11.5254 6.98255 -5.94189 -3.71665 -1.19618 5.38241
3694 1 -20.2514 0.771566 -8.46542 -0.499602 -2.47788 -0.983846
3700 1 -6.66647 -19.9049 -13.9767 2.67901 -1.69577 5.92144
3702 1 -5.6834 -4.67722 -12.2565 0.753604 -3.19358 2.28039
3706 1 -13.5375 3.83725 -15.128 -0.963834 2.30885 3.14675
3724 1 -4.362 1.69722 -3.5768 3.20356 -1.58394 -0.144799
3726 1 -9.15857 -12.7694 -12.5604 3.93412 -2.35048 0.318251
3729 1 -21.19 -11.3346 -13.246 -0.110203 1.64275 -1.02755
3404 1 -19.2609 -10.5391 -0.414663 1.92121 3.38864 0.323369
3742 1 -4.00874 -16.5421 -14.372 5.49054 -0.599034 -1.25921
3748 1 -15.2547 -2.7578 -17.8031 -6.7086 -0.434943 2.56527
3881 1 -16.222 -0.456721 -12.5126 -0.303549 3.47741 1.52938
3759 1 -10.674 9.06513 -20.4128 10.1157 -0.451022 3.2622
3950 1 -4.50308 1.57293 -19.4931 1.67984 0.181798 -1.54503
3906 1 -18.4672 8.34613 -5.95655 -3.04657 -0.368541 -0.522685
3369 1 -0.515866 -0.85128 -10.8966 -1.27931 -6.57592 -3.24008
3794 1 -6.08036 -18.9857 -10.4698 0.354635 -4.38902 1.96103
3796 1 -13.1695 -13.1896 -11.4717 -1.34018 -1.21041 3.37567
972 1 -7.6346 -19.4257 -1.62007 -6.31057 0.654724 -0.247692
3941 1 -17.2327 1.65989 -23.4982 -1.35902 0.992651 3.82781
628 1 -21.7023 -17.1669 -0.416047 -0.711948 -1.69569 4.78561
2288 1 -24.1257 -8.12696 -11.4068 -5.23005 -1.62199 -0.89662
361 1 -23.7247 -20.985 -3.45709 -1.6897 0.673087 1.83956
935 1 -24.3343 -9.26668 -0.696402 2.94722 4.45103 1.517
3662 1 -2.99485 -0.527429 -23.0411 -1.80377 -2.73307 2.4983
1228 1 -23.8977 -17.8228 -6.6279 -0.466429 -0.305204 4.75605
2915 1 -14.0625 -13.0108 -23.3472 -0.232681 -1.52983 1.5225
2010 1 -7.93649 1.84331 -23.1699 2.00892 0.338863 -7.03555
2104 1 -21.6644 -6.10362 -23.5884 2.74593 1.42915 0.442672
406 1 -6.65636 -18.2173 -23.3777 4.609 5.26493 0.48912
32 1 -7.77122 11.094 -22.5752 -0.4825 0.341402 -6.72342
821 1 -23.1141 -23.8217 -23.8598 5.3421 1.78909 -3.77778
2248 1 -0.691661 -8.79625 -13.95 -2.41879 0.702217 1.2363
2306 1 -0.465134 -1.20329 -21.6675 6.30088 -4.54258 -3.15409
329 1 -0.701144 1.30514 -8.63328 -2.79692 -2.44641 0.238531
1525 1 -9.38753 -7.22277 -0.315925 6.9708 1.4594 -4.40347
2893 1 -10.6151 -18.0995 -23.5072 -1.16771 -0.580885 1.82488
2153 1 -9.61566 -11.3109 -0.0774618 3.39125 1.3372 0.0459746
2438 1 -4.87488 -21.4493 -23.7566 3.72647 4.37853 1.31788
3147 1 -0.917857 -16.3614 2.93798 1.13822 -1.98263 3.11655
9 1 -15.8002 6.49748 5.24285 2.56191 -0.739209 1.29181
13 1 -19.5209 -13.6268 12.0182 3.04614 -4.40859 -5.96645
16 1 -18.5228 -0.476855 6.92409 -1.81723 -1.76463 -2.05436
3084 1 -15.6136 -23.933 6.68782 -0.657364 -4.1556 -1.41783
3224 1 -4.41809 -4.84202 0.358997 2.03503 0.620385 -3.5579
28 1 -19.4283 6.21006 2.92839 -1.61448 6.43231 1.2817
34 1 -19.5252 -23.9871 16.4603 6.55328 -3.75907 0.413759
2537 1 -1.38951 -24.257 14.0262 2.43748 1.67499 1.56315
43 1 -13.087 -6.18065 0.998492 -2.5079 0.791926 2.10293
46 1 -22.8238 -22.5364 18.99 -1.46752 -4.29233 1.27925
47 1 -6.19085 3.00893 20.8262 -0.0134951 -4.16307 0.748465
51 1 -7.62112 -3.94021 19.704 3.11296 -2.85131 -0.282836
56 1 -15.7746 4.77354 2.85382 1.19416 -3.31107 2.54419
1075 1 -1.19841 11.0306 12.6743 -2.47467 -3.55858 -0.158248
2383 1 -23.861 -17.2924 6.30179 1.7672 -1.40512 -0.82341
1208 1 -23.412 -7.75561 8.07656 3.79914 2.58327 6.76655
64 1 -8.97371 -3.23507 1.91788 -1.28569 -2.97255 -2.09713
71 1 -9.27881 2.20633 2.99821 -3.49319 3.01491 3.09379
73 1 -11.5958 -17.6247 14.7759 -2.70395 3.08542 2.34504
3939 1 -23.2174 -1.1693 15.3005 0.450623 2.64419 -6.81703
96 1 -24.2617 -17.1292 22.2761 -3.19938 -7.68891 -2.00946
2357 1 -0.636265 1.35073 0.603661 -2.18358 -2.57097 -0.369501
1176 1 -0.97687 -11.4134 15.5489 -3.35359 -0.350014 4.02285
108 1 -9.84135 3.29845 23.6498 2.31731 1.01801 -1.54622
113 1 -5.57001 -5.59735 18.4952 0.735112 5.3067 -0.933994
114 1 -21.2202 -17.3241 17.9058 -1.41399 1.667 2.23512
3000 1 -3.36947 11.1412 14.3855 -0.782841 0.0904653 -1.91536
122 1 -5.30487 5.77989 20.862 -0.158423 0.5174 -1.77087
133 1 -16.1624 3.13531 15.4206 4.16894 -3.21781 -4.40114
146 1 -11.4866 -9.08878 13.9705 3.50323 2.91188 -5.04477
152 1 -5.3037 -4.55962 15.7409 -1.2612 2.31945 -0.499054
159 1 -19.4751 -9.99426 11.8479 -0.773116 -6.42562 2.60813
162 1 -14.4956 -12.7469 19.2721 2.12127 -3.23405 -2.86626
3494 1 -18.0574 3.89454 22.3731 -6.13644 -1.94372 -9.83565
171 1 -13.813 0.49369 14.7461 0.75326 0.643935 1.09728
488 1 -1.19232 -12.8025 19.2677 -1.18723 -1.90014 3.88399
177 1 -2.85252 -20.2434 14.9367 5.28064 -1.6729 0.200175
1920 1 -21.7591 -14.6102 1.32546 1.01682 3.88612 -5.73204
182 1 -19.7315 -3.41165 14.8659 0.172848 1.80339 -1.47075
189 1 -5.10173 -2.80978 2.31221 0.448315 4.00147 8.01207
1153 1 -3.88774 -19.3409 1.50436 0.504423 1.68956 6.88908
264 1 -22.1068 3.20416 17.2499 -1.1548 0.447427 0.942075
3936 1 -0.781479 -22.1242 22.8753 -1.70827 -0.0940366 -0.324718
2127 1 -24.0633 -9.34224 23.6625 0.684483 3.0083 2.19848
232 1 -3.20066 -16.4034 12.1272 3.52773 0.592883 0.455141
241 1 -22.0968 -14.936 10.0892 -4.67694 -1.97485 2.80524
243 1 -4.98116 -10.0651 8.41259 1.4771 -2.84299 5.37925
986 1 -1.93292 5.22773 12.101 -1.21277 1.28122 6.74643
247 1 -23.1894 -6.78763 12.9376 -1.07705 -2.91212 -0.613369
827 1 -2.16391 1.63797 5.33081 2.15431 -4.64373 0.712952
1999 1 -1.69404 -8.86418 20.9489 5.10428 -2.98137 2.47077
1994 1 -22.3491 -16.5248 4.09052 3.80208 0.454668 4.13376
270 1 -20.9266 -16.0672 15.0955 1.22872 2.32821 7.65044
273 1 -16.634 -10.7048 12.7119 2.32526 0.0655382 -0.022844
289 1 -4.42024 -20.391 10.2485 2.05643 3.44378 1.77155
291 1 -10.2282 -20.1031 14.13 0.973474 0.125108 -0.685175
304 1 -19.0532 -19.5879 13.663 -1.20876 -2.74508 -0.0329298
308 1 -16.787 -22.1247 2.71071 0.102877 0.577562 -2.28946
3045 1 -1.20908 0.0922573 3.13884 3.0958 0.0140279 -1.57404
319 1 -11.6077 1.87852 12.807 -2.0215 2.16389 6.15249
2376 1 -14.8253 1.10575 23.3046 -3.33803 -0.324155 -6.02469
323 1 -15.1453 0.263475 3.31332 5.86957 3.42996 -2.22553
325 1 -2.05223 -23.3501 19.5056 0.445237 -4.63902 -1.63315
326 1 -18.2343 1.28653 1.52526 0.421312 -0.914795 0.23036
327 1 -3.21542 -11.4042 20.8686 -0.461779 -1.70217 0.383045
61 1 -11.6618 -0.890564 2.47152 0.373535 0.624432 -3.88912
345 1 -12.3855 -5.02417 12.7973 -0.632546 -2.2581 -4.87816
348 1 -10.3063 -4.48408 9.03645 0.650589 1.86437 0.44789
1156 1 -16.8572 -13.6337 23.4554 -2.60045 -0.283187 1.80186
351 1 -16.156 1.58991 12.7094 -2.27293 -2.27674 1.45863
355 1 -3.72009 -2.86316 6.26212 1.52926 -3.316 7.59691
357 1 -5.76905 -14.3605 0.516964 1.43997 0.968139 1.38302
324 1 -24.2584 4.40804 6.5616 -0.4887 -3.84825 0.280668
363 1 -18.5258 -19.3252 8.54122 -4.95559 1.77959 0.474015
3893 1 -6.84753 7.9544 7.50754 0.735676 -0.632677 4.66456
806 1 -2.30268 -13.9957 15.1321 4.335 -2.6604 -6.51341
585 1 -7.51265 9.18967 16.7153 -0.241954 1.70565 -0.484802
224 1 -12.0302 -3.07443 22.5115 -2.38546 -4.17943 3.67684
381 1 -21.7356 -18.7415 13.9956 -1.75314 -2.85086 -2.13975
385 1 -8.39042 2.33991 19.4399 0.827687 -2.49786 -2.11928
3087 1 -9.3532 -23.2681 11.9722 -3.8174 6.84548 1.54782
389 1 -13.5449 8.2515 5.34266 -5.25626 -1.57541 1.94389
5 1 -20.2278 -19.7448 22.312 -3.99859 -0.875332 -2.07388
2485 1 -1.7337 -18.3797 6.00761 4.09559 3.29014 2.28149
404 1 -16.3309 -2.29302 2.3436 -0.974565 1.05303 4.0615
1519 1 -12.0258 -18.8516 1.17592 -0.939277 -2.37422 -0.771702
412 1 -17.5296 -5.6278 5.95846 -2.71479 -4.37264 -1.24856
417 1 -12.0749 -1.05348 9.53197 -2.31533 6.72977 -2.92012
1972 1 -0.770898 -7.32365 8.0012 -0.75211 -0.292165 -2.09593
423 1 -6.64196 3.53006 3.48755 -2.18756 -3.35932 -2.60549
2219 1 -11.1373 -24.5258 13.9918 -3.30633 -0.496076 1.12177
3749 1 -21.7708 -2.30659 13.0499 3.77643 -0.689995 -6.48592
448 1 -15.3347 -2.08917 12.5393 4.26928 -0.662948 -2.71928
462 1 -6.03186 -19.4675 22.1333 -4.94023 -3.15322 0.596983
330 1 -14.1801 -23.8789 23.2737 -1.91961 2.38022 0.502453
1223 1 -22.7742 8.90141 11.7084 0.0615972 -5.11174 -0.489745
467 1 -1.64234 -9.38505 11.9996 2.81071 -0.50469 0.0145922
472 1 -15.9925 -4.78233 17.0239 -1.23681 1.19702 -0.847978
2793 1 -4.25415 3.78085 6.40697 -7.08247 0.162941 1.62799
491 1 -16.5603 -13.3058 11.1268 2.14329 2.85807 -4.2216
500 1 -5.96367 -15.3722 9.71435 0.631332 -0.817744 -5.56309
504 1 -4.71825 6.02333 3.52678 1.63398 -1.20121 -1.38939
513 1 -18.4906 -14.34 14.7968 4.1629 2.86541 -2.45644
3913 1 -10.5487 3.36665 0.79627 -1.91052 -1.19347 1.13387
524 1 -2.74966 -2.47661 19.5974 -0.302959 0.96725 4.06112
529 1 -7.3755 -13.6621 8.22693 -5.40657 -1.0616 -0.912815
530 1 -9.28665 1.96505 9.68211 -1.06261 -0.7211 0.0421296
533 1 -13.4751 -23.3704 12.7466 4.76313 2.4532 3.6369
538 1 -17.7756 -7.63295 12.7549 0.771441 0.17038 1.59354
540 1 -9.60188 -11.7156 3.13644 -4.4028 -0.716152 -4.67829
541 1 -12.7882 -1.85522 15.5164 1.10959 1.83417 -6.56372
549 1 -20.1318 -4.75488 6.76546 3.42673 1.15184 4.75015
1971 1 -21.9889 -3.09739 8.74846 3.70485 -3.26263 -2.09306
558 1 -4.87525 -15.1611 14.0451 3.37064 -1.61442 -0.917894
559 1 -8.42507 -18.536 7.24091 -1.64911 -1.38839 -3.99364
564 1 -10.2695 -20.677 11.416 -0.503357 -0.362965 0.243129
581 1 -16.6039 -8.00964 15.4716 5.62546 4.27619 -6.07804
592 1 -12.4244 -12.7005 13.2913 1.52283 -0.471712 -2.87197
593 1 -11.2636 -22.2957 18.3627 -2.96032 -2.00745 -0.505747
594 1 -19.8848 -0.905498 3.70821 1.81423 -6.87922 2.90407
596 1 -11.3545 -20.7305 7.02578 1.6862 -4.58803 -1.78497
602 1 -9.83826 4.25403 20.5784 1.85697 -8.07008 -2.20769
605 1 -21.9782 -2.64685 19.9272 3.01382 2.20832 1.68506
3130 1 -23.6085 -10.229 9.81967 -0.949257 -0.882506 1.1021
622 1 -21.8848 -9.83276 0.913194 0.392648 5.00821 1.14667
631 1 -5.37459 -17.6721 15.2131 -0.888756 0.0139995 -0.43228
632 1 -13.4011 -20.7899 4.75596 0.597525 2.06045 -0.74264
634 1 -9.84093 -3.72554 17.8475 -2.5565 0.46601 1.58992
642 1 -9.42657 -1.76026 8.14433 -4.97449 -1.00992 -3.77096
650 1 -9.2135 -0.197093 20.1341 -5.76084 2.1832 0.399474
664 1 -14.8556 -21.3434 14.0422 3.63899 1.0273 -0.325892
665 1 -2.88242 -5.10738 18.8606 0.207488 5.33514 -7.39191
2247 1 -21.5805 -11.9085 10.3625 2.76841 -3.0719 0.470823
686 1 -14.8772 -2.24935 17.4256 -0.317072 -3.55069 -0.750928
687 1 -11.9773 9.68101 11.5609 2.69273 -0.924748 5.10041
692 1 -7.35419 -8.36451 3.66657 -1.96025 -5.87196 -4.69713
696 1 -8.58092 -21.3262 8.38382 -1.48353 -2.85266 -2.63798
699 1 -14.6982 -11.6581 14.9763 -1.77315 -1.55395 -0.754366
702 1 -16.0081 -4.58235 10.8439 3.14632 0.189981 1.12181
704 1 -7.90591 -10.9678 14.7129 -2.66852 0.326167 1.44327
707 1 -14.8457 1.0359 19.6099 -1.02578 -0.0296112 1.82045
710 1 -1.85993 -6.61011 10.6925 -3.42435 -2.08829 -0.240633
1267 1 -24.3783 -14.7111 2.38758 -1.11726 0.491195 -0.445513
718 1 -12.022 -7.8178 2.99404 -0.178161 3.13271 -1.39328
726 1 -4.29537 -10.5922 17.9508 1.56857 2.52127 -0.867942
733 1 -13.4634 -18.1336 5.90096 0.31016 3.99353 -0.0963493
738 1 -11.3507 5.99452 16.6218 -2.17644 1.3875 1.60168
739 1 -16.7667 -17.3049 2.01543 4.87274 4.77201 3.56644
3222 1 -14.1037 -18.4844 3.08773 -0.230117 0.595131 -1.121
745 1 -21.0825 1.50769 22.6677 -0.570903 0.71567 4.6915
3842 1 -22.5907 -0.896924 22.3377 -6.16729 0.387205 -2.8317
748 1 -10.4652 -22.4234 22.6911 1.97063 -2.64422 -0.425231
2984 1 -2.60287 -2.18685 22.4438 2.09027 2.28407 -1.86028
758 1 -14.2683 -19.0365 19.9364 -2.74977 1.22802 3.52403
992 1 -23.4724 10.7673 3.70781 -0.132228 1.86153 -2.36404
768 1 -5.35842 10.3229 6.34415 2.00851 1.3585 -2.66424
781 1 -16.2535 0.781982 8.28722 -3.85352 -0.412002 -2.20287
788 1 -20.2973 4.30288 4.77708 2.93302 0.521022 2.40456
797 1 -15.2181 -15.299 12.6591 -0.950895 -1.083 1.47708
800 1 -16.8888 -12.9119 17.8366 -3.12077 4.36485 -0.655277
802 1 -18.1274 -20.5444 16.3866 -2.13738 2.93408 -0.761764
100 1 -24.045 -14.6773 23.4596 -0.748749 -1.56699 -0.966941
818 1 -7.92707 6.61705 20.6413 -0.430864 3.26004 3.45236
825 1 -22.9485 5.52096 4.34665 4.13541 -2.02872 -2.51197
1006 1 -23.0917 10.1567 19.0964 0.783784 1.71788 -0.260867
828 1 -7.70995 -19.1958 14.6903 -0.530689 4.55998 -2.70279
830 1 -9.79063 -9.85327 21.4758 1.14448 1.17461 1.77124
832 1 -1.95847 -3.90161 9.75284 2.48806 -1.21811 -1.56892
854 1 -21.4541 -12.0671 2.82969 -1.40031 4.40301 -4.43602
3475 1 -23.2152 -14.0135 18.3515 -1.02213 2.70915 -2.0543
864 1 -11.7446 0.897299 19.3206 -2.99485 4.47402 2.6571
3181 1 -18.4827 -17.761 23.4008 1.2569 -1.6094 -2.76916
881 1 -1.6167 -5.08728 22.9831 5.8759 -0.401734 -0.74645
889 1 -13.3085 -4.93137 15.6081 -4.85378 -1.9088 3.60044
891 1 -22.3731 -1.64421 2.10146 0.963798 2.34587 -1.98789
1940 1 -18.563 -24.3836 3.78413 5.45612 -2.56991 -0.758527
375 1 -23.7717 -6.88649 22.4069 2.24953 -0.112918 -2.03467
908 1 -8.42842 -17.332 12.5286 -5.59077 5.16904 -4.02225
916 1 -17.3202 -18.2811 20.1568 3.63587 -2.24303 1.49915
3195 1 -18.6014 -1.50515 1.0323 -0.230304 -2.7629 -0.128419
3223 1 -22.7129 7.23136 19.4006 -5.89106 -0.672847 3.2569
3263 1 -23.5435 4.91656 21.2257 0.60157 -2.91809 1.26804
946 1 -14.0943 -8.72548 5.89908 1.69897 -4.83421 -0.176823
950 1 -20.6133 5.73832 13.3974 -0.790287 0.647218 -5.74033
957 1 -5.67798 -1.71339 15.7803 2.34573 -1.51765 1.97491
2067 1 -22.244 6.45597 23.195 -4.22044 -1.84224 -7.14943
960 1 -3.94542 -21.865 5.18569 -1.88052 -2.14148 1.02046
966 1 -15.3562 -5.9208 13.5862 0.77124 7.28306 -0.776908
973 1 -11.8742 -5.90048 18.0192 4.71668 -2.03463 4.50117
975 1 -9.52266 -10.2084 5.73826 1.26601 -1.45631 -5.76437
976 1 -15.9982 -7.27326 10.1995 -7.9953 -0.599078 2.76011
982 1 -4.47681 -7.80722 2.73037 2.16228 -3.17497 -1.80085
983 1 -19.2363 7.54168 17.5861 0.966495 0.496876 -0.48748
362 1 -19.7982 9.52432 5.43678 -0.236326 4.03235 4.26595
987 1 -21.6053 -19.3222 11.0808 2.89521 1.998 3.43871
988 1 -10.8883 -23.0162 9.31438 -3.02997 -1.29072 1.30779
991 1 -3.7029 -6.52819 5.39815 -5.30814 2.823 -3.0726
3591 1 -6.15921 -12.1856 21.8355 -3.70357 -2.17548 -1.18879
2662 1 -20.6957 -23.1829 10.5429 1.30133 -8.34854 -0.976935
3497 1 -15.232 10.7227 18.0255 4.40948 -2.40636 -2.98263
1002 1 -11.7236 -15.741 5.22306 2.8676 0.465011 -1.89498
3711 1 -11.7966 10.158 14.5848 3.13755 1.9478 -4.23255
1510 1 -15.7361 -12.4875 0.211743 1.20714 4.80863 -6.03804
1016 1 -20.609 2.32126 6.86232 1.92835 -3.42703 -1.06001
1017 1 -6.87013 3.32473 17.2831 -1.73871 -1.68124 1.33476
1018 1 -21.5386 -20.271 5.63541 0.393062 -3.10445 1.75535
1401 1 -23.6489 -20.3627 20.5368 0.371308 -3.05703 -1.59171
1027 1 -20.594 -7.04438 11.9561 1.34017 -7.0178 4.43118
3425 1 -23.7555 -9.35869 18.6667 -2.1201 1.92531 3.08906
1037 1 -10.4095 -17.5942 17.3572 1.67955 6.17032 0.738029
1038 1 -4.07935 8.52529 10.3762 3.72694 -4.16812 0.396657
1014 1 -20.7019 -23.6141 2.24894 -1.72021 -1.7939 6.45177
1047 1 -15.5533 3.03432 21.1455 2.26831 -0.395733 -5.00976
1060 1 -16.5968 -11.5269 8.89881 -1.58735 3.82007 -2.24439
1062 1 -7.93033 -0.595954 10.3454 2.83135 0.245828 -2.74131
1067 1 -20.053 4.58262 8.44916 -2.17061 0.420288 -1.67568
1070 1 -9.11238 7.1646 10.1472 -3.22667 2.85121 1.90861
1079 1 -13.1174 -3.99036 9.95747 5.04188 0.694595 0.39134
1089 1 -15.1697 5.7274 16.0878 -8.89091 3.518 -0.792103
1290 1 -0.579114 6.65434 8.83093 0.0654257 0.593814 0.838691
1098 1 -11.5728 -6.61304 21.5171 6.49613 -0.560247 -1.09566
1104 1 -21.2389 -0.30953 7.80558 -3.64086 -0.1322 -1.38621
1106 1 -16.3374 -18.6551 6.67476 -1.78105 2.88878 -3.52021
1109 1 -19.225 -13.8564 2.97845 2.74171 2.41405 6.07038
1112 1 -3.81316 -13.4474 17.5204 0.660687 -1.83264 -1.44073
1114 1 -18.2519 -3.10712 10.1949 -0.969888 1.94864 2.00089
1116 1 -13.4466 2.0105 7.43668 -3.5794 -1.41617 -5.27674
1125 1 -22.4416 8.29367 5.03944 2.10356 1.62416 0.998016
1138 1 -22.5409 -22.4755 4.06191 -1.51786 -3.31014 2.20829
1777 1 -24.2065 -11.806 16.7986 -3.39907 6.85964 -0.0210568
2784 1 -12.3417 1.06067 0.315569 3.31633 -3.392 -2.48584
3518 1 -5.28707 3.23905 0.83989 2.49184 2.45268 0.311184
3390 1 -24.4549 -23.992 14.9619 -0.969574 -3.79099 -0.126359
906 1 -8.26997 -24.0489 17.5569 4.21048 1.46672 -0.096976
1478 1 -4.27438 6.49047 7.01586 0.521935 -0.997438 -1.10282
1158 1 -16.0763 0.685525 17.0918 -1.81521 -2.49992 3.50425
420 1 -2.04119 -2.89436 12.5224 -0.441651 3.78402 -0.51
1164 1 -18.2902 -15.6182 10.3376 -1.73527 0.755885 5.20621
2170 1 -7.96026 -17.0327 1.45103 2.54313 2.10278 3.86952
1178 1 -3.3202 5.89324 9.61903 1.06796 -0.0514699 0.4453
1205 1 -4.90237 -19.838 13.1321 0.338504 0.690222 2.62466
1211 1 -13.8232 -12.6055 10.8506 4.37812 -1.07396 0.473555
349 1 -4.7034 10.5448 21.1953 -1.91122 -1.22414 -0.278683
1236 1 -4.51135 -21.6378 17.1255 -1.79078 3.12656 -5.60979
320 1 -1.6641 -0.705887 7.11826 1.53638 -2.80523 -1.78951
1240 1 -5.13696 -23.4679 3.16759 3.09856 -0.767065 3.48557
1244 1 -17.3874 -0.286889 10.8139 2.57826 3.02483 3.07781
1246 1 -5.08286 -15.1819 5.68753 -1.02845 3.34392 3.02834
1254 1 -20.2158 -18.5306 3.6913 1.68492 -1.73834 5.51379
1255 1 -1.79444 -8.58258 5.71921 0.940466 3.16771 -0.769099
1258 1 -13.5286 8.62678 18.9339 3.58635 -2.32876 -1.56751
1272 1 -20.1702 10.2702 17.4615 5.48448 0.0267866 1.31112
1033 1 -3.04443 -14.8847 1.70725 -0.891436 2.9604 -1.36671
1296 1 -3.2343 -11.2116 5.04702 2.1096 -4.25196 0.914633
1305 1 -6.70902 3.50216 9.16883 4.92664 -0.86336 1.54389
1308 1 -17.9314 -3.21077 7.47281 3.79236 -0.812409 6.09676
1312 1 -16.8197 -9.4466 3.5564 4.02794 4.68994 -6.60107
1608 1 -22.7391 5.37906 8.86025 -4.05019 2.53938 -2.50767
1361 1 -6.99273 -22.3996 6.41898 -3.40669 0.309688 1.44
1367 1 -5.73119 -12.7115 15.389 -1.63556 1.22037 -3.03213
1373 1 -14.2801 -8.81596 13.817 2.25494 -0.952925 1.62936
1379 1 -17.9261 -17.2135 4.88868 -2.78841 -3.1283 2.17036
1386 1 -17.5041 8.401 3.63049 -0.305408 0.3563 1.34308
667 1 -22.7239 -21.097 23.3422 -3.63475 1.04798 3.7678
1396 1 -16.7516 -10.4353 6.18043 -3.12325 5.02428 -1.03176
1394 1 -1.02861 6.8494 0.405495 2.07066 -0.216571 -3.11348
1415 1 -7.38663 -21.7211 3.00032 -0.892135 -0.430622 3.69555
1416 1 -18.568 -7.82925 8.63991 4.33902 0.0644521 -1.7148
1428 1 -3.27014 -19.7549 21.6365 1.14638 2.64013 -0.339739
1429 1 -19.5243 -15.8538 7.01087 1.73268 1.65429 -2.39427
3163 1 -21.1413 0.386702 17.0082 -7.12358 -6.83569 -4.41059
2615 1 -1.22689 2.08184 17.7952 2.58375 -2.78202 1.06927
1441 1 -18.4434 -14.9187 18.8246 0.446513 0.291327 2.569
1448 1 -17.6617 0.647265 4.38219 4.13139 4.14543 2.96316
1462 1 -8.6259 -18.7751 10.0131 -2.00989 0.376117 -5.96076
1470 1 -2.34431 -12.4344 2.4764 -0.738725 0.240148 -0.577802
3403 1 -12.5813 -22.5272 1.06941 -1.31998 -0.641557 -4.47292
1486 1 -18.4634 -6.53494 16.985 -0.685875 -2.61685 0.89684
1488 1 -16.9797 -17.5309 12.1721 2.54873 0.63542 -0.0524388
1495 1 -20.2294 -9.31978 20.6896 1.85422 -2.06697 -0.447639
1498 1 -14.9151 5.88092 10.5683 -4.56979 2.40051 -4.29596
1800 1 -1.33169 2.511 10.617 -4.86888 -1.52175 3.90223
1513 1 -18.675 -0.0639652 18.3027 3.47987 -4.14886 -0.44178
1515 1 -7.15092 -21.7865 20.7171 1.22507 -2.12323 1.59048
1239 1 -2.28122 -23.2035 7.15014 0.1542 -0.420936 -1.04328
1521 1 -8.12466 -9.25345 17.021 -1.72267 -3.80282 1.20462
1523 1 -6.66667 5.06695 12.5027 0.589605 2.46557 -1.95796
3015 1 -3.833 11.1125 8.79727 -2.18308 4.08838 3.24277
1529 1 -7.04561 2.05472 11.8704 3.38037 -2.4885 1.11948
1534 1 -12.0152 -9.34386 9.0998 5.25547 -0.695173 -4.4743
1542 1 -20.2395 -5.36916 19.0011 -0.291191 1.48619 -1.11396
1545 1 -7.9242 -14.422 16.1355 -5.07059 -2.87214 -3.55886
1546 1 -14.8558 -14.8176 20.7395 0.121313 0.926708 0.531041
1560 1 -19.1099 -20.8916 19.9913 -4.56074 -6.18946 3.94943
1563 1 -2.52071 -4.39738 15.8481 -0.747854 -0.836849 -5.18316
1572 1 -1.48228 -18.2888 13.4044 -1.13413 2.94258 -0.856397
1573 1 -8.75185 -11.0879 19.1057 -1.40901 7.35186 -0.904342
1581 1 -7.02827 -4.84078 11.0407 1.92495 -0.538941 2.4702
1584 1 -4.77297 -5.05978 12.8627 2.10021 2.39545 0.441036
1585 1 -8.91265 -12.6309 21.7176 -5.18834 1.61092 2.29573
1359 1 -20.1774 -23.7291 23.6816 -1.79211 2.81083 1.12583
1599 1 -20.7718 -4.25487 11.0706 1.48741 -6.9295 -0.164016
1612 1 -22.3941 -19.6674 16.6315 8.20495 0.355581 0.767679
1614 1 -15.1213 -14.958 1.36592 -0.464167 -1.28358 0.46181
1621 1 -18.0422 3.79329 11.9268 -1.98656 2.08231 -4.62153
1623 1 -7.63079 -17.3662 17.0056 0.49028 3.54319 -2.51064
3468 1 -6.20453 -9.83425 23.7124 -3.22447 -3.51538 4.159
207 1 -4.975 8.19066 22.6186 -0.233449 2.78273 -2.6831
1644 1 -19.6163 1.21403 11.8858 -1.51378 -1.48231 1.22758
3912 1 -7.18586 -12.202 1.44741 2.19991 2.66348 -3.26722
1665 1 -5.76623 6.39087 17.9582 -4.55666 -0.0874438 1.84844
1667 1 -12.4624 -6.49254 8.67557 3.75521 -1.38365 0.794595
1671 1 -14.3608 8.92119 21.6902 -0.466427 -2.75933 -6.18005
1690 1 -7.2657 -21.6423 13.1148 -6.47656 0.0633033 -3.11074
1691 1 -15.9852 -13.3639 6.20697 1.51734 1.59151 0.208263
1697 1 -11.2271 -23.46 6.44659 1.60871 -7.46638 -1.51835
1704 1 -7.27019 -11.6409 4.9878 6.88245 0.212092 -2.19739
1707 1 -10.19 -7.61421 16.0831 2.57198 -0.418445 4.17452
1711 1 -7.50938 5.69466 1.45848 -3.18998 -0.771733 -0.718983
944 1 -14.5228 -1.62109 22.6827 -6.23782 4.23083 4.63077
1729 1 -15.2867 8.98506 14.5641 -0.0378826 -0.396879 5.00925
1733 1 -10.9468 -17.3023 10.2285 1.55931 -0.414889 -0.0751434
1739 1 -7.28872 -21.1729 17.039 -7.78811 2.245 1.16227
1756 1 -16.565 3.68419 7.31921 0.844265 -2.93304 0.317937
1763 1 -4.14395 4.3636 13.3383 1.78354 0.511911 4.58612
1766 1 -16.6653 -0.508601 14.5686 -2.83963 -5.76295 -1.46535
1770 1 -8.99848 -5.79921 21.7101 -2.6363 1.17644 -3.42545
3289 1 -17.099 -23.2931 10.6793 -1.46565 -2.06209 -3.19193
1788 1 -15.6507 -17.0531 16.4221 -0.174587 -1.44104 1.68779
1792 1 -14.2652 9.42557 7.60492 4.19319 0.690149 2.98454
1807 1 -17.1269 -11.2184 22.1644 -1.83954 -3.25228 7.53487
1813 1 -17.5501 7.17312 20.3662 -0.00313573 4.73762 -2.0053
1818 1 -20.678 -9.95009 4.47104 0.342916 0.219055 2.32625
1819 1 -12.6186 -11.8697 17.1274 1.56504 -0.759717 -0.640645
1824 1 -15.8699 -18.3421 9.45286 -0.459299 -0.616903 -4.33862
1141 1 -15.9131 10.9486 12.3495 -0.0731762 5.29289 3.07245
1833 1 -10.2538 2.57402 15.7533 1.58212 0.463284 -0.581911
1857 1 -2.14652 -19.9656 3.76813 2.69591 4.40049 0.880559
1844 1 -5.60177 -4.40861 4.66627 -2.23151 -4.86455 -1.55211
1865 1 -9.43831 -3.93023 4.83968 -2.46988 -0.617527 -0.465049
1868 1 -3.99373 1.57409 19.1733 4.91174 -0.240082 -0.631354
1870 1 -18.2733 8.78487 13.2527 0.206507 -2.97722 1.78603
1877 1 -15.3293 -6.63467 7.64593 -0.190781 0.054538 -1.20478
1882 1 -8.69326 6.80433 17.9634 -0.211014 1.35441 2.42675
1889 1 -12.148 2.17396 9.7538 -3.39469 -2.64843 -3.94546
3933 1 -1.4372 -9.77681 18.1989 1.5225 0.90538 1.18005
1895 1 -18.5716 -8.99445 18.4054 -0.684934 -0.862042 2.22975
1900 1 -12.6946 0.176715 4.87925 -1.92729 -0.874423 -3.02581
1904 1 -10.013 -22.5907 15.9221 -2.29708 2.14939 -1.34619
2591 1 -5.55016 -24.072 13.2237 3.27051 -6.72238 -6.82984
1907 1 -21.4373 -11.3852 15.6517 -1.28126 3.09853 4.23651
21 1 -23.2279 -0.107784 11.9693 3.7344 -2.17899 -2.39716
1910 1 -5.38887 -9.20281 11.0547 -0.85315 -2.29606 -0.277115
2747 1 -2.93083 2.87119 15.6471 -2.72832 0.922148 -0.534478
2522 1 -5.93582 9.32205 2.51969 -2.19298 3.99661 -0.688509
1945 1 -21.9235 -17.9703 20.8407 -0.728376 -3.1411 -3.70583
1951 1 -5.76846 -13.328 11.6609 1.56543 4.24677 5.64452
1955 1 -10.6859 -19.4458 22.142 2.1146 -1.78688 -1.23752
1956 1 -3.95204 0.457495 8.30831 -1.00618 1.04298 -2.19943
1681 1 -13.7193 -9.94995 23.5439 0.386278 -0.792866 -4.99985
1969 1 -4.72232 -6.83239 10.4101 -9.90244 3.10208 0.495444
2283 1 -24.303 -11.2747 6.56467 4.26423 1.95235 -9.51389
1982 1 -19.8278 -4.00367 21.7207 1.47724 1.91191 4.84797
1987 1 -20.8944 3.85855 11.0746 -1.32529 -1.20873 0.180917
1989 1 -9.9053 -15.1747 14.2726 -2.13343 1.07015 -1.9924
3008 1 -0.852587 -19.4172 23.4261 -2.30389 -4.35079 2.48875
1912 1 -14.5937 2.32707 1.32062 -3.09447 3.31711 0.0394015
3803 1 -17.8971 -4.53137 23.9793 1.46933 1.81162 5.36111
3621 1 -8.56462 10.0962 10.2254 -0.522048 -0.474046 0.0999362
518 1 -23.0958 -20.9395 1.29084 -0.527296 1.26548 -1.31087
2014 1 -7.77158 -8.95532 12.5573 -3.58593 -1.5015 -2.5575
2018 1 -13.9474 -1.08424 7.27051 -2.53133 1.12302 -2.65541
2023 1 -20.0391 -11.568 6.677 3.76426 1.46221 -4.76787
2032 1 -9.80494 4.82788 6.51017 -0.463993 4.30803 4.18585
2037 1 -16.4582 8.36953 10.9385 -1.01878 2.60278 -1.0874
2041 1 -13.051 -14.9234 22.9359 -0.658908 -4.81848 -0.974711
2047 1 -5.2235 -12.5772 6.58255 -2.60376 3.36065 -1.76257
2064 1 -12.8971 -16.9968 12.3115 3.239 -4.06018 2.5403
427 1 -15.2453 -23.4091 20.6506 -1.55632 -2.87693 1.83471
2071 1 -20.6709 -13.4818 20.174 -4.37061 -1.02815 5.84663
2072 1 -19.6031 9.09486 23.2469 2.32594 -3.52803 -1.50047
2691 1 -20.2411 -23.5081 20.8861 -0.387028 -0.706033 -2.63011
2077 1 -17.5706 -4.94623 3.12458 0.795469 -1.74885 -0.20539
2086 1 -10.014 -14.9364 9.20787 0.87859 -1.61374 0.0963348
2091 1 -9.93731 8.05284 12.7933 -1.49718 3.8497 -3.89205
2095 1 -20.414 -7.74946 2.52074 -2.81615 -3.74447 0.196062
2097 1 -6.29357 6.48383 9.98309 -2.67997 -4.97396 1.4575
3495 1 -23.0886 -5.28722 18.263 0.583468 0.145098 2.74833
2101 1 -21.281 -9.20357 17.1369 1.19369 -2.53595 7.13495
3342 1 -2.39904 4.43529 4.15757 -2.27264 0.0518302 -0.492676
2108 1 -13.9897 9.09452 0.176768 1.30141 1.18209 0.29977
2109 1 -2.54112 8.70673 20.0948 0.768335 0.162981 0.969991
2112 1 -10.7865 5.43029 13.763 -1.57884 -1.09264 2.7965
2113 1 -15.9907 -1.66685 20.2695 2.2889 3.92986 -1.21006
2075 1 -5.52702 -14.5064 23.0782 -6.62962 0.201369 -2.71437
1730 1 -3.66075 -8.25217 22.9308 5.71655 0.439258 1.61285
2133 1 -13.2995 -13.4283 6.19044 -0.389271 -4.81244 -0.0621763
2136 1 -5.91845 -19.7232 5.94327 -1.11678 3.7269 1.57974
3103 1 -2.8707 -13.6739 23.7312 -1.79852 4.99432 -1.2974
2142 1 -17.103 -10.6062 16.2112 -1.46852 3.9115 4.10666
2160 1 -18.612 -1.23576 21.1566 1.27694 2.42648 3.12376
959 1 -13.6905 -19.3873 22.7907 0.894739 -3.34854 4.07324
2171 1 -4.72574 1.32148 3.82586 0.954744 -2.0691 1.38381
2181 1 -16.215 -20.9589 19.9577 0.695704 1.2484 -0.310762
2182 1 -2.94922 0.392164 14.0929 -3.17253 -1.07208 -4.79967
2188 1 -12.9293 6.1382 8.87793 3.66516 0.403296 -1.96078
2930 1 -21.689 4.25794 0.752864 4.74654 3.02201 -0.564603
2200 1 -2.3447 -23.3752 2.2507 5.37075 4.63567 1.69315
2218 1 -16.6212 -6.42671 21.9012 1.23917 0.988247 -2.0352
589 1 -2.48873 4.28676 1.21885 -1.60549 4.19797 -2.15144
2239 1 -14.621 -10.2396 20.8372 3.9192 -1.03613 4.00081
2242 1 -11.4271 -15.0874 18.3635 -1.02402 -3.05422 1.49602
3498 1 -20.0102 10.5541 8.31123 -1.47551 3.23837 0.114901
2259 1 -18.9682 -9.40734 23.4159 0.131939 0.456987 1.97588
1659 1 -5.03397 -23.9566 7.90185 2.02323 -5.68627 1.82057
2266 1 -21.0354 8.63315 14.0557 0.104268 -4.43926 -1.77869
2273 1 -20.5527 -21.5123 17.7055 0.193551 -0.56382 -1.17189
2274 1 -6.65517 -1.30972 20.5368 2.95319 -2.2191 1.77538
753 1 -16.5037 -20.0536 23.0021 -2.74614 0.461872 4.84121
2277 1 -12.8118 4.33898 20.9764 0.552999 -0.919325 1.0185
2279 1 -10.8876 2.31926 5.48896 1.4124 -4.04979 2.23905
2753 1 -1.91759 -5.7556 13.2608 1.23448 5.53968 1.78042
2312 1 -19.0015 -21.2885 6.55347 0.499226 -0.926947 -0.105588
2314 1 -17.6597 5.45502 9.34651 -1.57997 2.45503 0.332335
2316 1 -17.81 -11.5292 1.8764 1.56784 0.45689 2.43312
2331 1 -14.6494 -19.2776 11.9539 2.56978 1.88172 -2.6235
2346 1 -2.06349 -22.1819 10.0123 -0.839411 -4.35989 2.51703
2355 1 -8.77137 -0.357241 1.98702 -0.015052 6.3188 2.09455
3070 1 -23.2689 -6.71775 0.304906 -2.89006 0.831481 2.22284
2295 1 -12.508 10.4207 23.4618 0.464094 -0.550172 -6.8782
2655 1 -2.22871 -10.0904 0.871468 -2.58342 -1.92444 3.35547
1511 1 -22.4522 -6.90677 15.7152 0.0430166 0.208639 5.6594
2387 1 -9.7239 -5.64037 11.6123 -0.442973 1.73026 -2.29406
2391 1 -6.74069 -4.63514 8.04004 -6.17927 0.425412 -1.65098
2397 1 -16.1986 -8.23993 19.7185 0.877289 -0.638801 3.48765
2398 1 -8.50486 -1.23501 15.098 1.77745 -3.47469 -0.270644
2399 1 -9.96135 -11.1236 9.94442 -4.59817 -2.2743 -2.38739
2407 1 -10.6336 -11.516 15.0326 -2.31435 2.1231 -0.75733
2422 1 -12.9015 3.14539 15.4661 1.21579 -0.155638 5.8601
2430 1 -14.5586 -7.28282 17.4408 2.62172 -0.60862 0.240516
2436 1 -5.00586 9.21572 18.423 0.661073 4.89409 -0.754131
2437 1 -13.3241 -7.35639 11.4783 -2.80312 -3.34779 -0.716663
2446 1 -1.7426 -7.147 16.783 5.95982 -1.14553 -4.14797
316 1 -23.8902 -6.00576 2.90785 0.239062 -0.502164 -1.09514
2453 1 -2.04962 8.12844 12.7424 1.33957 1.03798 -6.90996
2457 1 -4.07305 1.85721 11.7856 -3.06582 2.20818 -1.40999
3634 1 -3.8672 3.10571 9.08127 -0.317604 7.09084 5.98392
2472 1 -19.9395 -0.554438 14.4128 6.40202 5.35887 -5.20879
3924 1 -10.3086 -8.33197 11.3247 1.63898 2.67069 1.56677
994 1 -23.8638 -16.6234 17.4817 0.129006 -2.94139 -0.92933
2948 1 -1.01324 -18.6326 1.46219 0.84014 -0.856759 0.849294
2486 1 -3.72373 -19.0138 7.81537 -3.93604 1.11749 4.11349
2498 1 -8.19757 10.3189 5.17582 2.03674 -4.18541 2.94788
2499 1 -22.3535 -13.0514 7.61093 -1.50213 0.245473 0.949491
2502 1 -2.46359 -10.612 9.44861 0.95141 -0.426809 -1.32858
2509 1 -1.60383 -7.78388 2.25174 -0.0533808 2.69646 -2.32407
1048 1 -1.17013 -0.733936 17.8857 -0.956073 0.227851 0.611925
2517 1 -9.84292 -12.8526 17.3976 1.1014 -0.0816095 -1.22888
2708 1 -12.0364 1.91789 22.1123 5.62778 0.0471335 -1.89481
2532 1 -12.5775 -14.7023 2.65751 3.08284 -0.14767 0.87458
2974 1 -22.5367 0.127684 19.5284 -0.778614 6.86894 -3.17475
2546 1 -14.0969 3.25516 11.6079 -1.272 1.27193 4.20583
2547 1 -13.4345 -4.36649 5.73685 1.68598 2.28446 -0.0251779
1832 1 -21.0644 -13.7143 23.7003 -0.59243 0.795216 6.02643
2556 1 -7.82537 -11.7719 12.2215 -1.85319 -3.64505 -1.94612
2559 1 -17.5266 7.24832 7.2043 2.39972 2.07636 -0.0933457
2561 1 -7.54202 -2.70659 12.6668 7.19246 0.984857 -1.69412
2579 1 -11.0821 8.59077 2.52486 -3.21036 -0.114917 3.79766
3920 1 -10.3252 10.5564 17.062 -4.1651 2.88653 -2.75783
3267 1 -18.4819 9.26301 0.716215 4.34482 3.59769 0.0652591
3876 1 -22.4071 -11.154 20.5324 -2.69533 2.51235 -3.04761
2599 1 -6.04243 0.314623 6.39159 1.96008 0.278727 1.50014
255 1 -23.1841 -21.7485 10.3794 -1.74498 -2.29725 1.93872
2612 1 -13.198 -20.3464 17.6213 5.94431 2.80378 -0.0332386
2613 1 -20.3962 5.21789 18.983 1.25978 1.4101 -4.18276
3461 1 -13.3024 -24.5577 18.8128 4.28256 -1.75587 -3.31979
3737 1 -3.22053 8.37255 1.71772 2.72829 3.95127 -0.681146
2479 1 -20.4905 -5.94183 0.109999 1.00046 3.16771 -1.94593
2626 1 -2.79316 5.05468 21.8451 -0.64299 1.54489 -1.63039
2629 1 -21.6371 -2.25604 5.65758 -0.45067 1.7245 -2.62315
2630 1 -12.35 -9.04428 17.6141 2.66336 -5.31336 -3.53289
2636 1 -13.9966 -18.9179 15.5685 0.210775 1.62287 -4.62571
2642 1 -5.37615 -16.0407 2.72933 0.71481 -0.365157 2.65289
2647 1 -12.0489 4.90425 4.77164 2.15835 1.79509 0.897433
2650 1 -5.00921 8.82419 13.1291 -1.11073 -1.21171 -0.531878
2651 1 -18.0121 -17.107 14.9447 2.29579 3.61144 1.02352
918 1 -4.71956 6.18998 0.472468 -2.93349 8.1221 0.912265
2657 1 -9.31796 -5.87932 6.84916 -0.604966 -1.30916 -2.59305
2658 1 -5.01756 0.989373 16.4861 -3.70546 -1.97411 1.32348
1562 1 -1.76409 -4.9639 1.70782 -0.667 0.591218 3.0358
2663 1 -7.29274 9.46504 20.5071 -3.20588 4.08995 -1.8426
2021 1 -5.94602 10.6417 10.974 2.35844 0.141767 -0.288798
1631 1 -22.5811 -19.0429 8.14919 1.44999 -7.23331 -4.95303
2682 1 -20.7053 2.27957 14.7833 1.33983 -0.654565 1.34028
1742 1 -0.914308 -6.16515 20.5821 -0.457377 -3.32044 4.03681
2276 1 -1.42635 10.699 1.80666 -4.39015 -1.43138 -2.95712
2694 1 -1.90929 -14.6275 21.411 -6.22696 5.76151 -2.44839
2700 1 -6.25509 -18.8085 3.35308 0.183388 -1.33982 1.80754
865 1 -1.17649 -21.5014 12.7664 3.84951 0.82655 3.39799
2707 1 -9.61834 -14.6785 2.4147 1.69545 -1.17016 -4.16131
553 1 -12.3544 6.68416 0.659187 2.79546 1.94307 -0.426778
2715 1 -10.8663 8.35715 19.2115 -1.79802 -5.17615 -0.406739
2724 1 -7.24318 5.93028 5.35992 -6.37987 -3.51363 4.07731
2730 1 -5.83235 -17.9914 11.1571 1.43794 -0.301292 1.20388
89 1 -9.36113 -3.69137 23.9122 1.33301 -3.18645 0.848595
2738 1 -7.36323 7.31259 14.3316 1.29026 0.903617 -3.06988
2739 1 -12.1433 -9.11389 20.3408 -0.0754709 -0.357528 0.593576
2741 1 -8.29161 7.6019 3.2802 3.15483 7.15774 5.1365
1661 1 -20.0454 -2.71692 17.7306 3.89491 -0.617424 -0.895336
3931 1 -2.44898 11.1313 4.46032 2.51824 -2.09898 1.27945
999 1 -21.5109 8.0628 9.32154 -0.646747 7.26804 1.46151
2759 1 -16.7085 -15.797 7.8475 -1.41183 -1.65336 -4.85214
2761 1 -7.24551 -15.4153 18.9538 2.0918 -3.39049 0.0369348
2762 1 -9.63037 8.76973 7.49821 -0.0619713 -0.320766 3.76272
2763 1 -6.43048 -12.6227 18.8619 -0.526996 0.882349 -3.72394
2775 1 -3.07346 -18.3 17.0814 -1.17969 -3.22361 1.74228
2792 1 -7.68232 -5.53107 3.12812 -4.95815 -4.5897 1.24952
3695 1 -7.29932 -5.32427 0.209473 -5.36869 1.61757 -2.21587
2566 1 -22.625 -11.3907 13.1071 -6.44207 -2.93998 1.6574
2822 1 -14.531 -4.66882 3.30528 -1.71375 -1.26916 -0.565671
2830 1 -21.9419 6.96132 2.06726 4.8749 -0.24232 -3.02917
2833 1 -22.979 2.05963 5.71693 1.94155 0.80278 -0.387193
2834 1 -8.326 -17.8162 21.4809 -4.33998 2.41082 -3.39074
2846 1 -22.3034 0.920498 3.30375 0.834836 -4.0969 2.62156
1045 1 -6.70385 -2.68937 22.9838 -1.19342 2.17392 -0.933688
2860 1 -19.7472 6.11577 21.7114 0.0156597 -0.170368 -0.311842
2869 1 -18.4157 -17.7716 17.7196 1.1897 -4.38667 1.48335
2873 1 -11.5335 -2.19912 5.85542 -1.38741 0.489058 -3.58165
2880 1 -4.77692 -2.02101 13.1784 -2.67924 3.02023 2.5499
2882 1 -20.3343 -15.8151 21.6924 -6.73518 -3.85809 -1.49646
3017 1 -12.3614 6.66969 22.3727 -1.97765 2.68931 -2.04898
2894 1 -8.5895 5.10302 15.742 1.05996 -2.14215 0.0403271
2896 1 -11.8105 3.59776 18.1771 -2.32689 -3.00073 -1.25327
2899 1 -2.63411 -20.3947 18.9562 4.75929 0.00186335 1.95299
2903 1 -12.5282 -12.0227 3.60301 6.26914 5.10273 6.54126
2910 1 -13.6466 5.76638 18.585 -0.224787 -0.0648782 0.121266
2917 1 -10.6631 7.49929 5.2035 -0.104282 2.45444 -0.740933
2923 1 -12.183 -1.95676 18.3443 4.14011 -0.0932615 -2.84692
2954 1 -15.2724 -3.76839 7.86975 3.26657 -1.94723 -4.35073
2592 1 -3.00205 -16.2244 9.09758 -0.34945 4.97335 -5.21437
3873 1 -4.53834 6.70027 15.1585 0.52113 -7.93043 0.185846
2969 1 -4.85514 -1.28363 18.3943 -2.46833 4.10092 1.01338
2981 1 -13.0314 7.98471 15.7928 0.737911 2.49627 -1.66285
2982 1 -11.7879 -6.61965 5.86036 -1.88097 -3.10476 4.34635
3785 1 -3.39104 -22.6413 22.0883 -0.919884 -4.57016 0.92608
2985 1 -10.0906 -13.4965 11.882 1.38538 1.82355 -1.45202
2997 1 -5.94081 -16.9554 7.43011 5.87161 0.557096 0.515383
1139 1 -10.6218 11.0881 3.99593 -1.53937 4.31907 -0.058014
3009 1 -14.7269 -23.2384 9.19583 -1.99322 -0.872503 1.75032
1991 1 -22.8888 -24.5017 21.2813 3.96251 -2.35171 1.53882
59 1 -17.6599 9.83792 19.1122 1.64825 -3.74793 -3.36631
3019 1 -18.7637 -20.8313 11.0389 -0.303243 -1.9734 5.06811
3020 1 -12.1732 -10.7402 6.45797 -1.31209 -4.92032 -2.57331
3033 1 -14.0042 4.70305 6.72214 0.493314 -4.63937 0.715183
545 1 -23.6558 -16.9049 12.6293 -1.38187 4.26572 2.58872
4000 1 -16.7837 8.15017 23.032 -1.02622 0.915198 1.33085
3074 1 -7.73995 -8.17522 6.54096 1.64546 1.69832 -1.91047
3081 1 -20.1957 6.82067 6.63194 0.608993 3.49572 3.28057
3971 1 -4.54935 -4.63712 23.1906 1.69174 -1.43981 -2.04728
3947 1 -23.3775 10.5479 23.7649 2.52651 2.00437 2.69078
3155 1 -5.12856 -10.6321 -0.0133078 0.592915 -5.55908 -7.30107
3091 1 -2.50083 2.33614 21.4522 -1.7997 2.24878 -2.12842
3092 1 -7.61663 -8.38161 21.7025 -3.18659 -0.693256 -0.320901
3098 1 -10.563 -18.446 5.34594 -0.227787 -0.410764 1.40178
3869 1 -7.1458 3.10952 6.40743 -1.77284 -2.03847 1.22288
3104 1 -18.4656 -8.34988 5.80412 2.45942 0.530956 0.889986
3998 1 -12.8551 -3.18054 1.57876 -0.237512 -1.28396 -1.20508
3119 1 -5.52164 -10.581 3.05862 -2.53015 1.47357 -1.38753
3907 1 -21.6942 1.15162 10.0877 -1.10846 -1.56908 -1.47806
3129 1 -1.87187 -13.8608 12.2766 1.10718 -3.42869 5.098
3136 1 -16.3736 -21.1852 5.51634 1.31446 -0.240928 2.05625
3903 1 -16.8812 -14.7914 3.82072 3.84031 1.93519 -0.755177
1432 1 -10.527 9.06823 21.9567 1.37444 0.805884 -3.20902
3164 1 -19.111 1.84601 20.2552 2.67956 3.40302 0.52968
3168 1 -15.6943 -21.7881 17.161 1.25673 0.341673 0.537024
3172 1 -7.27331 -2.33107 6.34099 -1.70481 3.31261 3.97076
3943 1 -19.2811 -21.0872 1.94476 -4.18544 -5.33972 0.698397
469 1 -22.1478 -14.3451 13.1279 -0.233193 0.756027 1.0754
3187 1 -19.6377 -16.4406 1.71267 6.33842 4.24886 -3.45283
3194 1 -17.765 -7.45366 1.9246 -1.83207 -5.6613 0.585097
2966 1 -3.881 -24.1362 15.7318 1.08904 -0.567457 -0.638331
3197 1 -3.87792 8.47779 4.80444 -2.9259 -4.5194 -2.19673
3201 1 -15.4961 -4.6905 19.972 3.66803 -0.779502 2.13961
3204 1 -14.6659 -9.90071 10.2643 -2.36098 1.03682 -1.23055
3220 1 -3.66023 -10.9281 15.201 -1.75269 0.0585983 -3.96155
746 1 -14.5596 -7.34029 23.5721 -0.158003 -2.62807 -1.88095
1393 1 -2.61846 -2.56254 3.6479 -0.666467 -0.857861 2.9319
3225 1 -8.44132 -6.55832 14.1233 4.71467 -3.35648 0.0729083
173 1 -19.2178 -0.223445 23.9248 2.38026 -3.99122 9.46159
3239 1 -12.8899 -18.8274 8.72651 -3.16406 -1.49651 -0.31688
3257 1 -9.37252 6.43148 23.2949 1.66887 -5.11644 -2.15602
3258 1 -19.7046 -6.8429 22.3962 2.04343 2.1519 1.66934
607 1 -1.27049 -1.97192 15.304 0.207086 -0.339597 -5.03341
3277 1 -2.27571 -15.6799 5.63616 -7.1757 2.05537 0.686086
3281 1 -3.7584 -11.352 12.059 -0.875426 -2.24494 -3.33075
3283 1 -5.18134 -0.671146 10.7295 -2.37934 -1.28106 -0.55283
3287 1 -4.33199 -16.1615 18.6301 6.83346 -3.40749 2.99483
1796 1 -21.6111 -11.0128 23.4494 -3.64679 2.85135 0.010521
3296 1 -15.6133 -14.2324 15.4866 1.16797 2.74829 0.0544496
3302 1 -18.5398 -11.4723 19.7535 -0.677401 -5.47224 -2.19299
3861 1 -17.4696 -15.7157 21.4474 0.530171 -3.13247 1.56891
3312 1 -22.8236 5.55926 15.3039 7.75579 -1.10148 0.113238
3318 1 -10.816 -0.140037 16.7292 -1.36159 -1.34782 2.12069
3321 1 -10.6353 -19.524 19.2092 -2.99961 -1.33935 -5.65229
3332 1 -2.13791 7.60947 22.7461 -0.752483 2.10829 -0.300351
859 1 -14.1618 -9.73552 0.551169 0.743211 -6.81318 -2.15215
3348 1 -9.39132 -19.2151 3.01378 2.9716 1.60961 3.37418
3350 1 -2.99673 -8.20104 14.5477 -1.30608 0.259965 -1.29093
3351 1 -20.5782 -13.9337 17.1743 -0.58239 1.53841 -1.17631
3353 1 -22.0599 3.11059 20.0985 -0.973512 1.60156 -2.00267
3360 1 -7.79846 -19.4401 19.1584 0.172595 -1.87489 0.0149353
3371 1 -9.52185 3.79071 11.8287 3.54888 1.38253 1.86616
3376 1 -13.741 7.62054 12.3495 2.46583 5.80095 0.186071
3983 1 -19.3492 7.13758 11.056 8.28388 3.18041 2.4703
3387 1 -20.1324 -3.66134 2.17676 0.729439 -0.114327 0.483159
3388 1 -19.922 -6.32328 14.5816 -1.90729 1.15207 3.12299
3391 1 -7.43978 -14.4737 4.4414 1.85111 1.46876 -2.60712
3394 1 -9.878 -0.525596 12.3554 4.04333 -4.24056 0.239136
3397 1 -4.33334 -0.025231 21.7205 -5.6243 -0.930056 0.194222
416 1 -23.0745 2.85983 13.1009 -3.9505 0.44371 1.50827
3409 1 -2.87958 -17.2253 20.6724 -3.39718 -2.51695 2.28167
3410 1 -18.986 -11.6898 14.2641 4.44041 -4.38325 -0.908152
3411 1 -5.32275 -6.63962 21.31 -0.228864 1.1299 -3.50134
3417 1 -19.2841 -10.5683 9.08178 0.692431 -4.33627 0.0244737
3419 1 -9.69137 -8.95182 1.95547 -1.4028 -1.0749 1.00579
3420 1 -16.9393 9.68165 8.51184 -6.44885 -2.301 -5.77988
3423 1 -12.9639 4.4416 2.21267 -0.736509 1.95626 -0.9115
1407 1 -24.2026 7.82163 0.265888 -1.38427 2.7774 4.76468
3426 1 -21.52 -5.57691 4.15328 -1.51551 -0.896165 -0.093224
3430 1 -13.9079 -16.3179 18.5394 1.02234 1.51104 2.901
3432 1 -2.46123 8.87837 7.64276 0.459954 -0.422899 -0.367593
3436 1 -2.96938 8.90784 16.4027 -1.35353 2.54108 2.68943
691 1 -0.969649 7.12776 15.2073 0.332223 1.30147 -1.48692
3442 1 -6.65413 -1.03499 3.78751 -3.88046 3.37808 -3.35132
3448 1 -18.7731 4.37122 14.7861 -0.103805 -1.83488 6.40771
1103 1 -22.0806 8.13598 16.7661 -4.29914 -0.409272 0.87955
3464 1 -17.6319 -22.7551 14.4292 -3.87072 -3.92429 -3.56595
315 1 -14.2273 -23.3494 3.40271 -3.09734 4.47385 -0.0908749
3555 1 -23.3781 -18.0498 1.7266 0.172773 0.44492 -2.84627
3105 1 -22.3837 -7.40555 20.1096 -0.138129 -3.71897 1.28145
3490 1 -17.4375 3.6506 4.72714 -1.74017 -0.880116 3.51604
1020 1 -18.9903 -23.552 8.33655 3.65761 2.09241 1.46144
3438 1 -17.9437 11.3432 4.01186 2.8816 6.06014 -2.84435
3510 1 -13.5971 5.21889 13.6793 5.12716 -0.499908 0.249871
3512 1 -20.5099 2.60321 2.54863 -1.10971 0.0891123 -1.33073
3519 1 -3.99738 4.19301 17.7413 1.82413 3.0832 -2.53242
3520 1 -5.78325 -16.6899 21.1737 -1.67565 -2.45535 2.44755
3523 1 -13.0062 -21.2271 10.4895 -1.56246 6.0727 0.959096
3529 1 -22.0284 9.05468 21.6773 -1.91126 -5.48113 -6.40978
3549 1 -14.8502 9.61706 2.98095 0.306549 -1.73995 0.327599
3556 1 -9.65704 -15.2686 20.547 -0.427653 1.23477 0.815543
3566 1 -8.96161 -15.6698 6.49317 0.511066 3.01964 -1.07369
1586 1 -15.8886 -19.9579 1.1647 1.11359 0.402614 2.97869
857 1 -21.0129 -6.4591 9.22785 3.88266 -4.41018 1.78343
515 1 -2.07284 6.46019 18.0142 -5.18067 -1.41258 -1.80724
3595 1 -3.08849 -13.3093 8.30694 1.60039 -2.70248 1.07456
3603 1 -4.69434 -3.02575 9.03766 0.88491 -0.224634 -2.21032
3607 1 -16.2811 5.18378 19.2091 -0.0157412 -2.18362 0.00912077
3616 1 -10.1561 -15.2694 23.6337 -0.557644 0.535184 -5.65723
3629 1 -3.28796 1.32396 1.41938 -2.5667 3.83883 -3.19284
3632 1 -12.4818 -14.5335 15.4575 -1.97882 -0.183012 0.207598
3863 1 -12.5741 -2.15005 12.5977 3.4748 -3.92852 1.02069
2933 1 -24.0435 -3.98805 13.3448 -1.56993 4.73243 3.95128
3651 1 -12.1236 8.77315 9.0466 2.43141 -2.7448 3.75414
3656 1 -9.56476 -23.2609 20.2619 2.71566 1.55667 -4.07925
3668 1 -12.804 -4.34207 20.1572 2.02033 0.970548 -4.98454
3979 1 -9.13423 -23.4312 4.52264 -3.00262 -3.10777 -5.98963
3673 1 -4.97422 -23.0464 19.5311 0.533147 1.40136 -2.68844
3678 1 -17.6112 6.95794 15.2507 0.365531 2.7916 0.0931295
3681 1 -7.50171 1.62704 14.9676 -2.47222 -0.556727 -5.04072
2815 1 -23.7356 9.03651 7.62342 -8.87045 2.16006 3.80481
1720 1 -6.66865 -22.3128 10.1845 0.672772 1.30534 3.81563
3698 1 -18.3125 3.63377 17.8146 -2.5596 0.0662023 -1.38891
3699 1 -8.34627 -4.0392 15.4614 0.642276 -2.98334 -0.600333
3710 1 -5.5972 -8.15783 17.1133 0.0705404 2.76436 2.58512
3714 1 -10.6777 -0.657004 22.4756 0.426044 -5.4849 0.502005
3718 1 -17.8441 5.60638 0.784932 -2.4946 3.689 1.19374
3738 1 -5.75313 -7.30785 14.5253 2.44126 -0.0930389 -4.28114
1421 1 -23.283 -9.05873 5.44493 1.78199 -1.84764 -2.18938
742 1 -7.67664 -22.1372 23.7738 -1.59117 1.3648 0.167831
3754 1 -10.5728 4.7076 9.42691 -0.630546 1.99881 -4.41344
3767 1 -11.0995 -21.5744 3.28099 0.33587 1.87885 3.76181
3769 1 -20.578 -17.2198 9.14876 0.797327 2.82865 1.68513
3770 1 -5.316 -7.20906 7.58692 4.41034 0.0770326 1.19258
3779 1 -9.02452 1.00423 6.98551 2.97397 -4.12846 0.77881
3781 1 -1.74747 -4.73804 6.57945 2.07504 -0.712494 2.48443
3792 1 -7.69339 -10.8043 8.16363 -0.173825 -2.49283 0.776707
3797 1 -12.0787 -12.9125 8.78334 -5.69919 -4.03549 -1.18415
3810 1 -16.8805 -3.59703 14.6066 3.6367 -5.03537 -2.22059
3686 1 -23.0791 10.3738 0.918157 4.20503 4.06037 2.47165
3816 1 -13.9874 -9.57385 3.32865 -3.05859 -3.36189 -3.83686
3844 1 -20.8983 -13.9871 5.25987 3.93225 -0.688763 -2.98808
2538 1 -6.0128 3.45128 23.6151 7.6847 1.24787 -2.44459
402 1 -1.11909 10.3149 18.021 -3.28973 -5.87954 3.45581
760 1 -0.544884 4.2661 14.7115 -1.83746 -2.08523 4.38034
3642 1 -1.24964 -13.0329 5.97147 0.127041 4.48281 -2.58125
2405 1 -3.4598 -10.8815 23.8517 0.357205 -1.72398 0.635584
2653 1 -8.69385 8.48939 0.394468 -1.24167 2.5001 -1.28065
3843 1 -0.411088 -17.5857 15.9105 4.05368 3.57527 -4.84196
3306 1 -7.81085 9.19665 23.3667 3.68442 0.671554 0.410606
1149 1 -0.762385 -14.3354 9.66076 2.95253 -2.36304 -2.11227
1928 1 -24.2655 -2.47292 5.06453 -0.654438 -2.36346 -1.97153
2372 1 -24.2862 4.19392 2.07922 -3.84279 -0.479965 1.67261
3241 1 -0.595456 -21.8472 15.7979 -1.43337 0.243952 0.025949
2684 1 -24.0819 -12.1851 3.96419 1.17667 -4.23445 1.47068
1159 1 -24.3592 -3.76863 16.1576 -3.79348 -1.86388 7.37235
1175 1 -9.66535 10.8845 19.9923 -0.22764 -2.27766 -0.759447
2478 1 -3.2712 -21.8474 0.179246 -1.94547 -1.24529 0.471468
2674 1 -8.0802 -21.6238 0.22202 1.29947 -1.47798 0.227601
430 1 -21.5206 -3.24601 23.9891 -1.30734 -6.25625 1.46907
1927 1 -6.90779 46.1532 -21.4857 -0.49732 -2.32183 1.4788
36 1 -12.2644 18.5816 -18.1047 0.847927 -4.67368 3.76613
45 1 -11.8083 13.3029 -4.20771 2.29049 0.727315 -4.33728
1034 1 -14.1968 13.3337 -9.21506 0.0717305 -8.11292 -6.04948
67 1 -13.8108 24.0758 -11.957 0.833157 -1.18208 -3.02543
1180 1 -9.75668 46.1228 -10.9398 -3.86853 -1.36256 4.57488
70 1 -16.3079 15.3307 -16.3827 1.7953 5.13826 -0.281731
4088 1 -5.47572 38.8113 -0.358345 3.30526 0.959823 -2.8334
78 1 -19.5329 14.0563 -9.19198 1.19425 0.721808 -0.176008
80 1 -12.4525 14.3625 -13.6505 -0.449888 -1.08242 2.50173
1226 1 -21.0181 14.3232 -0.285857 3.75719 3.0719 1.22557
88 1 -10.1034 24.7655 -18.1184 -5.13366 -0.559332 1.51759
109 1 -12.7551 17.1169 -14.5343 -0.0898774 -0.564966 -4.18199
130 1 -6.69567 18.0273 -18.8779 2.78439 -3.26229 3.17451
154 1 -8.58875 21.7061 -5.55256 -0.702586 -2.08703 -1.06303
172 1 -19.3718 20.8752 -19.5047 5.02988 -5.92276 -1.76414
176 1 -5.38736 23.348 -2.18843 1.304 -0.979772 2.91718
209 1 -5.98331 18.303 -15.5327 1.72027 1.8598 -3.81295
1855 1 -1.07916 21.7943 -17.2177 0.119559 -0.197994 0.402684
212 1 -17.3637 25.0761 -3.93012 2.23795 -3.55856 2.37007
4182 1 -1.85772 36.6026 -0.930426 3.02987 4.44202 -2.32698
245 1 -9.40443 24.6122 -9.45021 1.50055 1.21599 -0.148357
267 1 -11.1415 18.3489 -10.479 -1.36213 -2.77466 5.84649
268 1 -20.6005 21.0591 -11.7593 -6.18613 -4.50166 -0.562257
210 1 -19.0935 12.7128 -1.72839 1.98486 2.23908 -0.922403
301 1 -7.22213 21.5802 -20.2101 -2.28227 1.39966 -8.69111
2983 1 -6.08805 13.5381 -23.2194 2.5016 1.83961 0.690231
374 1 -6.51767 18.0066 -10.4552 -0.370137 2.18115 1.63568
2172 1 -0.96773 22.5388 -3.52107 3.1334 -2.70383 0.916074
4205 1 -3.00421 38.903 -1.58031 0.704844 0.80504 3.09598
3116 1 -13.204 16.4561 -0.855731 1.64639 -3.69527 -1.29192
439 1 -3.32006 23.7498 -6.32052 5.68576 -1.3048 0.0383054
440 1 -9.85731 13.7912 -14.8649 -2.80856 2.46294 5.3397
489 1 -12.1479 23.0523 -9.66267 0.481885 -6.72475 -1.99574
3255 1 -17.3114 11.4976 -17.5342 2.5884 -0.971381 -0.305646
521 1 -11.0114 23.3813 -5.12271 1.56519 -5.09174 -1.1854
526 1 -21.0911 14.7457 -4.33217 3.34872 -1.98286 -2.32852
527 1 -6.07003 13.3299 -5.77748 -0.27817 -0.546135 -0.307427
528 1 -16.5801 16.7149 -10.975 -1.05846 -2.23194 -2.33639
556 1 -11.6116 17.1468 -2.84639 1.48976 3.44084 0.980658
1068 1 -6.87455 19.4632 -1.91826 -4.52438 1.55891 2.73037
569 1 -6.9671 24.3818 -13.7352 1.29374 -0.891606 2.03105
612 1 -5.52564 13.9829 -12.6868 0.856945 1.04921 0.535398
617 1 -12.5302 23.326 -18.7705 -4.0505 0.053247 6.61609
621 1 -6.41134 16.6902 -13.1669 1.71531 -7.68524 1.62675
4198 1 -2.19285 41.5202 -8.37664 -1.80833 2.8837 -0.331035
3427 1 -23.7482 12.5866 -16.2537 2.53434 -0.758006 1.65749
682 1 -3.00086 19.0793 -3.40844 1.10227 2.05507 -2.06181
4086 1 -9.42015 41.5047 -0.332774 -0.378777 -0.0984609 4.15076
723 1 -23.4565 13.3639 -5.04975 -1.1095 3.12463 5.72142
724 1 -9.98992 20.7799 -7.92907 0.972562 3.95712 3.94806
728 1 -11.2259 18.2862 -7.66633 0.126203 1.92458 0.376889
731 1 -10.5332 12.2014 -23.7313 1.01947 0.977854 -4.27648
757 1 -19.77 12.4866 -5.53061 -0.907963 3.5682 2.51553
4221 1 -3.40354 44.0479 -8.49085 0.504308 1.21234 -1.09447
766 1 -8.11088 15.8943 -15.5441 -1.55056 1.21979 7.41856
2871 1 -15.9287 19.6382 -23.8323 2.29088 -5.26068 -1.7168
4170 1 -2.08951 36.7722 -6.13546 0.753321 -2.61983 -1.5381
792 1 -21.8759 16.611 -6.60926 3.04235 3.39591 -3.05444
799 1 -12.0872 20.8493 -1.72385 -0.131411 -2.49513 0.303367
809 1 -6.77987 24.4679 -16.5205 2.00634 -1.6776 -5.04563
813 1 -14.6307 22.5292 -17.0454 -3.41071 -1.54586 -3.90853
3744 1 -19.2452 18.6591 -0.974374 4.94609 1.21832 -1.08727
848 1 -3.81631 17.1051 -11.2528 3.68958 0.255941 1.02194
851 1 -21.497 16.0431 -15.6061 4.99253 -3.29022 -8.74635
855 1 -16.3365 22.309 -20.6582 -4.12032 -0.152859 0.774096
4230 1 -1.61392 45.8207 -1.10316 -0.731956 -0.130936 -2.44483
3880 1 -8.34638 18.6833 -23.3026 -2.58146 -0.917634 0.874512
903 1 -7.6267 24.1691 -19.4429 -3.74781 -0.565718 3.11441
912 1 -15.6992 22.0381 -10.8966 2.24403 -0.781667 -0.624087
934 1 -3.40983 21.3684 -22.8869 0.310906 -3.02252 -5.0134
955 1 -10.865 20.8644 -19.0753 -1.40331 0.328358 -0.980947
963 1 -16.788 23.4942 -13.2748 2.22072 -0.958699 -2.66579
968 1 -2.68063 22.8702 -14.7628 1.08797 -1.10918 -2.64563
984 1 -16.7199 16.4374 -4.59378 1.40679 -1.80133 6.54029
1836 1 -10.8736 45.507 -18.2638 0.917086 -0.564451 3.15173
1044 1 -6.935 20.8267 -10.4853 0.450197 0.0678006 -1.70358
508 1 -3.02016 19.5425 -7.63043 1.39069 -1.26609 -2.77093
1071 1 -18.5205 22.7554 -15.2758 0.0751041 0.576403 5.36767
4016 1 -5.70052 25.808 -0.181735 -1.43142 1.1383 -2.39219
4218 1 -1.51696 45.9016 -5.25413 3.08549 1.55932 0.0189287
1314 1 -14.3785 11.6082 -17.582 -0.686347 5.12838 0.64634
1095 1 -10.022 21.2136 -10.6934 3.9798 2.12793 -0.833744
1122 1 -10.4295 23.1712 -1.9052 0.018801 3.90908 4.73772
1124 1 -3.33304 13.9451 -16.1383 1.41358 -0.698764 1.80443
1130 1 -3.22596 15.6267 -13.6987 -0.0469524 2.41639 -3.06241
1187 1 -13.8422 16.8988 -7.76032 1.32038 1.36487 1.44596
1210 1 -4.21847 18.2394 -0.96765 2.35754 3.15113 0.545883
1232 1 -18.9604 16.0129 -21.9039 2.13578 -1.42858 -1.10465
1265 1 -9.90927 13.7909 -8.45208 -0.827479 2.26146 1.59315
1277 1 -13.6535 20.9317 -3.85139 0.434437 -4.3572 -4.33491
1279 1 -20.0114 16.6953 -13.3754 -3.25681 -0.532511 -1.06895
1292 1 -6.13168 20.4573 -4.65768 2.86663 -1.82851 -0.533902
1311 1 -2.95388 19.7113 -11.8727 1.82236 0.41736 2.0631
1327 1 -9.62204 20.9036 -21.8278 1.23849 -2.27042 -1.27714
1330 1 -8.94038 16.3594 -7.65175 -3.54536 0.00127936 -2.61494
1335 1 -14.1429 22.8528 -14.5069 -5.03604 2.47714 -1.44768
1368 1 -21.3087 20.786 -0.84399 -1.53624 0.758349 0.977221
1400 1 -12.1539 14.535 -23.1439 -2.58628 -0.196738 2.7851
296 1 -2.22203 14.3871 -2.48202 -4.10314 5.43687 4.10658
1420 1 -11.9607 19.2041 -22.3859 1.52574 2.84127 -4.91922
2619 1 -0.991926 11.2285 -23.0969 -2.76187 -2.86689 3.02033
1465 1 -22.4418 22.6728 -14.7819 0.0399451 4.0706 1.90304
1476 1 -21.2347 14.1245 -21.0444 -2.16439 0.820174 1.52027
3736 1 -23.7062 11.7567 -8.97025 -3.51416 -6.16169 4.14385
4040 1 -6.10798 30.1012 -0.556376 0.539815 0.636406 0.0884435
2760 1 -0.806307 14.3533 -17.4733 -1.88177 -0.331635 1.31947
3524 1 -1.15934 23.9976 -1.32134 3.86343 0.337685 -2.13416
1537 1 -4.24544 23.2053 -17.1082 3.12708 -3.88409 -2.51024
1544 1 -5.083 20.2568 -17.2857 -2.23602 -0.142713 -1.1843
1553 1 -9.55466 17.5757 -17.421 -0.305487 -1.95672 -3.62384
1565 1 -9.09251 17.0756 -11.9346 -0.372814 1.41547 -1.62425
1579 1 -5.79407 15.8513 -4.36382 -1.79197 -0.565128 4.00391
1609 1 -24.236 18.8573 -18.5831 0.421965 -0.589075 1.10709
1610 1 -13.4981 20.1347 -13.8863 -0.774998 2.3498 0.241207
1637 1 -3.81675 22.0242 -3.99812 -0.711662 -1.21169 -0.239277
1643 1 -7.63495 22.4409 -8.32755 -7.55434 -3.66555 -1.15647
3721 1 -0.71682 18.6521 -6.31826 -4.58853 -3.78125 1.63326
2081 1 -24.0394 17.8187 -15.9069 -0.265285 5.42986 -5.30054
1734 1 -8.1558 25.2475 -22.011 -3.27639 -1.28176 -0.284604
1764 1 -13.8413 16.1595 -11.7591 1.75339 -1.10351 -2.34119
1803 1 -18.63 18.3044 -9.82267 1.72522 3.50978 2.72632
1817 1 -2.24129 16.5036 -18.8021 3.09131 1.85119 -0.467488
4173 1 -4.08793 34.4833 -8.82572 -1.84889 -0.0293217 -2.07871
1899 1 -9.03391 19.3026 -4.17284 -2.90149 0.751406 -7.15993
1933 1 -4.16948 20.6944 -20.3436 5.65477 4.32733 -1.20027
1947 1 -17.0682 13.5495 -13.9492 6.06517 -0.0667284 2.04395
2002 1 -21.6795 23.1379 -9.26637 0.648033 -1.6505 -0.357783
2007 1 -10.1982 14.3285 -11.6754 3.50771 -2.52349 -1.90139
2987 1 -23.3242 45.8965 -9.12894 -2.03651 0.0895954 -3.08873
2062 1 -18.5919 20.3531 -7.6962 3.47463 -2.54839 9.17497
2076 1 -14.8311 24.7338 -7.44524 -0.274845 -1.41817 2.70746
2154 1 -10.474 16.8038 -22.4622 2.08692 -1.17242 4.18007
2092 1 -19.101 22.6268 -22.0403 4.62407 2.15795 -2.59154
3540 1 -3.83608 11.2814 -5.9825 4.9258 -1.28063 -1.36033
567 1 -22.6162 19.4925 -6.86704 -7.51227 -2.96029 -0.985344
2156 1 -21.1176 20.2685 -9.08529 1.82526 -0.776403 -1.09785
2166 1 -14.2889 19.5276 -16.5859 -0.196942 3.77848 -1.69061
1083 1 -2.62387 19.2719 -18.2396 3.15424 0.918443 -2.90498
2224 1 -17.5739 14.1209 -6.24722 -0.240562 0.174009 -1.07235
2232 1 -22.8869 23.1802 -17.4638 3.77148 -2.70049 0.418446
2249 1 -13.8631 14.061 -16.356 2.07394 4.20067 4.73683
2258 1 -8.56415 16.2028 -20.1048 3.60434 5.57095 -2.77825
2275 1 -11.3639 23.577 -13.9055 0.482449 2.43154 1.68486
3273 1 -18.9282 12.0439 -15.0171 1.00504 -0.808747 -1.61108
2289 1 -2.09217 13.0115 -21.0912 3.57179 -2.65619 5.93185
2303 1 -13.8293 19.2088 -11.063 -1.70392 3.63778 3.60914
4064 1 -5.80371 34.6414 -0.438018 3.34723 -0.820335 0.981313
3506 1 -23.6323 19.6194 -4.09313 0.950981 -2.10976 -0.656342
2382 1 -11.8349 15.7713 -16.9384 3.62649 -2.2492 -2.71839
2401 1 -16.9217 22.676 -4.97367 1.26486 -5.95528 4.92582
770 1 -6.10929 22.2115 -22.8295 -0.190207 2.2973 1.17994
2431 1 -21.4317 17.9163 -11.1739 -2.77717 -2.0465 -2.6301
1828 1 -13.596 45.8019 -22.6803 1.11069 -3.08045 1.85362
2459 1 -18.7058 16.4217 -7.62562 -3.98772 -2.06374 0.405017
2461 1 -19.5899 17.2071 -4.89852 0.326627 -2.72348 1.93829
2471 1 -1.82259 23.5997 -22.116 3.02722 -0.305363 -3.66502
2533 1 -14.68 25.4489 -2.94752 1.19869 0.818686 0.174634
4181 1 -3.39917 34.5165 -1.87474 0.403457 3.406 -1.03956
3052 1 -20.6843 12.6122 -12.7895 0.900479 -2.27687 3.46205
2570 1 -23.115 16.1018 -19.1774 -6.64298 -0.0240163 -3.9001
1880 1 -2.51166 22.9325 -19.4129 -0.262026 -2.93887 1.33718
384 1 -12.2113 13.1385 -7.01248 -1.47586 2.6983 5.04238
2611 1 -23.3497 24.5026 -21.5612 1.30839 0.140833 -0.682086
2614 1 -9.71123 14.1525 -18.5753 -1.23326 2.42255 1.82021
322 1 -14.3955 14.6393 -3.90328 1.74824 2.45503 3.54794
2623 1 -21.3983 17.4229 -22.2108 0.242479 2.55115 2.23887
2624 1 -20.5625 19.8379 -4.55767 3.31191 -0.441189 2.30795
1489 1 -23.668 15.6198 -0.155424 -2.42295 0.676297 1.74001
2649 1 -18.4283 22.851 -10.8935 5.89003 -0.289294 -0.0046305
2699 1 -17.8913 15.396 -2.01819 -4.20546 4.73191 4.1895
2702 1 -6.07735 18.8838 -21.5696 -0.472853 4.19094 1.64289
2722 1 -11.6561 19.2099 -5.10198 -2.8442 -0.565877 -3.57484
2750 1 -13.9499 23.5074 -21.0378 -3.96433 -0.552237 3.26376
2752 1 -10.7887 20.6634 -13.3075 1.53247 0.288733 1.53523
4193 1 -3.27862 39.0632 -4.36182 -0.715945 0.244609 -3.30643
2848 1 -18.2464 46.1626 -11.1383 -2.5798 -4.4296 -0.342
2772 1 -13.7808 17.8915 -20.6065 4.80032 -3.55735 -3.97463
4206 1 -1.46936 40.8814 -0.765577 2.9637 1.2319 4.12777
2804 1 -18.6027 14.7225 -11.8262 0.263087 1.0214 -0.122772
2806 1 -4.18296 20.4522 -14.3716 1.16531 3.50678 4.45313
3041 1 -21.047 22.6459 -2.98784 -0.470222 -3.30197 -7.97728
2836 1 -13.8187 17.1864 -4.96267 -0.396586 0.203253 -2.9115
2866 1 -19.648 22.6045 -5.68631 4.30355 -0.950043 -2.68586
2867 1 -18.0994 18.7222 -14.2248 1.00698 3.19924 0.323996
2870 1 -12.0135 15.3256 -9.56028 -0.144659 -4.20237 -0.851059
2878 1 -20.0009 20.554 -14.7257 -3.24808 -2.6362 -2.03925
2881 1 -16.4968 14.4497 -21.1115 1.18211 -1.1377 -0.475825
4013 1 -11.7587 25.4226 -0.747169 -0.0431275 -1.55896 1.67133
2904 1 -8.29687 14.3193 -1.3729 0.529959 -0.551889 -2.88003
2907 1 -16.3888 22.4406 -7.98302 0.0333546 -2.394 4.9886
1161 1 -8.22845 46.3804 -18.9388 0.400139 -0.963967 2.01029
3347 1 -24.1425 11.4919 -13.4461 -5.67757 -1.93234 -1.67048
2959 1 -18.0434 18.2845 -20.2988 7.90991 -0.420673 0.638318
4229 1 -2.70705 43.3451 -1.74014 2.68803 -3.83822 0.978462
2976 1 -21.2025 18.7999 -16.5631 -2.62687 0.924939 -2.96546
789 1 -14.8666 18.8376 -0.867008 1.7869 -0.545234 -2.56397
2986 1 -4.15419 17.723 -23.0864 -4.39803 1.19147 0.310079
4197 1 -3.84086 39.4148 -9.24946 4.13402 -0.731472 3.30345
3021 1 -19.5973 24.732 -1.89385 -1.28199 -1.64883 0.600769
3030 1 -16.621 19.455 -11.6766 2.924 -1.81649 -1.33047
3044 1 -8.31518 16.8041 -4.94275 3.17508 0.170327 -1.80119
1074 1 -8.62939 11.9201 -16.6439 0.426891 2.86135 -1.83644
3060 1 -22.5328 22.66 -6.51155 -0.616079 4.41032 -0.317625
3061 1 -9.38971 25.0018 -15.4131 -2.74204 -1.69013 3.19708
3062 1 -6.21774 13.6309 -17.0274 2.76892 1.27474 -4.63864
4217 1 -2.89315 43.5106 -4.54273 1.74992 1.84545 2.4614
1516 1 -10.0986 23.4007 -23.267 1.11602 2.43382 -0.849646
3115 1 -16.5809 17.9896 -16.4115 -1.85506 -2.74066 -2.92574
2161 1 -1.00302 11.484 -4.94416 -6.93517 0.658882 1.7963
644 1 -7.13859 12.5047 -3.37985 -5.01844 2.69862 0.336078
3133 1 -2.61258 16.8484 -8.66541 -1.50538 2.37464 1.18208
3152 1 -13.8807 15.2152 -21.1649 0.308044 0.11557 7.88552
3165 1 -6.54399 21.4468 -13.2638 1.81773 0.875247 -0.106052
3171 1 -6.02673 15.1076 -21.0269 3.85216 0.398698 3.40908
4222 1 -1.50424 46.1291 -8.12797 2.26031 6.27993 4.47389
3185 1 -15.8555 19.572 -21.1409 -0.0313029 2.09523 -1.20558
3188 1 -21.8502 15.9486 -9.36424 -8.02509 4.5712 2.15602
3190 1 -22.0867 20.7487 -18.4612 -1.74571 -3.33579 3.05723
3218 1 -5.07105 21.7275 -7.18806 -2.71036 -1.13055 4.02311
3226 1 -22.6147 23.0762 -11.8195 -3.19011 -3.66478 -0.727551
3174 1 -22.9444 13.7986 -10.9656 -3.23919 2.71256 0.300111
587 1 -20.9819 45.9716 -10.4481 -1.3877 -1.57188 2.14002
4014 1 -10.0091 27.6963 -0.224891 2.88528 1.91297 -1.35616
3256 1 -6.2783 16.6367 -8.1442 -0.961455 2.67928 -7.19517
3299 1 -14.0318 23.4793 -4.93539 5.66356 2.95337 -0.230699
3308 1 -18.0552 20.7074 -3.12734 0.905858 -0.45382 -3.73844
3330 1 -8.22156 20.0884 -14.8437 0.705608 -0.198697 -0.50905
2313 1 -8.74127 11.5902 -19.91 -0.844883 -2.29109 -0.0496717
3383 1 -21.5165 24.923 -19.1513 -6.41765 2.63036 2.1987
3393 1 -12.7215 13.6647 -19.155 -0.631885 -1.84445 0.0873881
690 1 -0.540526 23.2045 -6.28203 3.63741 3.30434 5.88964
3435 1 -4.24467 24.2871 -13.0496 0.276014 1.36534 -1.70162
3462 1 -12.4151 21.5804 -6.99108 3.26086 -3.37305 -1.84019
3532 1 -8.26271 11.856 -6.94392 0.950008 -0.792004 0.559676
3499 1 -21.7323 20.9792 -21.617 -0.575971 0.747059 1.6202
3501 1 -16.7428 18.4754 -6.66156 0.622058 3.68891 3.06615
3502 1 -7.8917 23.6337 -3.51349 4.27989 7.10894 3.43031
697 1 -23.0336 14.9926 -23.493 3.84303 0.22242 5.30547
3514 1 -4.21089 21.0593 -9.83082 1.18392 2.18227 2.4147
63 1 -2.00346 11.6585 -17.5112 -0.0611731 -0.0751846 -1.65504
1317 1 -12.1671 11.5998 -12.8985 -1.28897 -1.60639 -2.39167
3480 1 -24.1041 22.5926 -4.20133 -3.26767 -5.90341 2.2682
3543 1 -15.9614 15.322 -8.54136 -1.36253 3.18269 3.30506
3544 1 -9.8276 19.0275 -1.4191 -3.88819 -1.56803 0.31135
3553 1 -9.94571 15.1881 -3.51897 -3.98872 -1.64685 -3.36143
3560 1 -17.783 14.2195 -18.3532 3.51164 -2.45809 -0.237351
3600 1 -19.0231 24.0367 -8.12876 2.91299 -3.13278 -2.41241
3611 1 -17.5303 22.6663 -18.012 5.68712 1.01063 -5.13948
3612 1 -3.04851 16.2755 -4.37176 1.74136 -4.65842 -1.97127
3620 1 -4.44796 14.4982 -8.02692 5.29853 -1.35673 2.45822
3655 1 -9.11077 23.6383 -12.1495 -0.361258 0.381089 0.307422
3675 1 -14.4912 19.9219 -8.19193 -1.59624 -7.15654 3.01983
3717 1 -3.28639 15.725 -21.2978 0.923406 2.81239 -1.70884
3525 1 -17.1486 11.6368 -20.7581 2.44021 0.124092 6.62984
815 1 -21.2093 12.27 -17.1623 0.913599 3.1855 6.70567
3725 1 -15.7584 19.07 -3.75501 -0.0291502 2.14911 0.785521
3719 1 -1.02703 15.6705 -6.38473 -0.097664 -0.984388 -0.77977
3747 1 -19.038 24.5885 -19.9892 0.0409989 -1.82682 3.43557
3752 1 -20.4103 15.0228 -18.2016 3.53681 3.66372 0.493282
3791 1 -9.99863 17.9183 -14.4987 3.10335 0.319836 -0.306175
3805 1 -4.85772 16.0675 -17.2746 1.12501 5.19517 1.56205
3807 1 -8.20502 20.2255 -17.8227 8.45542 -4.42302 1.15938
3826 1 -2.92141 17.9964 -15.6064 -0.2111 0.180971 -0.868239
3828 1 -18.7891 17.6287 -17.7699 -0.478049 5.09293 -3.63345
4169 1 -3.66171 34.9721 -4.728 -2.10115 -3.18116 -0.688426
3929 1 -1.97946 12.8631 -7.46854 -0.075465 6.11235 1.82573
4194 1 -1.76631 41.2983 -5.49403 3.1329 0.148768 -4.7131
3901 1 -14.5769 12.9889 -11.9246 -0.0739663 -0.235579 1.78048
3910 1 -4.73878 18.3257 -5.98532 -4.05615 -0.614022 4.68557
4174 1 -2.59497 37.0084 -8.77988 -1.40829 2.59126 -0.359736
3940 1 -3.18473 23.6465 -10.645 -4.06744 -2.36855 -2.74858
3956 1 -14.8763 12.6937 -5.93988 -0.228432 -2.00417 0.45441
3235 1 -4.91567 12.7285 -10.2412 -2.30444 0.804247 -1.05443
3984 1 -6.01289 12.6853 -19.616 -1.76005 3.33692 4.75981
4001 1 -12.0319 25.9117 -3.6628 1.67645 1.91514 -1.58724
4002 1 -10.7803 27.9453 -4.86917 0.828115 4.13975 -1.35684
4003 1 -8.12752 27.8948 -4.03734 -1.49275 -1.32412 -2.40054
4004 1 -6.80674 25.8037 -5.24372 2.06664 2.24431 -2.58029
4005 1 -11.8706 25.2139 -7.61991 -1.28845 0.175845 -0.644078
4006 1 -10.9225 27.7772 -7.63361 4.2798 -1.43057 4.79032
4007 1 -8.37179 27.5433 -8.77974 2.6768 1.46628 1.41888
4008 1 -6.78808 25.2485 -8.00495 -0.176955 1.82209 1.92891
1698 1 -12.9978 11.5616 -2.2142 4.25372 -5.43893 1.596
3756 1 -12.4262 46.8928 -20.0857 0.294189 -4.24028 -5.45201
4015 1 -7.54448 27.7041 -1.23847 1.17877 -4.89004 1.28719
1128 1 -2.12803 12.2246 -0.732383 -4.37691 1.76042 1.62035
4025 1 -11.7013 30.4718 -4.09051 -4.02296 -2.72974 6.12253
4026 1 -10.4447 32.787 -5.0984 -6.50814 -1.83082 -5.24245
4027 1 -7.78407 32.3074 -4.14358 -4.72794 2.93523 -2.87657
4028 1 -6.63065 29.8132 -5.26573 -1.04017 1.14826 1.53653
4029 1 -12.2689 30.2082 -7.42065 3.11273 0.936774 0.403296
4030 1 -10.8171 32.5186 -7.83471 -4.08203 4.03583 -0.383034
4031 1 -8.16484 32.4244 -8.67949 0.125128 -3.17971 2.70523
4032 1 -6.89928 29.9262 -8.12144 -8.33286 -1.33925 -1.39157
4037 1 -11.3902 29.9511 -1.42525 3.648 0.0678909 4.35375
3780 1 -23.6989 18.7991 -21.6495 0.974332 -2.99972 -1.43566
4039 1 -7.42917 32.3875 -1.37465 0.235359 6.32178 -4.61337
2617 1 -3.94364 11.7698 -14.3194 -2.97463 -4.52198 -0.759954
4049 1 -11.1778 34.718 -3.37111 4.67105 0.589218 -4.52867
4050 1 -9.94865 36.7591 -4.83575 2.62529 4.07266 -5.0013
4051 1 -7.16867 36.7167 -4.10314 6.61754 5.40043 -3.04372
4052 1 -6.421 34.4166 -5.27868 0.595064 0.437572 -3.03065
4053 1 -11.6524 34.9635 -8.8505 0.16343 -2.87841 -1.34808
4054 1 -10.3084 37.0706 -7.6896 -1.96107 6.41636 -2.61846
4055 1 -7.63133 37.2299 -8.32171 -2.76539 -1.85408 -2.30631
4056 1 -6.60551 34.5017 -8.01782 0.380902 -1.51392 3.54795
2284 1 -21.4017 23.3543 -23.4668 -0.587488 3.60232 1.91097
2837 1 -17.98 11.53 -9.45371 -1.17094 2.75207 -1.03061
4063 1 -7.03683 36.8261 -1.43166 2.31705 0.551162 2.64243
2787 1 -15.0924 14.3754 -1.23205 -0.814919 1.21706 3.02684
4073 1 -10.9112 39.3406 -4.09582 0.0618496 1.17507 -1.02289
4074 1 -9.62435 41.6812 -4.99521 1.33403 1.02237 0.589888
4075 1 -6.93005 41.3073 -4.12977 -3.74248 2.10966 -2.87686
4076 1 -5.73405 38.8866 -5.36839 -0.0845653 0.150343 -0.209294
4077 1 -12.0561 39.1381 -6.60885 0.451073 0.284596 4.56206
4078 1 -10.8515 41.3569 -7.73234 3.12058 -2.92186 -3.12595
4079 1 -8.11413 42.0543 -8.06704 -5.06163 2.56659 -1.37429
4080 1 -6.22235 39.7334 -8.05778 1.44187 -0.471415 -0.301543
4085 1 -10.6924 39.3599 -1.19538 0.887893 5.42135 -3.81057
3653 1 -0.880763 15.9193 -0.241217 -0.671641 -0.640047 1.80444
4087 1 -6.81794 41.0601 -1.27359 -3.02292 -1.56735 2.36566
2807 1 -23.0475 18.2947 -1.31548 -2.54306 5.18864 -2.04537
4097 1 -9.8209 44.3364 -3.86703 -7.53456 2.35487 -1.56359
4098 1 -11.0343 45.4325 -6.06295 -2.41942 2.47511 -0.292865
4099 1 -7.38094 46.2203 -3.75955 5.51782 0.352151 -1.78788
4100 1 -5.83719 43.9314 -4.84813 1.7152 8.48225 4.33679
4101 1 -11.7924 44.0095 -8.44643 -0.507686 -0.0716712 -2.37262
4102 1 -8.93206 44.8608 -8.28808 2.19672 1.60193 -1.62994
1919 1 -22.9827 14.2867 -13.8611 -2.74618 1.53445 1.84135
4104 1 -6.03154 44.1958 -7.54923 2.80501 4.18196 0.0378383
4109 1 -10.7819 43.6367 -1.30544 5.3728 -3.67363 4.11193
3080 1 -20.7886 11.6588 -8.19157 0.0586941 -3.36373 1.70385
4111 1 -6.71838 45.823 -0.988194 1.92134 -0.421784 -4.03616
2945 1 -7.99672 12.6725 -12.7724 -2.38012 -2.03474 -0.772679
4121 1 -4.12319 25.754 -4.85463 -0.243848 1.68886 4.20828
4122 1 -2.53835 27.9604 -5.44174 -1.05406 4.26472 1.8853
4125 1 -4.03294 25.2599 -8.55065 -4.99273 -2.98255 1.24536
4126 1 -2.64394 27.756 -8.12789 0.664309 1.28724 -4.531
4133 1 -3.43588 25.5826 -2.0145 5.41936 2.93265 -2.91711
4134 1 -2.13226 27.877 -1.00478 -0.302995 4.10677 -3.32836
4145 1 -3.76971 30.2593 -4.66723 -1.1164 -1.05429 -3.03372
4146 1 -2.51937 32.6188 -5.67642 -0.42177 -2.69841 0.387295
4149 1 -4.22802 29.721 -8.96405 -0.923452 -0.236564 1.23954
4150 1 -2.76245 32.0843 -8.44528 0.290642 2.68485 5.91181
4157 1 -3.48004 30.1065 -1.86207 -0.426854 1.67547 -3.51339
4158 1 -1.82467 32.23 -1.29444 0.0306887 3.26721 -2.24411
951 1 -8.40468 45.3511 -13.2285 2.66206 -0.580283 0.162911
2061 1 -16.4368 45.5569 -22.5009 0.057192 -0.311734 0.96918
886 1 -6.14473 21.7645 0.0232741 3.58059 -7.41151 1.65869
4061 1 -10.6246 34.7382 -0.509119 3.42972 1.42967 -3.09746
3857 1 -12.5326 45.5808 -10.8619 -1.44788 1.09289 3.70359
286 1 -6.08437 16.1064 -1.58388 -3.67492 1.21793 -0.108766
3151 1 -10.8253 45.8294 -15.1943 3.99363 0.446638 3.41907
3408 1 -16.6488 12.793 -23.6052 1.3145 -4.32694 4.43544
4103 1 -6.7932 47.0287 -7.88192 -1.1353 0.445691 2.76592
3978 1 -0.493786 20.198 -13.0707 -2.39638 -1.73419 -3.50208
1054 1 -17.1904 23.6026 -0.537321 -0.615701 -0.151022 -2.69276
1383 1 -6.07237 46.718 -13.8258 -0.0258243 2.08513 -0.294509
1291 1 -20.5851 16.5762 -2.14205 0.409821 -0.540036 0.856801
2956 1 -17.2916 20.6475 -0.146708 7.38978 1.05773 3.14486
3228 1 -10.6719 11.5027 -10.5066 2.62019 1.6629 -0.373914
1440 1 -24.1819 13.3581 -1.88225 -1.09313 4.05334 0.494992
83 1 -21.8976 11.6348 -1.20618 -4.76199 3.68036 -3.93043
2223 1 -20.0194 11.7094 -22.0863 5.61822 0.754357 -0.659034
2545 1 -11.4615 11.8019 -20.9833 -5.36354 -3.18152 1.94815
847 1 -12.8776 46.8289 -13.5074 0.189316 -0.826321 -6.28611
839 1 -24.1099 18.538 -12.1789 -3.96145 0.871384 1.50902
394 1 -9.56029 11.2707 -4.48002 -2.35351 -3.00622 -1.2343
2056 1 -5.94778 24.8384 -23.6043 1.98708 -2.15479 2.52037
4112 1 -5.22133 43.3708 -0.679757 2.64881 -0.639323 4.96793
2580 1 -23.4405 12.1133 -20.4848 -3.04921 2.50082 0.964665
2458 1 -23.5371 22.7994 -1.35532 0.232329 0.40379 1.58818
2897 1 -4.2436 14.2657 -0.366503 0.0239424 -0.75267 -3.73537
1026 1 -0.439909 11.4639 -9.3899 -1.61164 -0.0776714 -3.7032
190 1 -16.9609 11.3136 -12.0675 3.13515 -3.23286 -0.813418
2574 1 -19.6979 46.8545 -7.86026 -1.12289 7.6788 1.17973
74 1 -0.493886 15.223 -12.372 -2.94328 -3.29276 -1.5263
4110 1 -9.36061 45.833 -0.0555915 2.8632 -1.63963 1.43501
2480 1 -0.590621 21.2243 -8.20232 -0.420647 -0.237965 -6.37921
2321 1 -3.11948 24.9847 -24.1339 -0.14655 2.46325 -6.79849
604 1 -0.879607 26.8388 -23.8986 -1.63927 3.20275 0.348095
4062 1 -9.45335 37.1182 0.0128154 5.72239 3.05941 4.81759
2952 1 -12.8346 23.4985 -23.8691 -1.61061 -5.3164 0.224328
2 1 -9.07728 15.4325 4.15244 4.15879 3.40643 2.74621
19 1 -15.2528 22.4631 19.9732 -4.33543 1.92389 1.80151
577 1 -12.4261 22.9161 0.693461 -0.925209 -3.56717 0.0739027
53 1 -3.21436 23.7391 12.8735 2.20174 -0.11598 -1.29447
69 1 -8.67238 14.1613 9.36173 -0.170606 0.392043 0.804032
98 1 -3.30984 14.8985 12.4837 -0.633673 -0.274208 1.15575
148 1 -17.7647 13.4014 12.2843 -3.42127 0.298204 -6.23045
2129 1 -13.3799 44.0066 14.361 4.61478 -1.75314 2.25686
196 1 -18.2399 24.9265 4.12509 -3.4374 -5.09628 3.88714
4115 1 -4.64466 46.3918 10.7059 0.55112 -1.74839 -4.61103
219 1 -6.7967 24.8923 21.7649 -1.10179 -1.20426 2.56179
230 1 -8.14059 15.0111 19.6158 2.93695 1.79762 -0.12676
233 1 -12.6701 17.7195 12.0376 0.905062 -2.95569 2.90859
234 1 -8.97247 19.5187 8.08287 0.657832 -1.13716 5.34705
237 1 -19.008 23.5744 1.55817 -1.0357 0.0308978 -4.79751
239 1 -20.5162 19.3694 17.6565 -1.42793 0.943708 -1.26626
285 1 -15.8181 20.1767 13.3691 -2.73177 -2.44213 4.06144
371 1 -12.3184 45.8439 16.3358 4.24715 6.5163 0.214481
2528 1 -11.6106 12.6968 6.00375 -2.63376 4.23784 -0.53401
372 1 -9.21746 22.1515 7.00366 -0.162257 -2.82289 -2.80906
2307 1 -14.1452 12.7018 23.3445 3.84486 2.02737 6.56076
4166 1 -1.38511 32.153 6.4965 -2.29916 -1.73947 1.77851
425 1 -19.8423 14.3163 17.2007 3.2121 3.89417 -3.16474
453 1 -19.2843 13.62 8.2429 2.24844 4.97534 0.832151
3840 1 -11.6575 44.7627 12.2376 -3.59473 1.65764 -3.14534
514 1 -14.2843 19.9584 18.9419 1.19384 -6.38142 0.514353
1967 1 -14.9381 47.0181 16.5733 1.85008 1.27766 -0.502254
410 1 -16.9936 14.9833 0.721132 -0.172372 5.34824 -6.19112
583 1 -22.0219 23.8231 13.5095 2.00427 -1.61183 -3.24893
2362 1 -18.8167 12.0742 15.4625 1.68176 -0.239042 -2.38925
588 1 -19.2524 22.4571 5.49076 -2.10059 3.75577 0.850256
590 1 -5.14249 19.7593 21.6702 2.80358 0.404882 -1.83817
600 1 -22.1233 25.2071 15.8907 -3.21141 4.59219 -5.74544
630 1 -23.6958 23.5404 11.1656 1.05916 -1.83301 -4.62576
641 1 -15.9978 18.5522 5.92883 -0.22413 -0.126271 -1.11683
668 1 -10.6679 13.6365 19.0948 3.96865 -4.58696 3.33608
693 1 -10.3611 23.3173 2.51104 2.80721 -0.264148 -1.52626
729 1 -13.7135 18.2724 14.7802 3.60597 -0.237079 1.00128
734 1 -19.7558 23.79 19.5563 2.916 -0.839623 2.08415
3602 1 -0.628808 26.9857 21.2023 5.54628 -1.58401 2.46619
754 1 -15.3564 23.9535 17.6433 3.06115 1.67974 -3.95566
785 1 -2.80856 21.2942 21.3304 -0.511747 2.23232 -2.52843
786 1 -23.0513 20.4405 23.247 1.14387 0.901564 -3.05382
791 1 -4.45987 24.0722 15.5556 0.265944 -1.15792 -1.71831
3382 1 -23.1662 11.5215 15.3686 3.85837 1.86933 -1.42525
3230 1 -24.1284 12.09 21.2674 4.40389 -4.79452 -1.22522
1377 1 -13.4537 20.5901 23.7983 0.75287 -0.335654 6.08563
913 1 -6.67637 25.3548 16.77 4.00715 1.22736 -3.13079
914 1 -22.3218 14.6851 11.2936 2.24636 5.25815 -5.2785
919 1 -6.74839 17.4789 12.7292 -2.8909 -3.02129 0.270364
924 1 -7.61105 15.3175 6.60172 0.823609 -0.743797 2.44375
932 1 -18.6171 15.07 14.6674 -1.91035 0.658562 -2.64191
941 1 -21.5626 22.3708 9.40249 1.54236 -0.453607 4.64827
947 1 -11.4569 17.0629 15.9149 1.49129 2.89651 3.08129
949 1 -3.10117 14.2041 22.4418 -2.96031 0.78475 2.4114
961 1 -9.12672 13.0812 2.82066 3.17127 1.98425 -0.469029
965 1 -17.0254 12.9712 6.24365 1.08548 1.42788 -1.91169
985 1 -18.0882 21.0315 11.795 -5.31148 -1.66331 -3.49711
23 1 -11.0728 45.6929 20.4389 -1.64559 -2.25098 2.37464
1055 1 -10.848 14.6417 14.6917 -1.53851 -0.853505 5.14277
1056 1 -8.15737 20.0124 3.61224 1.96699 -4.25265 -4.10995
1063 1 -1.5582 20.6538 9.398 -4.5414 -2.80341 2.24886
3581 1 -15.0059 12.2463 3.90951 -7.49212 -3.7187 -1.23122
1088 1 -21.8176 21.8717 6.56893 -3.93342 0.244518 0.793251
1110 1 -10.6529 24.0994 8.33119 3.30774 -3.08989 -0.193102
4214 1 -0.855943 41.2881 6.72263 2.41656 1.07665 -0.932791
1117 1 -6.80288 14.8722 11.7046 -0.740437 1.00116 0.600977
1150 1 -15.3863 16.3446 7.84133 -0.270373 0.373221 0.618791
1152 1 -13.47 14.1458 19.7524 2.00027 -1.81022 2.75421
1166 1 -17.3749 24.6411 15.8174 1.74208 0.877795 -3.02108
178 1 -14.1968 12.245 6.90748 -1.78392 -2.63502 6.38151
3131 1 -10.4896 12.7622 0.175248 1.6375 1.04269 -0.140163
1197 1 -20.553 18.0326 21.3229 -3.29353 0.705404 1.41289
1204 1 -3.62964 19.8206 3.75821 -5.58019 0.814936 -1.66602
1220 1 -22.6306 20.9603 17.4339 4.2412 -0.211673 0.989917
2426 1 -1.83405 16.2636 18.786 -1.78537 -0.804265 1.03494
1237 1 -19.5037 19.7603 15.1321 -2.81913 1.08049 1.33049
1642 1 -2.45697 23.1769 7.72195 -0.635986 1.16228 0.282087
1285 1 -12.7824 23.6366 15.1672 2.84177 0.823607 -3.46852
2441 1 -21.9955 12.7784 18.0997 2.8441 0.856477 0.346288
1325 1 -5.7017 13.3241 9.38143 4.50994 4.60363 -2.22303
1340 1 -19.2937 18.7898 10.769 -2.0433 0.621653 5.15186
1355 1 -9.66968 23.2106 18.3664 -5.73012 1.56821 -2.13754
1358 1 -8.86567 23.1264 22.364 -0.839778 2.19254 3.52682
1372 1 -12.4992 15.064 2.84933 1.78496 0.346052 -0.739348
1374 1 -19.7801 25.2724 17.2522 2.83399 0.633091 1.11257
2475 1 -16.8875 12.3016 9.74504 3.20733 3.8141 -0.681216
1385 1 -16.7782 25.2671 12.8931 -1.81029 -6.33562 -5.70006
1391 1 -12.4952 19.5761 21.2336 -2.08996 5.31146 0.902343
1456 1 -17.512 16.5532 11.6741 -2.87014 4.1386 -2.52722
1458 1 -21.7603 12.8106 6.87528 -5.57188 -4.1479 -3.12394
1461 1 -13.5475 15.5438 22.4224 -2.86109 -0.967559 0.141299
1492 1 -11.6459 13.588 9.88916 2.91669 -2.05115 3.06183
1500 1 -17.4429 17.7435 14.0906 -0.101427 0.14252 -2.57724
1091 1 -12.3653 16.8648 7.93719 2.19475 1.43473 5.14601
1575 1 -19.8872 16.2339 3.77497 0.675726 -1.45568 0.0963277
1606 1 -22.9943 19.3565 7.55725 3.94657 -0.636081 -6.53803
1622 1 -17.6373 22.201 14.4635 1.73599 1.46953 3.8757
4114 1 -7.75424 46.4334 10.553 -1.19047 -1.00238 -2.04486
1655 1 -4.44371 16.642 14.4122 0.0688517 4.7855 -3.72736
1656 1 -5.03587 11.6962 16.8039 -3.9714 1.65464 -2.97433
1658 1 -18.098 21.6556 7.98685 -4.09157 -1.18629 -0.0229277
1668 1 -12.0717 19.6388 8.73072 -0.94499 0.161865 -0.144581
1679 1 -11.0089 22.0339 20.6388 -3.74492 1.31207 -0.418557
1968 1 -20.7305 11.3331 13.4424 -1.6573 0.338068 -1.65089
1705 1 -1.57357 25.0831 19.4733 -1.62933 2.07269 2.97714
1708 1 -8.90295 25.8171 15.4419 -0.0890706 2.64094 -2.22121
3774 1 -12.7343 12.156 2.12573 6.59765 4.1188 -2.49011
1167 1 -2.3972 13.8962 15.3066 1.9552 -2.87157 -0.790022
1784 1 -9.73131 14.1891 12.1344 2.08709 -0.647676 -1.92778
1163 1 -17.7454 46.3891 12.9327 -1.84143 -4.28472 -3.8449
1869 1 -2.17238 23.9053 17.1402 3.10498 1.41744 -5.28936
1873 1 -10.8803 16.4531 10.4304 1.40656 0.530966 3.11841
1885 1 -8.9697 16.4954 22.7705 1.96032 2.66181 -1.67964
1898 1 -21.247 18.9341 12.9858 -7.75876 5.11005 1.38549
1916 1 -4.72098 15.5947 6.7916 2.22997 -1.36938 2.07327
4142 1 -2.31215 27.1809 5.8736 2.84144 3.32249 -1.85836
3304 1 -1.98541 16.6356 15.9199 -2.07378 -0.503568 0.887491
1963 1 -2.48911 17.6227 1.20043 -0.641289 0.672 0.964491
422 1 -2.3575 19.3276 23.4216 1.68966 -0.152373 0.557092
2492 1 -23.0181 15.5252 3.57382 1.34381 -2.77551 4.127
2008 1 -9.25578 24.4608 13.1021 -3.18299 -1.17915 -0.905232
2013 1 -15.623 25.8977 4.5424 2.16361 -2.47771 0.23935
1685 1 -18.9076 11.8028 23.2004 -1.87996 -2.7411 -3.41997
2046 1 -9.09087 13.0818 16.4783 8.21346 -0.519461 -1.64918
2093 1 -6.61003 12.6666 0.315137 2.77975 1.55795 -1.83567
2082 1 -7.42871 17.3308 2.78533 -0.274356 -1.34739 0.315969
2119 1 -12.4856 17.9749 2.72554 -1.36643 -1.7792 0.915462
2157 1 -4.81009 16.1539 19.0293 -4.77744 0.437283 1.97199
2158 1 -15.7755 14.4667 14.143 2.02074 3.58856 0.208063
2168 1 -19.8563 18.6494 2.02615 3.24544 2.08301 -8.68496
4233 1 -1.81437 43.8465 10.2249 3.39255 -2.72257 -0.723992
3028 1 -14.9465 11.7476 20.6098 1.46279 1.60905 3.02137
2231 1 -13.066 25.4301 11.2957 -1.4118 -1.03845 -0.689463
2264 1 -4.85609 16.9424 3.96764 1.95739 3.02065 0.126228
2270 1 -5.93935 21.7994 4.34782 -0.748407 -0.580143 2.11024
4209 1 -1.82881 38.9151 10.3546 -1.95617 -4.82185 -3.05469
2282 1 -6.65531 22.7818 7.28849 -5.23797 2.36627 -5.37451
2285 1 -22.5873 17.7166 1.49674 0.217427 -2.53788 -2.18679
2305 1 -14.0005 19.8989 11.0079 0.840259 -2.14311 1.68312
4119 1 -6.49078 45.3142 6.3538 -0.00843331 2.45098 3.08143
2315 1 -13.0909 12.892 14.5337 -1.14825 2.86063 -3.07683
2768 1 -9.20708 21.8455 0.196658 0.811267 7.96046 2.43355
2322 1 -5.97531 21.0072 19.2865 3.57452 -1.61952 -1.16275
2334 1 -9.78686 18.3204 12.1814 0.270911 -3.8803 -2.61675
2335 1 -3.25699 17.6664 21.1113 0.654452 2.79392 1.18416
2349 1 -11.0604 25.0541 17.113 0.163154 1.45974 0.432054
2379 1 -20.4069 12.2079 10.7476 -2.41245 0.547627 0.326528
2413 1 -7.3622 23.1388 2.14994 4.08148 2.1299 2.26075
2199 1 -17.7143 12.2656 1.27348 -1.454 0.131011 3.42771
4202 1 -1.18356 40.9149 1.98131 -1.45545 0.488576 -5.73667
2435 1 -16.7057 24.7195 10.1488 -1.14674 -1.07899 5.216
2439 1 -15.2874 21.1996 8.7155 2.7949 1.97731 -1.07825
2980 1 -6.42493 11.9157 3.10565 -0.490388 -1.84082 4.32124
2462 1 -13.7533 25.37 2.72515 -1.20955 0.370966 -5.36595
2488 1 -10.4947 19.6327 19.0114 -3.46402 5.19874 0.956053
2490 1 -13.3463 25.5346 18.9001 -2.39831 0.726251 1.11039
2505 1 -11.2873 16.9875 21.5523 5.51798 -1.58075 -2.27739
2519 1 -21.8632 21.1914 14.468 1.24013 2.12104 -0.433453
1005 1 -16.9647 17.8961 1.13932 -4.22544 2.34093 -0.662779
2581 1 -6.85792 17.2087 21.057 -2.95468 2.90994 -0.834126
2586 1 -14.5499 15.6711 11.5879 -0.349265 -0.0424322 -0.191977
2620 1 -8.47657 18.1374 5.61024 3.84855 -1.99895 -0.508724
2660 1 -14.0492 25.5461 13.7974 -1.9377 -5.10652 -0.0876793
2664 1 -15.7378 17.2832 22.6873 -0.907292 0.764616 -1.96994
4189 1 -2.41696 34.5453 5.7072 -1.9852 2.88767 0.875264
2710 1 -6.59604 14.3925 17.1365 -1.21527 -2.40983 2.44348
2723 1 -8.76622 17.6713 14.9165 1.00774 -0.657941 -0.764598
2742 1 -17.1291 15.7004 5.36121 -3.78244 2.80463 -0.780145
2745 1 -14.45 22.3113 2.87175 -2.5611 -0.454771 -0.32058
2769 1 -15.6603 16.7172 16.0404 -5.03799 -1.68414 -0.223823
2777 1 -15.2473 17.9698 3.30813 0.0704292 0.354837 0.742341
2778 1 -22.8413 16.8466 20.0984 1.3152 5.55096 0.153731
2788 1 -20.9744 16.1479 13.3832 -1.8908 -2.04521 3.08256
2809 1 -12.4188 19.8011 16.7741 -1.91688 -0.0611397 -0.4849
4162 1 -1.00419 31.9507 9.22701 -2.65111 0.341044 -1.80817
2820 1 -14.21 23.9284 8.95692 -2.67516 1.82133 -1.61365
2851 1 -6.89637 23.7815 19.1501 -1.72157 0.666916 1.68797
2853 1 -3.69493 24.1002 21.2191 -0.529914 0.873691 -0.0520588
4118 1 -8.69339 47.0608 7.86276 -4.53662 1.28183 -0.13973
388 1 -17.5638 46.8907 23.4604 2.81023 2.1049 -3.38945
4178 1 -1.40901 36.8244 1.95887 7.466 -1.26658 1.53474
2895 1 -18.7237 19.4197 19.7977 4.73007 1.43067 -1.38399
2905 1 -17.9029 21.9735 20.8475 0.240879 -3.26443 2.81491
2921 1 -19.1414 23.3428 9.94758 4.20013 -0.836133 2.12031
2939 1 -12.9471 22.65 5.2672 -2.53858 1.21606 0.817771
2942 1 -22.1407 14.0454 20.4098 -5.28856 0.182743 -0.493253
2950 1 -19.7874 16.2578 6.82524 -1.15486 1.92796 -1.54274
2971 1 -4.29443 20.1886 11.3317 -3.0948 -2.35782 4.14566
2973 1 -10.5287 16.7575 18.7406 1.02213 -1.23079 -3.14508
2117 1 -24.1512 23.4625 6.88721 -3.75086 1.46912 3.96787
3530 1 -11.4624 15.7557 5.45778 2.29586 2.92858 1.89688
3002 1 -21.5597 16.4825 17.3091 1.39787 0.220308 -2.30834
4225 1 -2.38359 43.2817 2.74858 2.15119 -3.28071 -4.70478
3619 1 -4.62356 21.8136 9.13604 2.19471 -1.30784 0.416286
4185 1 -2.02638 34.1846 10.5984 3.53386 -2.54146 -3.40754
3042 1 -10.4581 20.1818 14.6204 -4.31986 0.165073 -1.38852
897 1 -12.7617 46.5732 10.433 3.39432 3.63295 -0.34644
3076 1 -11.9896 22.0872 10.3029 -1.65038 3.89109 -1.6082
3122 1 -13.2199 23.7878 21.3491 1.92102 -0.871283 -0.125925
395 1 -9.95994 44.96 17.9307 2.53621 5.17768 0.192374
3144 1 -3.43081 15.1735 2.08092 -0.783282 -2.18713 0.654594
2849 1 -21.7984 46.5629 14.9726 7.58657 -3.04148 0.485027
4201 1 -2.49594 38.9083 3.26437 2.12032 -0.250122 1.67693
3186 1 -6.17157 19.8698 7.79924 0.789245 0.913599 1.30545
3193 1 -21.0853 25.1172 0.560872 1.12198 1.0297 2.22086
3211 1 -6.8377 22.462 15.2697 3.11951 2.49239 -2.84202
3214 1 -6.31912 17.3179 16.6573 -4.51806 0.0260111 -0.347187
3232 1 -22.7609 15.486 6.55912 1.95057 2.90238 0.380433
3233 1 -1.72547 16.8324 7.47566 -1.87153 -2.39489 0.672005
3245 1 -7.93932 16.8267 9.05666 -0.82538 2.1008 -1.98951
3286 1 -18.378 19.9477 4.39176 2.11336 4.71548 0.00579139
3290 1 -14.7355 21.7578 15.7387 2.22417 0.0288154 0.974319
3292 1 -22.7101 21.8904 3.94008 1.70299 3.35323 1.84187
2634 1 -3.97082 11.5764 23.993 -0.892676 3.51097 -1.39405
3297 1 -18.0664 21.3251 23.7632 1.37375 1.08153 -2.51934
3323 1 -5.29287 20.2275 16.5287 0.505577 3.03344 -6.99716
3325 1 -11.6236 18.6346 5.24685 -4.42004 3.94022 2.05681
244 1 -21.516 12.8577 22.8924 0.944701 -5.23777 3.92958
3356 1 -10.3698 21.5197 4.58042 4.44926 -5.45335 -0.56342
3358 1 -1.70291 21.2989 12.2336 -0.281013 1.51799 -0.549942
3359 1 -7.45821 22.3788 12.2669 -1.42611 2.8497 -4.87757
3361 1 -5.32742 23.7514 10.9098 4.32268 -0.686014 -0.718592
350 1 -23.678 17.4436 22.9578 -0.819785 2.18024 1.14633
3428 1 -5.26977 12.6384 12.9653 2.38353 2.43356 3.70244
3444 1 -20.0166 13.8941 2.36302 -3.00263 -1.572 -1.75949
1984 1 -1.28519 19.3886 19.4793 3.24938 -0.707722 -0.704611
3455 1 -18.2992 14.7355 19.4414 3.4416 4.16938 -3.9352
3459 1 -3.10765 21.4886 18.3535 -0.722797 2.83034 2.30752
4213 1 -2.22314 38.6592 5.98015 -0.354463 -2.37469 -3.39554
26 1 -1.75715 17.836 10.7278 -5.13817 7.47704 1.34826
3517 1 -7.8377 18.7712 18.831 -2.54986 -1.27701 1.04795
4237 1 -2.20009 43.3465 5.72797 2.85096 0.196132 3.501
1932 1 -4.16444 18.4842 6.45244 -3.96152 0.628325 -7.30427
216 1 -18.0751 46.031 6.40671 -0.979624 -3.7313 -1.35552
3550 1 -15.9713 18.2901 9.7865 3.59212 -6.12513 -3.3413
3561 1 -20.4457 19.0177 5.91114 -1.4898 0.521413 1.64032
3583 1 -18.3957 18.7141 8.08298 -0.116859 2.52711 -1.669
3597 1 -3.1194 12.8528 6.64169 0.828478 0.808214 -2.35809
1094 1 -19.8557 15.3813 21.6268 -0.853477 -0.726335 0.706574
3627 1 -5.57357 17.8815 10.0854 -0.957877 4.58197 1.14513
902 1 -11.0341 15.5574 0.608697 -3.23777 -0.130187 -1.59386
3654 1 -19.3189 23.8445 12.7033 -2.71055 -1.98563 1.5041
3677 1 -7.42496 11.548 14.6727 -3.16799 0.547548 -2.49565
3709 1 -20.1137 16.0215 9.74804 -0.586151 1.42192 3.37977
1629 1 -5.61085 46.4847 17.7988 -0.592293 0.170648 -0.0238186
2811 1 -15.4885 15.1382 3.04454 3.69299 0.228897 -1.73727
1148 1 -9.87997 11.8055 8.07109 -0.712802 -0.272003 0.711633
3766 1 -11.2353 22.5375 13.0496 -6.94591 -2.70553 -3.03386
3771 1 -16.1483 18.1042 19.9701 -1.40343 2.50807 2.40845
4186 1 -0.793638 36.4124 9.61343 -1.58955 2.27759 1.10933
3793 1 -17.0427 21.5166 2.44379 -1.38828 -1.30093 -3.44631
2575 1 -1.11915 18.3769 3.83645 -0.972543 3.89629 -0.441484
3846 1 -22.2798 22.6901 19.832 -1.09996 3.17877 2.55526
3852 1 -8.72312 20.8397 16.7747 -1.21323 -1.17715 0.367117
3889 1 -15.8045 15.4526 18.4552 -3.79383 1.45878 3.24016
3892 1 -13.9081 24.9954 6.62786 0.468114 -3.69705 -0.822687
749 1 -0.602973 15.7881 4.93733 -2.45976 -1.10415 -2.5944
3946 1 -3.63764 15.6192 9.6459 -6.2914 -3.13801 0.749861
3955 1 -9.34018 20.7523 10.6101 -1.73279 2.59896 0.0867842
3966 1 -22.1211 19.6818 10.2654 -3.34626 2.63755 -0.419357
3121 1 -1.05134 47.0004 17.1244 -0.742321 -1.39897 5.17609
3976 1 -4.78389 13.9822 4.19592 -3.54976 2.27664 -2.50238
3985 1 -13.6698 20.1775 6.4036 4.73776 2.455 2.45932
3988 1 -22.9391 19.8509 20.2404 1.57479 2.39211 3.0953
3999 1 -6.16136 20.1954 13.5792 2.68103 -1.22751 -1.51421
4009 1 -11.061 25.7443 3.59769 2.06219 -1.4599 -0.422709
4010 1 -9.74325 27.8403 2.57709 -2.11636 -0.408018 -3.32989
4011 1 -7.01651 28.0014 3.21448 -4.18184 -0.107568 2.74237
4012 1 -5.8594 25.6079 2.51303 2.44159 3.60762 1.85878
4017 1 -10.2434 25.6792 10.7862 1.03399 -2.08284 -2.72985
4018 1 -9.06409 28.1114 9.69702 3.52715 -2.52394 -4.88418
4019 1 -6.5386 28.2249 10.587 1.91342 -0.357989 -0.28795
4020 1 -4.99137 26.0846 9.389 1.82315 4.60017 -0.331278
4021 1 -11.208 26.0545 6.33408 3.72209 -0.486284 0.120043
4022 1 -9.3048 28.1053 7.14654 -1.29374 4.40779 -4.70862
4023 1 -6.78143 28.2249 6.00812 3.10941 8.94231 0.921566
4024 1 -5.90293 25.6391 6.69626 -1.59352 1.24375 3.42142
4033 1 -10.7693 30.1613 3.91572 2.98123 1.07895 3.77722
4034 1 -9.49317 32.2242 2.59138 4.19615 0.48569 0.968207
4035 1 -6.72274 32.2007 3.25352 4.13791 -1.82806 -2.63771
4036 1 -5.72719 30.0013 2.24293 3.30287 5.6316 -0.281104
4041 1 -9.73664 30.2693 11.4346 0.0505838 -2.79988 -1.6429
4042 1 -8.9373 32.6982 10.0566 3.47415 -0.430781 4.21957
4043 1 -6.29564 32.3286 10.5565 3.56418 -3.56178 -2.82959
4044 1 -5.03546 30.0606 9.47854 2.09221 -0.0289651 4.45807
4045 1 -10.5974 30.4717 6.58791 -0.561196 -1.69863 1.95434
4046 1 -9.01562 32.5646 7.58305 2.28274 8.44908 3.67592
4047 1 -6.75396 32.6317 5.97067 8.6581 -0.103082 -0.169197
4048 1 -5.32921 30.2293 6.75711 -2.87288 -2.83075 -5.88612
4057 1 -10.2989 34.6745 3.79162 2.34963 -4.55691 0.16231
4058 1 -9.03272 36.914 2.75899 -1.3916 -3.11087 -0.510917
4059 1 -6.3651 36.5183 3.80894 0.984669 -2.87385 -0.185056
4060 1 -5.44225 34.4969 2.22581 1.7936 -1.98491 2.46186
4065 1 -10.4847 34.8248 10.8422 -0.457234 -5.53009 -2.35752
4066 1 -8.63899 36.8914 10.2282 -2.48351 -0.226162 1.39306
4067 1 -5.97338 36.7351 10.8367 0.676937 0.966634 1.73298
4068 1 -4.65784 34.4361 9.92903 3.31802 0.778407 3.43886
4069 1 -10.3985 34.6181 6.4118 3.86622 -2.47867 -0.243158
4070 1 -9.00011 36.9264 7.51074 -1.59365 1.18489 1.46862
4071 1 -6.40795 36.8549 6.59295 1.48355 1.92675 2.87086
4072 1 -4.90321 34.4206 7.074 -2.05171 0.532673 2.87808
4081 1 -9.74956 39.3461 4.17194 0.515462 -2.20672 -2.02359
4082 1 -9.36272 41.6665 2.55246 -2.77393 1.56693 2.60555
4083 1 -6.60738 41.1326 3.32735 -1.61229 -8.10823 1.51221
4084 1 -5.34909 38.7903 2.5062 0.597517 0.225379 0.153892
4089 1 -10.0266 39.4018 9.96607 2.11176 6.2678 2.64311
4090 1 -8.42608 41.645 10.2359 -5.22446 3.66904 -0.758688
4091 1 -5.66428 41.4947 10.781 -1.3155 -2.51639 2.49415
4092 1 -4.68623 39.1852 9.76094 2.5822 1.39107 -3.65431
4093 1 -9.99961 39.4232 7.04845 -4.35383 -0.763806 1.90604
4094 1 -8.67652 41.8285 7.46469 3.50987 0.19391 -0.531605
4095 1 -6.19579 41.2303 6.16397 -3.27167 -0.165309 0.411137
4096 1 -4.85161 39.0423 7.12492 -3.22172 -3.82775 3.7987
4105 1 -9.80012 43.7601 4.0113 -1.83102 -4.65399 1.15966
4106 1 -8.91934 46.0143 2.82187 0.28415 0.311105 -2.04302
4107 1 -6.40197 45.5528 3.59789 1.25942 2.58796 1.64451
4108 1 -5.23982 43.2699 2.42482 -2.03208 2.27243 -0.948393
4113 1 -9.44518 44.2338 10.9452 -0.155787 -1.77275 2.29717
337 1 -20.9228 21.4306 1.93813 2.19075 1.93391 4.13663
4238 1 -0.770264 45.8181 6.7183 2.79234 3.48846 3.02346
4116 1 -4.42399 43.6601 9.78048 -6.12919 2.58778 5.21768
4117 1 -9.01615 44.1483 6.5531 -0.579246 -0.187659 2.05156
3735 1 -10.2417 19.4254 1.57473 -0.708426 4.06897 -4.21847
3970 1 -7.40437 20.8438 23.1207 3.93097 1.07568 -3.04015
4120 1 -4.64652 43.2542 6.94646 0.264378 4.58615 -5.12315
4129 1 -3.18999 25.8455 3.50499 0.464522 -0.00580257 -4.47549
4130 1 -2.00793 27.7084 1.89916 3.66113 3.56326 -0.693799
4137 1 -2.4905 25.9827 8.24626 -1.70139 -0.231096 2.50985
4226 1 -1.2 45.8208 1.68014 -2.77468 -0.767259 0.462575
4141 1 -4.04447 23.6279 5.28745 -1.02704 -3.10889 2.91163
997 1 -23.2768 23.157 22.3963 3.08563 5.30342 -4.12362
4153 1 -2.95791 30.0973 2.78916 1.07448 0.640234 -0.30604
4154 1 -1.69231 32.2974 1.64112 -0.37983 -2.38661 -6.34323
4161 1 -2.30311 29.6387 10.0212 1.67966 0.729431 -2.54299
3460 1 -2.12223 19.4062 16.6024 0.505714 3.49767 2.02373
4165 1 -2.87741 29.8687 5.68683 -0.195148 -3.06808 0.340437
2701 1 -23.4823 23.7913 1.6358 -0.0381713 0.186742 1.25948
4177 1 -2.63134 34.7125 3.07745 0.879129 -0.00733559 -1.67808
1484 1 -7.25645 12.3315 7.09688 1.83508 2.47951 0.521878
4138 1 -1.0328 26.8591 10.275 -1.26669 0.434303 -0.104541
998 1 -1.95661 12.2892 10.2753 0.110155 1.95292 -3.51386
3831 1 -3.90689 20.4174 1.01005 -1.39748 1.69788 -2.81556
3672 1 -13.4619 12.3502 11.6641 0.362427 -0.555487 -2.05438
867 1 -4.43662 13.3533 20.018 6.87839 -0.935534 1.35661
2011 1 -2.45872 12.8715 17.8829 4.54436 0.825851 0.348109
3160 1 -11.3593 46.2475 23.1697 6.18669 0.520338 2.59755
1723 1 -24.2847 17.5486 5.54906 -0.836914 0.0162765 0.63707
3337 1 -14.4826 13.9057 9.37355 -6.22314 -1.56996 0.385937
2424 1 -23.0192 16.9069 9.07478 4.71924 -1.08364 -2.37279
4190 1 -0.863059 36.443 6.81904 -3.00168 -1.98925 -1.0155
3182 1 -17.6164 46.8263 20.5034 -2.70941 3.25973 -0.142002
1906 1 -20.6096 46.2789 12.595 -1.21955 -3.54651 -1.73748
3307 1 -17.7103 12.2029 20.776 5.72824 1.72666 1.47573
1769 1 -23.0605 15.5601 15.1466 -3.88922 -0.0258681 -0.402309
1481 1 -8.35584 16.7709 0.0938617 0.316882 -0.680328 2.67078
2272 1 -0.638809 14.6373 9.3507 0.544764 1.3231 -2.17299
743 1 -23.9015 19.5016 3.40115 1.0723 1.38285 3.20062
3669 1 -1.8769 21.9584 4.73649 0.572545 3.35072 2.11481
3757 1 -1.5269 21.5508 0.457369 2.80981 -3.58318 1.27107
3890 1 -2.61833 18.8504 13.524 2.94238 0.440588 -0.848626
3293 1 -8.42656 13.7512 23.1112 5.71452 5.77662 -1.7166
765 1 -24.0559 11.8926 8.21557 3.34028 -0.588952 -1.5849
3582 1 -15.1062 46.1008 13.9723 2.73073 -1.97132 -4.97916
4210 1 -0.620337 41.352 9.41863 -0.548739 2.89382 -4.47666
3180 1 -1.43049 13.4432 3.06612 -2.05244 0.807772 3.77672
456 1 -5.25071 16.154 23.1187 2.38838 -3.97807 -4.11127
3150 1 -20.935 11.8638 4.28941 1.41314 2.44637 -2.25227
261 1 -1.88258 46.8732 11.3903 -0.357582 0.14178 0.300747
1864 1 -7.2369 12.3821 20.8402 -4.9253 0.451581 -1.10354
464 1 -13.3755 46.5083 5.6369 -2.33835 0.959878 1.27657
3928 1 -17.9059 15.5944 23.4427 -4.04062 0.203475 0.432421
3476 1 -0.513687 15.2757 12.1644 -1.56324 -3.67655 0.991592
228 1 -13.0139 20.1512 0.953687 -4.63831 -0.783249 0.721539
911 1 -1.237 16.1641 23.165 -2.42788 6.67375 1.64694
93 1 -17.3294 46.4516 17.7789 -1.9721 3.27124 -1.44186
1270 1 -23.985 13.3609 13.3355 6.15074 5.83828 2.58967
869 1 -1.34793 19.5609 6.49608 3.68389 3.04443 -0.845377
2864 1 -12.854 12.2683 17.4132 2.22235 -2.73122 -3.47029
3056 1 -23.2591 11.8139 10.8115 -2.06845 -2.64122 1.56626
165 1 -15.9721 11.7375 15.4261 -1.37626 0.889152 -3.07275
1998 1 -14.9872 11.7927 0.129684 -1.45473 4.62135 0.588156
1917 1 -23.7406 23.9393 17.7166 2.6572 2.27116 2.08845
1771 1 -0.790211 25.0235 12.4018 -0.208591 -2.40681 -1.77153
2512 1 -9.55016 11.3104 12.8123 1.34443 -0.497075 -5.11938
2754 1 -14.4957 24.7925 -0.0269187 -5.24349 2.33265 -2.44507
4038 1 -9.87661 32.0894 0.000928823 -2.63648 2.27974 -2.55263
1113 1 -20.6189 19.4876 23.9846 0.827925 4.06614 3.51058
4 1 3.24141 -1.39192 -5.35894 1.16917 1.97801 1.02608
12 1 19.2901 -3.63125 -22.8961 -1.59089 0.791464 1.12764
14 1 11.1806 5.0334 -5.8917 -2.67665 -3.57369 -0.932875
30 1 21.2051 -1.6014 -22.3405 4.22276 1.48825 1.00042
31 1 6.95788 -15.6199 -18.0961 3.92324 0.779125 -2.57958
33 1 1.08086 4.32306 -11.8209 4.56279 -0.57552 1.06315
3 1 7.43353 -8.82631 -20.9591 2.86221 -0.545057 5.3215
41 1 6.84996 -6.23571 -14.7609 0.778185 -0.266627 2.32275
48 1 7.12377 3.95253 -7.33183 -0.395893 6.18585 -1.55099
52 1 13.3135 3.18585 -15.7277 -2.33274 2.40986 2.43641
58 1 1.19303 -18.6587 -3.91254 -1.23469 -2.62711 0.489522
831 1 4.05908 -14.6759 -22.9205 0.815647 -6.56166 -3.50161
2074 1 0.999076 10.8111 -13.7338 0.640459 3.00131 6.78294
722 1 9.12109 -24.1098 -12.4103 0.0802794 0.640124 -1.57147
2337 1 9.95229 10.4999 -1.8688 1.28375 2.53646 -1.49913
3207 1 0.694516 -6.43058 -18.2953 -4.01713 -5.24626 1.03073
95 1 6.02598 -0.0244996 -14.3375 -4.00545 -3.79952 3.67946
99 1 14.4128 -22.5686 -7.47757 0.884929 -1.00316 0.385338
101 1 -0.236621 -18.8293 -9.13523 -0.334737 -1.51439 -0.153901
110 1 11.1574 -12.3861 -8.6838 -3.78605 0.0361653 3.74902
111 1 20.9674 -2.99427 -12.6938 1.5626 0.984377 1.88026
116 1 4.14828 -18.8463 -14.7427 -0.101422 2.08051 1.26581
118 1 2.15031 -18.8611 -10.7097 -0.49512 -2.51885 1.04373
657 1 3.66188 -1.87003 -13.5414 -0.235362 -0.491954 -0.715882
3333 1 4.35825 -7.61751 -22.7748 -0.663715 -0.32544 -0.498685
131 1 4.54989 -8.69514 -20.1983 -1.33644 -0.623057 -1.50682
299 1 6.225 -24.4746 -11.6289 -4.79838 1.62744 1.55123
153 1 8.74785 -16.1041 -3.73368 -2.39935 -1.10226 -1.22056
155 1 21.693 -22.6157 -20.8343 -0.876607 -0.518316 -4.56028
157 1 11.7088 -14.5684 -14.2319 0.582046 3.42886 4.16301
161 1 16.5102 2.31933 -12.6392 3.1813 -2.00615 -3.39778
184 1 5.20557 -23.1201 -20.9885 -2.4464 -0.338878 4.2291
2514 1 22.6304 10.1004 -19.7839 0.674164 -0.0148764 -0.511949
1611 1 6.4021 11.1962 -4.3845 -1.50924 -2.73472 -4.50596
192 1 8.47346 4.64563 -4.56815 0.701111 -1.26213 4.02674
195 1 7.32347 0.838395 -6.81604 -3.48341 0.322185 -0.207556
200 1 15.1094 7.13141 -14.8263 -1.04393 3.56109 3.00491
1517 1 22.1563 -15.0426 -10.2315 -0.687556 -3.81366 1.14732
214 1 15.2078 -5.0704 -20.4689 -4.54897 0.832842 -2.00347
2302 1 15.3137 9.91888 -14.3868 -1.0825 0.0757751 -0.482561
225 1 2.73391 -14.845 -8.03279 1.72604 -3.37879 -0.110574
188 1 8.08498 -24.3273 -2.14939 1.40109 -3.03964 -4.49061
398 1 22.6891 -22.5075 -7.69863 -0.915321 2.33467 0.349135
254 1 8.02735 -10.6542 -10.6249 2.5429 -4.56666 -0.841064
259 1 16.4179 -14.1996 -20.3978 -1.80244 -4.70976 3.59298
260 1 10.4903 4.94842 -0.901775 -1.75958 -2.25634 4.28122
265 1 12.8679 -17.4945 -5.85087 -0.832924 -2.59723 0.43791
3012 1 1.96991 -24.4123 -18.4188 4.21473 -0.308995 2.68184
353 1 16.3714 -24.2342 -16.791 0.344322 1.15647 -2.98899
277 1 13.7067 -13.3487 -20.136 6.02021 -1.54356 -5.9479
287 1 3.7684 -9.53148 -9.24012 -1.52051 -0.0391344 1.05398
297 1 20.8581 -10.692 -9.23935 -4.26693 2.86765 4.85928
298 1 13.8509 -22.0762 -21.7558 -7.45862 1.24641 -1.79212
1962 1 -0.227869 -13.2909 -4.68169 2.54546 -0.859117 1.36227
2100 1 0.15722 -4.14143 -22.7855 -1.94602 1.76845 0.694367
332 1 9.59273 1.53409 -8.26658 -1.93342 -3.92529 -1.70139
333 1 9.23172 -9.0266 -14.8542 0.708431 -1.13841 1.45109
334 1 4.27506 -21.7405 -2.81695 -4.13499 0.659892 3.53541
344 1 8.69286 -14.399 -12.0751 2.43962 -3.34742 3.58114
1970 1 21.5468 -6.23125 -2.8696 2.40886 0.462507 -1.47733
369 1 11.8648 5.29186 -13.7025 1.528 -2.46103 2.92866
370 1 5.71287 -12.6329 -20.2803 0.529478 -0.465647 1.12956
378 1 19.4921 -15.2444 -4.05253 -1.89622 4.0233 4.10451
386 1 17.6554 0.60792 -22.3865 4.58212 0.388156 0.926348
401 1 19.5861 -18.0583 -7.66936 -6.69722 -0.105465 0.318406
3066 1 22.7199 -1.511 -0.864837 -2.24345 0.997917 3.20034
409 1 1.83747 -0.0600473 -7.42268 -1.8832 3.80673 -4.15992
3813 1 12.6874 3.15147 -0.241904 3.39843 0.385698 0.39189
424 1 3.57212 -4.38618 -2.57557 5.22887 2.10107 -2.10465
431 1 10.8009 -6.97347 -17.492 -1.85969 -0.539182 2.49837
441 1 15.8108 1.14648 -2.13834 2.22195 -0.667903 -2.97446
445 1 19.276 -8.11014 -11.9923 -2.52829 3.06749 0.31304
446 1 21.5038 -13.2317 -8.23599 0.947262 -0.313252 -1.07961
1607 1 12.2466 -23.9996 -14.7404 0.107116 4.60352 3.48305
2420 1 0.121784 -7.95404 -9.36988 4.14019 2.97811 1.61305
459 1 2.96981 5.97244 -13.1034 -0.854881 -4.36583 6.89172
1557 1 8.5627 -24.3424 -16.9275 1.95299 2.8975 2.92707
461 1 2.90628 4.14393 -22.4164 1.56262 0.691588 2.85159
2832 1 23.009 -18.4263 -3.98724 -0.965724 3.79337 -2.40292
474 1 5.74921 -4.06872 -13.1346 2.57962 -4.71443 -0.800737
1378 1 9.20707 -8.37813 -0.165128 -3.33795 2.75024 -3.36221
2814 1 22.2901 -6.19668 -5.73916 1.72914 2.18808 -6.60229
485 1 20.1858 -22.4062 -18.4625 5.00948 -0.943864 0.875979
486 1 13.0798 0.240309 -0.884616 1.46387 -3.32103 -3.22713
490 1 14.5901 -16.167 -12.5631 4.87729 0.0534339 -7.96929
493 1 13.9562 -1.47461 -14.0416 -2.51803 -7.28148 6.83162
496 1 6.9107 7.74619 -14.1199 -5.47737 2.32803 2.45701
3322 1 13.9731 -8.68925 -23.3672 3.21504 -1.13477 -3.8019
503 1 8.31155 0.688328 -12.8823 -3.40634 -1.66764 4.28441
3453 1 14.1876 9.90376 -20.4213 0.499633 -1.20083 1.75001
534 1 18.7492 8.32753 -10.7612 1.09963 -0.119523 -2.02511
2384 1 7.76614 -11.6064 -22.4417 1.68053 -0.355993 4.65775
2473 1 13.8057 9.38778 -6.24504 2.32584 -2.81163 -1.06747
543 1 17.0393 -15.9446 -18.403 2.33243 -2.76465 2.13389
547 1 15.9749 -15.1063 -22.9573 0.169118 -2.00941 -0.307363
1571 1 -0.296964 -11.6889 -0.370994 -1.97125 -0.704206 -1.69441
551 1 10.8119 5.86135 -17.906 -5.05182 -0.373761 -1.26126
2713 1 22.7979 2.41224 -7.32617 -4.00836 0.239497 3.58715
3006 1 22.2614 6.94209 -20.3858 1.9717 -0.56278 1.99054
1791 1 2.70707 -6.24607 -20.4038 -2.26905 -4.40157 -2.42148
562 1 7.0796 8.58641 -21.2093 -2.40471 -7.82915 0.788216
574 1 11.8991 -21.6085 -5.21101 0.805833 1.24166 0.915452
579 1 2.62589 -21.6649 -10.584 0.643818 -2.30178 -5.39291
584 1 15.0741 5.43024 -3.92034 0.109556 -0.228378 2.79328
1154 1 1.16819 10.5538 -21.1633 0.475626 0.256935 -0.0128943
2058 1 21.0832 10.7416 -14.5813 -3.96871 -2.12616 -1.86479
608 1 5.58883 10.0731 -10.0522 0.817844 -4.44372 1.29718
613 1 12.8715 9.19383 -17.9773 -3.79583 -1.38703 1.90594
620 1 23.0258 -11.1369 -11.3892 -4.03239 2.33805 1.75418
2080 1 22.0135 -23.8269 -17.0082 -1.03482 1.52053 -1.35835
1376 1 6.29057 11.0676 -7.23383 -2.51941 0.697096 -4.0173
647 1 4.37325 6.02716 -2.77433 -3.13344 2.27078 -1.42066
648 1 19.1883 -18.0119 -22.8772 0.756832 2.48895 -1.63359
1695 1 16.6911 -24.3168 -11.9109 0.160139 -0.121113 1.78987
1126 1 0.271173 -13.33 -14.7741 -1.54092 -1.15863 -3.24501
2004 1 0.784237 -22.4942 -22.6028 -1.88956 0.491023 -1.10925
684 1 10.4208 -21.6819 -11.3638 -2.24982 0.964532 1.21853
695 1 6.86599 -13.5535 -7.48118 1.06738 -3.3028 2.01088
698 1 21.9742 -11.1096 -5.03223 -6.89187 1.9627 1.85453
2065 1 15.0344 -17.7917 -23.9123 0.0507395 0.643178 0.906335
708 1 10.8206 -3.42127 -20.0387 3.64913 -0.644854 -3.22412
714 1 19.6193 -6.20007 -10.0019 -1.77016 -3.04611 -4.56961
720 1 3.67977 -2.38483 -20.3683 2.7411 -3.17258 -1.16933
136 1 2.20106 6.30224 -6.32233 -0.758928 -1.9269 4.00381
727 1 9.63778 -3.41575 -14.6919 -0.399918 -3.02362 -0.58632
730 1 12.1809 -20.3581 -18.3133 1.72775 -0.869694 -2.07447
3112 1 1.73069 -13.9658 -18.202 0.255861 0.794921 4.95099
744 1 10.1752 -10.8665 -12.736 -1.05555 4.00509 -1.75214
750 1 17.937 -3.62802 -10.1461 -2.94402 -0.319775 -1.19405
3872 1 20.4062 -24.231 -8.54172 -3.54848 1.90393 0.674392
775 1 22.5799 -19.1562 -11.0321 -3.23345 -1.3441 3.32219
777 1 22.1162 -5.67133 -11.7779 -5.60302 -1.03053 -1.14106
778 1 1.24896 -16.9274 -17.6677 2.40189 1.31655 -0.571587
779 1 5.19709 4.1833 -9.42269 0.957437 1.79271 -2.78028
782 1 21.8171 -9.10031 -13.3026 2.50919 2.43309 -2.25098
803 1 18.1721 -10.8988 -7.71345 0.177745 1.87363 0.347184
804 1 8.40726 -19.7369 -11.6868 -2.20887 -0.622515 -0.0462498
812 1 4.62036 -13.4203 -10.6755 0.501273 1.9836 1.94057
824 1 2.16955 -19.3555 -6.51335 -0.234515 -3.32222 -6.1318
1186 1 6.24023 -7.87261 -0.212517 -0.442115 -0.515121 4.25255
835 1 2.66099 8.06043 -20.8692 1.40409 -0.740096 1.56331
844 1 16.1959 -21.1495 -20.3651 2.1895 4.21414 3.84936
845 1 16.5586 8.61641 -2.27014 -0.501548 -1.82279 -1.2846
996 1 20.0287 10.0721 -17.5344 -4.51681 2.15938 0.952406
849 1 20.1315 -15.0428 -12.0922 -0.186081 -1.14226 1.87499
2964 1 0.731972 -20.6765 -20.203 -0.1743 1.338 3.60417
2963 1 22.8341 10.616 -4.91739 -2.42973 -2.66856 2.16634
552 1 2.84115 -17.0824 -0.450282 4.94201 -1.72256 1.43587
860 1 13.1423 -5.68794 -16.6196 -2.6734 -0.0836392 2.66385
144 1 22.5249 -10.0283 -17.7891 -1.94043 0.468925 -1.0866
876 1 10.9885 -16.2979 -9.81839 -1.95664 -0.214684 9.76606
879 1 16.9392 9.16525 -20.9433 5.9053 -1.26047 -4.18984
884 1 19.2577 -19.9454 -17.0173 2.62186 -0.40339 4.05881
892 1 4.42359 -12.2108 -8.03494 -0.285956 3.3256 1.11476
2469 1 11.4819 -22.7227 -23.3353 0.777891 -0.815835 -2.5391
915 1 18.3995 -4.31852 -13.0323 0.756172 -0.549637 4.60535
2569 1 18.1 -18.6638 -13.7151 2.43633 -3.03704 -0.634461
921 1 9.52997 -10.3861 -19.7423 0.625686 -3.59391 2.37688
931 1 17.6622 -0.164059 -7.1531 3.84454 -1.32228 -1.63845
2813 1 0.484257 -9.4437 -18.4299 5.1337 2.61007 1.00279
940 1 20.689 0.760304 -9.75568 7.00502 -1.35891 -1.41147
952 1 11.4614 -13.539 -11.3646 0.861831 1.91763 -0.305697
954 1 16.2048 9.13068 -8.23407 -0.791123 -4.79842 4.88169
964 1 12.6125 -16.3545 -22.5194 8.5107 -6.84946 -1.13814
967 1 17.6098 -2.13628 -14.9822 -4.77178 -0.454603 4.00077
981 1 6.70049 -1.39683 -2.78063 -1.22589 -0.889449 0.697095
989 1 8.72285 3.76122 -9.83413 4.63793 1.31736 -1.30475
1772 1 11.9588 -21.9559 -0.452638 -2.01068 -2.74184 3.57071
124 1 23.0951 -20.1493 -15.549 -5.88676 1.80333 3.48156
3587 1 21.2073 -16.2566 -16.4533 -0.850398 2.55522 -0.679978
3856 1 13.1187 -19.3102 -3.79739 3.08762 -3.86113 -0.362112
1021 1 20.4434 -18.6865 -2.96141 -0.942843 -3.59262 -1.99603
1025 1 6.66079 6.05037 -20.5513 4.24248 2.34925 -0.139186
411 1 -0.275141 -4.96312 -9.33809 1.35662 -1.59515 -1.41411
3790 1 4.71 -19.6083 -4.9072 -2.65107 2.03443 0.38822
767 1 2.12321 -13.0711 -1.31637 2.8581 -2.12343 0.498904
1053 1 4.86728 9.52015 -20.1336 1.51509 -1.11194 1.21346
1058 1 2.30165 -2.29762 -10.968 1.49021 1.07442 0.930502
550 1 1.17274 -23.2567 -13.78 -0.354675 -1.93572 0.439632
1061 1 8.31866 10.3483 -13.1971 2.70237 0.856355 -0.515894
1066 1 12.7085 -5.10472 -21.7806 0.0595449 2.99641 -1.18694
1072 1 15.6785 8.01762 -17.6609 2.22809 1.72499 2.90597
1647 1 15.5248 10.9643 -17.2102 5.802 0.0538632 -0.30858
1309 1 1.06068 -12.2342 -12.0226 4.30584 -3.2327 3.44477
1077 1 14.1695 -9.0253 -7.18674 0.93244 0.17935 -0.873655
1087 1 12.4515 0.749177 -18.1979 -0.555488 -2.26197 3.34734
1229 1 18.1798 -14.514 -1.52831 1.9519 1.53888 5.85746
1118 1 21.5542 0.51882 -14.4627 1.23667 2.39806 1.62423
1121 1 12.9788 -2.08709 -18.7428 -3.52159 -1.22955 -2.17429
1123 1 16.2033 -4.15987 -5.65525 2.13693 -1.24817 2.13137
1131 1 18.9619 -8.46287 -4.86202 -1.00675 -4.78573 2.82315
1140 1 14.6423 -7.06057 -18.5483 -0.668167 0.966925 2.6946
1143 1 2.04134 -5.73833 -15.7815 -1.40172 -5.6146 1.4215
1144 1 14.7307 4.52905 -13.3424 -2.20528 -1.31724 -1.39119
77 1 13.2567 -22.8295 -2.92376 -3.51897 4.51354 -2.54721
1157 1 2.78334 2.79189 -8.73729 -0.393755 -1.1437 2.09602
1369 1 22.0843 2.25424 -4.31673 -2.03924 -5.08592 3.65946
3319 1 0.358142 2.32016 -16.1063 -3.86197 -1.32935 4.1296
1177 1 10.6901 3.12452 -17.2684 -1.26724 -0.758048 0.634317
1179 1 9.51646 -5.89808 -10.4552 -0.0755773 4.01796 2.95428
1183 1 4.16221 -5.24506 -18.1672 -2.69727 3.92549 0.928972
1190 1 16.8203 -2.15743 -23.2473 1.01229 -3.2229 -4.45941
1195 1 15.2143 -12.551 -15.6532 0.626857 -0.676134 -2.92157
1206 1 21.1571 -20.377 -22.4269 0.0784953 1.6664 -5.45663
1207 1 18.75 -0.903574 -17.3643 -1.50756 2.6571 3.70222
1212 1 20.3905 5.65999 -11.3206 0.802488 -2.83284 -3.54801
1214 1 10.4993 -0.518017 -1.42776 0.0491854 -1.40207 -3.11597
8 1 22.4875 -12.2198 -15.7372 -2.24127 0.642867 0.105476
1216 1 16.3609 -7.56385 -11.4969 -2.417 -0.283523 -2.70959
1218 1 16.5924 -1.21092 -9.49143 -3.27097 -2.94718 4.46251
3648 1 23.2447 -21.4981 -0.959666 -0.991923 0.964312 -0.605393
1238 1 6.70437 1.55022 -10.454 -2.25897 -6.75827 -2.95046
1242 1 8.71112 -21.7422 -15.8082 -0.509594 2.97935 0.049963
1256 1 4.31235 -20.426 -16.9943 -3.63905 2.66497 -0.821167
1260 1 3.4199 -5.85829 -12.8627 1.90442 1.42113 2.33996
1261 1 15.6989 -10.9881 -8.8933 -1.14058 0.167494 -0.147151
1262 1 10.431 -13.9603 -6.11182 -4.91179 2.33896 -0.056141
1278 1 15.8491 -6.47088 -22.966 -0.722799 -0.88171 -3.89963
1280 1 1.12088 -3.56964 -4.77775 -2.67765 5.95404 -2.67418
1282 1 10.167 -21.9601 -2.76422 -3.25116 -2.9676 3.92128
1283 1 4.17391 -22.0888 -8.30842 -0.292406 -0.723173 -0.410593
1288 1 5.01917 0.245265 -17.0159 -0.953 1.42908 1.07956
1558 1 8.80472 -17.0759 -0.8356 -0.709787 1.3725 -1.06484
1294 1 13.8757 -12.5417 -7.57696 -1.63478 3.7152 2.31063
3800 1 13.878 -0.995121 -3.27792 1.17842 -0.120592 1.33192
1298 1 3.56277 -7.07702 -3.59311 1.53455 1.25254 -1.62462
1300 1 2.55716 -0.44167 -2.58465 5.48269 0.793934 -2.85938
1304 1 3.18628 2.04163 -5.80833 -5.86289 -0.766619 0.0885619
484 1 22.4657 -14.895 -14.2762 0.874241 0.334982 -0.238112
1316 1 18.428 -6.92717 -14.4075 6.08107 1.69294 1.40444
1320 1 18.4065 -7.80923 -7.91081 -1.29909 -7.77727 2.66855
1321 1 11.9524 -23.7806 -7.00227 3.96849 -5.73021 0.904905
1322 1 0.349644 -13.1086 -7.5034 -4.49256 -4.10807 0.723938
1410 1 -0.119929 -18.556 -15.6754 -0.227394 -7.72586 -0.862826
1334 1 14.0461 -9.3794 -10.7311 -0.137085 1.48981 -3.46712
1338 1 1.39178 3.77882 -2.40024 -1.97294 -5.41016 1.93468
2325 1 13.6417 -23.6815 -16.9944 4.12376 3.94114 -0.121806
1346 1 16.0638 0.276953 -14.6238 6.04571 -3.20012 -2.35728
2069 1 23.4557 -21.6782 -10.2822 -0.0509909 3.53937 1.58015
1364 1 14.1146 -13.2442 -12.79 3.32288 2.06528 1.48304
1365 1 7.2374 -4.0848 -22.2697 0.445923 -1.28289 4.04443
408 1 -0.236579 -1.14221 -14.6571 -2.32838 -2.90483 2.36387
670 1 0.363096 -15.6068 -1.4386 -4.84641 2.72878 0.198921
3481 1 3.5068 -22.4318 -23.2113 1.64669 -7.94553 1.55595
2371 1 15.9466 -18.4645 -0.274266 3.33906 -3.44502 3.69831
3053 1 20.7761 -20.9601 -1.80041 -2.82028 -0.196018 -0.0127734
3916 1 18.9512 -10.9449 -22.5676 -0.953693 -0.933007 -0.00749288
1329 1 22.4608 -13.4581 -0.699292 4.12604 -0.623772 -3.19841
672 1 22.2661 7.8554 -10.4558 -0.960683 1.8906 2.79634
1427 1 17.2439 -12.218 -2.87303 1.18326 1.43306 -0.617588
1446 1 2.43436 -7.78711 -10.9183 -0.387294 -2.33113 -1.15771
1447 1 21.8525 -2.00873 -19.5086 0.0629735 -1.34484 0.603539
1454 1 7.79435 -11.8352 -2.74734 1.09042 -3.35255 -8.80388
1215 1 3.99729 9.16338 -7.46007 -2.90072 -1.45124 -3.19909
1473 1 13.0612 -20.0256 -15.4583 4.65741 -1.52948 1.04668
3926 1 11.1881 -2.66376 -23.0293 -0.864544 -4.04164 -2.21908
1483 1 9.90803 -23.8887 -19.5052 -2.53669 2.25646 -1.25375
1491 1 14.5756 10.0923 -3.66603 -0.888711 3.45462 -1.09184
1497 1 12.1787 -8.53603 -19.6266 -2.12587 0.978109 3.43056
1015 1 0.259743 5.29487 -21.8013 -0.588222 -4.03899 2.76878
1508 1 18.9266 -11.259 -5.02858 1.84697 2.10528 -1.52452
1689 1 3.57831 -24.2876 -1.85242 1.73262 -1.08847 -0.434717
1520 1 10.9413 1.56205 -12.4791 0.284388 -0.954573 2.59283
1527 1 1.22844 1.46747 -11.0202 -0.0283374 1.89155 1.83341
1532 1 17.2813 -4.30594 -17.223 -0.598982 0.203715 -2.10243
1539 1 2.68026 9.76843 -15.6877 2.55071 2.88976 5.08273
1541 1 6.32901 -20.8569 -9.80143 2.55102 -3.38039 -4.25122
1547 1 12.0744 -3.26415 -3.32755 -1.82738 0.105978 1.09902
3934 1 22.1597 5.10677 -15.1159 -2.7217 0.351488 2.03457
2856 1 15.5209 -15.4439 -0.889022 -3.82549 3.8881 -3.89105
1551 1 9.70355 -0.464949 -5.90779 4.14803 -4.70454 -5.54349
1552 1 17.8391 9.32029 -15.9944 1.51291 -0.516517 -1.89504
1556 1 17.9109 -19.3087 -9.35437 -0.435262 -1.16682 0.412162
1073 1 -0.317575 -21.9291 -9.91213 -0.792549 -2.34621 -2.04348
1605 1 1.81915 0.822864 -13.7964 5.91791 -1.81332 -1.52145
677 1 22.1881 -6.49392 -14.7394 0.0626854 -1.61195 1.5747
1567 1 1.18239 -9.52346 -21.3851 -0.353461 2.30026 3.57838
1578 1 16.9444 2.87034 -9.75198 -0.758958 -4.13148 2.40545
1583 1 9.21169 -2.50908 -3.44399 -3.18678 -6.14678 2.01115
1587 1 20.2557 -3.40912 -8.27897 1.46077 -0.0245349 0.420473
1590 1 19.3781 8.54416 -13.8085 1.42424 -0.243159 -1.50608
1594 1 8.69245 6.64049 -2.41812 -4.83384 3.12538 -2.25911
1600 1 15.2221 -16.5529 -15.2501 -1.67574 2.53626 -1.77137
1603 1 5.70301 -7.94573 -12.7895 -4.80002 -1.91484 -2.47518
1604 1 19.7812 -15.9821 -18.7509 -3.90484 -1.38091 -0.320128
3808 1 11.3627 -14.4016 -21.1517 2.59949 -3.38693 -5.94543
3303 1 21.7871 -22.425 -14.4512 -0.391695 0.679175 -0.327373
1616 1 16.0386 -9.97307 -16.8602 3.59845 -1.63385 1.1302
1620 1 11.8698 -9.37572 -8.81168 3.93592 -0.551799 0.18996
3937 1 14.1879 -18.3872 -19.0574 1.6903 -1.51625 0.198399
1635 1 6.19095 -17.7841 -11.8094 -2.76279 -1.27504 2.06995
1638 1 15.172 -2.17191 -20.6686 3.82475 1.24926 3.56027
1650 1 11.2965 -3.96706 -11.557 4.73653 -2.06569 -0.928647
1728 1 23.573 -4.55304 -19.6149 3.39762 4.04761 2.49072
1652 1 13.5211 5.45445 -20.2394 3.64856 0.963947 -0.332531
1657 1 15.7776 9.67304 -10.8466 -1.62022 4.51535 7.07633
1660 1 1.92467 -13.4571 -21.0859 1.73141 0.683803 -3.37188
1664 1 3.60348 -8.03459 -14.8863 -4.61626 1.28838 -0.376593
1666 1 17.6183 -2.52722 -19.3862 -1.2397 2.16881 -3.44043
1669 1 14.963 -21.2882 -13.6368 3.03264 0.628277 0.8455
1674 1 5.67565 -2.99135 -6.6529 -3.26474 -1.69652 4.89669
1687 1 17.7881 -15.2462 -10.6192 -2.86509 0.5719 2.0233
2774 1 23.4447 1.17617 -16.6808 -0.211827 -3.95556 1.77106
3601 1 23.247 -13.7093 -5.81656 2.5744 0.562994 -3.34975
1700 1 13.6493 -2.37726 -11.6144 3.6296 1.50088 -2.35636
1703 1 8.7887 7.66424 -12.0414 3.94309 0.673963 3.8953
3775 1 3.54757 -0.0432731 -9.7025 -1.22545 1.4076 2.27953
1714 1 4.26782 1.41982 -12.1388 -4.3935 -2.53024 -0.594007
3921 1 17.8254 6.2768 -14.5989 -0.0954847 0.534348 4.78004
1717 1 11.5964 -16.1418 -0.761711 -0.738456 -2.17357 0.862087
1718 1 7.28525 -21.8702 -13.2753 -2.41428 -1.56901 1.07072
1976 1 19.9417 -8.25842 -23.1711 -0.663175 -0.606101 3.90199
1731 1 20.6033 3.41304 -1.97551 2.10826 -7.64777 0.959655
3126 1 0.958651 8.51794 -5.18894 2.10388 -0.32076 3.00886
1747 1 4.75269 -19.0511 -7.85989 0.414147 0.502101 -0.944369
1748 1 16.3941 -1.37725 -4.78424 4.71545 -0.944742 1.36043
451 1 21.676 -13.6933 -18.2626 -0.525825 -2.12609 -1.25503
1757 1 15.3714 -14.8575 -6.28908 -4.54124 1.58121 2.17661
1761 1 22.0445 -18.5511 -20.4086 -1.16483 -2.21337 4.93676
1765 1 3.64031 -17.1497 -4.02812 0.66629 -0.441505 -2.53843
1779 1 5.33663 8.76872 -3.26831 -2.75539 8.75022 -2.84403
1780 1 8.2694 7.40998 -5.39612 -2.29797 1.18483 2.02575
1783 1 18.1073 7.37291 -6.776 2.53255 2.65186 -1.16834
3101 1 23.33 -15.1607 -20.4183 -4.37028 4.12693 2.04725
1790 1 8.10322 4.90285 -12.3954 -1.07976 1.8655 -1.60753
597 1 23.1373 -23.6609 -12.1761 -4.27934 2.2618 -0.994759
3772 1 13.4784 -14.1385 -2.25817 -0.373778 -3.28916 -4.15191
1794 1 17.2847 6.47181 -19.8676 0.170446 -2.73788 2.53226
1795 1 13.9377 -0.44793 -9.46014 -0.259194 0.358593 -2.47312
1798 1 18.1958 -5.12055 -20.6982 0.157956 -0.387356 -1.92834
1805 1 10.9966 3.54176 -3.42606 4.72878 -1.51158 5.55055
2135 1 16.1142 9.06415 -23.4871 -3.79995 -4.78268 4.85727
1814 1 12.5208 3.51505 -11.404 5.56187 2.44769 -1.89012
1822 1 15.5947 -5.02414 -3.00125 -1.35831 2.95481 0.743829
1825 1 8.58003 -11.2003 -7.88974 0.886473 3.78156 -1.78876
1827 1 15.2718 -22.9212 -4.88259 8.03386 3.00468 -1.74272
1831 1 11.683 -15.8031 -3.88253 -0.368469 -0.161735 -0.760507
1834 1 6.43943 -9.17214 -18.1402 -5.7824 -1.22461 3.44042
1841 1 6.48284 -23.8287 -8.94556 -2.48869 -0.0960291 -0.697723
1843 1 6.56056 -2.12596 -20.521 -2.75394 1.23642 -5.67778
1848 1 8.03331 9.11762 -16.6604 1.92977 4.70076 -5.85691
3830 1 17.7211 -10.7223 -12.635 -1.23891 3.29858 -0.0186449
1850 1 15.3235 -19.8622 -8.26666 2.01073 -4.55917 2.13177
506 1 0.136666 -21.5091 -15.8204 0.438472 2.84687 0.524366
1856 1 9.89089 -0.538241 -19.3195 -1.16524 0.19977 1.92977
1858 1 1.74655 -17.6969 -13.6098 -0.430579 -3.20304 -0.09409
1859 1 8.62087 -15.67 -15.6352 -2.90834 -0.246259 0.684689
1867 1 5.52228 -8.88741 -4.50243 4.97987 1.54696 -1.86314
560 1 22.5145 -20.332 -6.08272 0.757592 -1.96324 4.06535
3904 1 10.9543 -6.67303 -8.00129 -2.51514 1.47084 1.42661
1902 1 20.6183 3.6372 -22.0331 -1.63553 -2.91864 -0.469785
2604 1 11.9075 -11.5562 -1.29703 -0.568282 -0.415054 2.14078
1911 1 22.1711 -1.16289 -8.23189 0.735952 0.472798 -1.76424
1915 1 19.2513 -21.4844 -14.3768 0.461524 -7.62195 2.04508
1923 1 10.8651 -0.195869 -10.1461 -5.33248 2.30966 3.81737
3917 1 2.3552 -5.02095 -10.356 -2.77667 -4.64717 -5.73326
1926 1 12.6001 -1.69545 -5.9094 -0.467378 5.0808 -0.560981
1934 1 1.74733 -11.3035 -3.48456 -2.35048 -0.573274 -3.90396
1946 1 11.4364 9.37662 -8.0712 -0.349677 5.56658 -1.39919
1948 1 12.2315 0.518762 -15.1063 -7.30059 -1.01793 -1.92124
1952 1 6.22001 -16.8684 -14.43 0.880587 1.22751 -1.43624
1953 1 15.839 -19.4789 -3.09307 0.279187 2.9642 -0.407418
1875 1 22.0887 -3.61537 -15.2328 1.56067 -6.52689 -1.33989
1961 1 15.0261 -13.065 -4.16022 -1.17727 -0.808407 2.01944
3443 1 22.9251 4.15097 -0.582564 -0.547907 -4.20623 -2.49026
1209 1 3.06252 -4.1988 -22.3066 -1.08404 -3.54463 -1.73642
1975 1 10.1949 -16.7201 -17.8391 2.56567 0.272696 2.18955
3584 1 6.63206 6.02389 -23.9931 -4.22316 -1.81907 -5.01999
1983 1 18.5213 -5.06752 -6.56688 3.39502 1.72201 -2.54521
81 1 0.294995 -10.8556 -15.8933 -1.96635 4.55689 2.65882
1990 1 19.3225 -13.7461 -6.6551 -1.25346 -0.775685 -3.5403
2000 1 4.50081 6.43143 -22.3312 3.29768 1.55644 -0.523001
2003 1 12.4527 -4.22225 -8.78923 -2.94848 -1.4233 0.690368
3031 1 23.3065 -9.10942 -21.6265 5.00981 -6.36729 -1.22876
2006 1 10.0111 -9.03445 -6.19473 0.553304 1.22555 2.58581
2020 1 9.17414 -13.0284 -14.5007 -0.311578 1.58638 -1.39489
3798 1 4.09519 3.15079 -1.53302 -0.581359 -1.71407 -0.302606
2029 1 16.0125 -7.88098 -2.4602 5.24383 7.98427 -1.03983
3139 1 5.46941 10.9975 -12.8885 -4.48484 4.04432 -2.84625
2190 1 1.23183 5.37891 -9.18463 -1.72533 -0.959239 -0.79806
2045 1 8.00138 -19.6098 -17.4098 3.31543 3.61287 -1.83112
460 1 7.72437 8.97822 -23.9792 -1.61407 4.92875 -1.39231
2030 1 8.77784 -16.4852 -23.6535 -4.03069 2.70475 0.147421
3951 1 7.03538 5.22166 -15.3245 -1.11596 -1.22243 1.77996
3727 1 3.43153 -11.1816 -21.2103 5.49206 -1.83476 1.18095
557 1 9.6958 -22.8316 -8.46486 2.21801 -2.77676 0.243689
2079 1 11.1213 -12.9194 -16.686 -0.435676 -0.577994 3.97827
2083 1 20.3271 8.46915 -8.30345 -5.41975 2.93567 3.18114
2102 1 9.05617 6.14278 -7.93629 -0.198908 1.24584 -0.474358
2103 1 8.65453 -18.3602 -14.5885 -3.60533 4.92876 1.67488
2105 1 13.2038 10.3838 -12.2574 -6.24401 0.949883 0.393067
2115 1 16.3537 -12.9379 -10.986 4.02427 4.62921 -0.198089
2122 1 14.2425 5.80448 -8.82302 -3.54372 -1.41754 2.09081
2123 1 21.2879 -7.31236 -20.6998 -2.01739 1.18535 3.23086
2124 1 22.4058 2.63207 -19.1086 1.26833 3.17013 -5.39275
2126 1 10.5448 -7.51179 -3.72328 0.69848 4.12622 -1.73315
92 1 16.1801 -22.1376 -1.96561 -7.36099 0.575068 1.17951
2131 1 18.4898 -4.06667 -2.52974 -3.4668 0.149312 -1.01385
3833 1 18.3413 0.469897 -11.0397 -0.369287 4.11708 3.32809
2143 1 19.0558 5.10892 -17.0662 -1.24348 -6.08319 3.31717
2149 1 20.0145 -1.56356 -6.25906 2.09496 -0.0699329 -3.71334
2151 1 11.5192 7.94013 -13.0199 0.520552 2.35735 3.19092
3990 1 10.8775 5.75297 -21.2961 -2.1457 1.6983 -5.95702
2162 1 20.324 7.69558 -4.27957 -0.670955 2.0662 -3.48796
2164 1 17.0607 4.00296 -5.73275 1.35638 -1.59858 0.0432729
2169 1 8.72224 -6.36039 -21.6349 2.41533 -0.637768 1.91362
2173 1 20.2745 2.9776 -15.1898 2.31297 0.11905 -1.83147
2174 1 2.45155 9.49326 -3.04035 -3.7011 -1.50501 -0.607767
2178 1 17.7624 -15.8463 -7.95216 0.252769 -5.04422 3.1177
2180 1 10.4693 -8.68437 -11.037 -1.65771 1.94444 -0.954989
2186 1 3.49964 -9.11096 -17.3598 0.641442 1.95564 -2.35931
2193 1 17.2397 -14.9271 -15.8947 -2.06972 -0.175722 -2.25101
2201 1 13.5325 -10.7457 -21.1438 -0.757262 -3.15256 -0.549292
2202 1 16.7636 -18.8133 -18.3246 0.241974 2.3888 4.88605
2094 1 20.7826 11.2049 -2.85001 0.0143208 3.37109 1.73063
3288 1 0.485617 10.4352 -17.6799 -8.46104 0.210843 -4.16947
3335 1 21.8699 -1.57008 -3.71783 1.9572 -1.52021 -0.530027
2434 1 1.01027 -23.4339 -0.0517235 -4.52243 -0.751558 1.56544
2216 1 4.42732 4.47842 -15.3412 5.27566 1.26146 1.73555
2225 1 2.07833 -18.0207 -20.4851 1.96624 3.34948 1.03123
2227 1 6.01664 2.96103 -3.66124 -0.290499 1.42625 4.91299
3400 1 15.6349 -23.6575 -23.1713 2.45694 2.3799 2.48333
2992 1 19.5857 10.8768 -11.9671 0.675098 0.624709 -0.132597
2253 1 7.52416 -18.7142 -4.33721 -4.32123 -0.557176 1.39417
2255 1 2.60309 1.1368 -18.5986 -2.56255 -1.57031 0.623354
2261 1 15.1669 -4.44209 -10.309 4.4749 -0.121437 -4.01744
2262 1 18.9893 -22.9752 -2.85515 3.09389 -1.76655 1.86159
2263 1 0.804507 -15.8007 -4.35931 -4.00164 2.96965 2.51107
2268 1 13.7705 0.975956 -5.56204 1.93558 -4.95535 -0.677205
2269 1 19.7172 10.2471 -20.6148 -2.02294 2.62982 0.159721
3248 1 7.38464 1.30033 -1.69539 2.56707 1.02609 3.31573
2280 1 9.90173 -9.94956 -2.42477 2.09858 -3.16955 7.48544
3618 1 -0.0131705 -10.8525 -9.41498 -4.44866 -2.06894 1.78454
2297 1 10.9073 8.00738 -19.7363 3.15872 0.86942 -1.30882
2299 1 7.90874 -13.7278 -4.88798 0.618334 -0.081192 -1.69627
3895 1 12.1599 -3.55561 -0.444074 -0.877876 1.67109 2.62062
2308 1 5.09759 4.29657 -19.154 4.14584 2.34591 2.93134
2665 1 21.2335 1.06304 -0.102903 0.0552433 1.65705 1.67091
2320 1 22.0381 5.20742 -18.0533 -1.67123 -1.52014 5.60819
2323 1 5.98557 -3.90524 -4.06775 2.22029 -6.16373 -0.108866
2324 1 5.19011 -22.4705 -15.3443 -1.768 3.45915 0.0219081
3761 1 20.0301 -11.3875 -18.6097 -3.82514 -0.68923 -0.000533505
2326 1 19.9174 -10.9428 -14.6704 6.48603 1.88325 -1.93693
2327 1 15.3197 1.325 -16.9682 -1.46092 -5.28209 -1.31152
2333 1 11.0353 -21.4814 -14.0338 1.49723 -1.36306 -1.45726
2336 1 15.7757 -9.57881 -19.7456 0.461735 -0.019531 -0.305945
3485 1 1.56566 6.59886 -2.57832 -0.661959 4.51332 4.74697
2339 1 9.17733 10.2 -4.63217 -4.40619 2.13722 -1.06191
2341 1 5.1517 -20.6053 -19.6344 -0.166807 2.13905 -1.58566
2350 1 12.79 8.05874 -10.3262 -4.62964 -0.751821 1.82486
2919 1 22.066 -14.7528 -3.37625 -2.46514 3.0599 -0.0341227
2354 1 16.8089 -19.5456 -22.4955 -4.23982 0.00609775 0.459989
2356 1 13.6809 -23.5675 -12.1552 -0.170627 4.41227 -0.814079
2358 1 4.42905 -11.2539 -14.0013 -0.333253 -0.469486 -4.18389
2363 1 16.9432 -10.0246 -1.11538 1.7558 -1.25454 -0.244845
2718 1 8.53877 -14.3365 -21.7362 0.375295 2.07475 2.34205
2483 1 1.00029 9.68692 -11.0397 2.38583 -1.57584 -5.08456
2381 1 13.2399 -8.43437 -2.85039 1.44118 1.43297 2.25802
1389 1 20.6751 -4.08039 -4.3604 2.06011 -1.00565 -0.839722
3900 1 11.5046 -17.7187 -14.7712 3.75769 4.91751 2.42011
2410 1 7.27227 -21.8858 -22.4859 0.173415 -2.33258 0.656454
2414 1 13.5302 -5.92776 -6.79299 -2.78201 -0.813307 2.59815
2418 1 13.8124 2.96536 -3.20301 8.08848 -7.30596 3.69279
3923 1 23.4656 5.56561 -9.44284 5.57588 2.51497 -0.403956
2440 1 6.81644 -2.63558 -15.2604 -0.353602 -0.335592 -0.494325
3685 1 4.95648 -5.1778 -0.267157 -3.63829 -0.47377 2.66398
2448 1 2.30277 -15.0117 -11.1565 -3.40305 -0.141683 -4.87658
2213 1 18.502 9.88993 -3.97537 1.82237 0.644772 1.74425
2466 1 1.0034 3.99025 -5.19726 3.76752 1.10962 -1.1652
3967 1 2.50945 -5.71959 -5.85514 -0.939995 -2.76093 -5.73546
2470 1 12.8635 -21.7192 -9.82561 1.57153 3.29598 7.2462
3746 1 5.15936 -22.4716 -5.61882 1.5794 -3.24004 2.29061
3674 1 -0.0284224 -2.31128 -8.30484 -1.93436 0.934601 3.17257
2482 1 8.23891 -5.39355 -0.415487 0.635853 0.925877 -2.85233
2484 1 4.09573 -17.0014 -9.67437 -3.95906 1.12883 -2.38663
1411 1 20.259 1.11893 -23.5799 -2.32384 -4.73741 -4.28694
2495 1 12.5591 -15.2634 -7.44421 3.40041 6.28998 -1.93539
3740 1 6.41348 0.4334 -21.8059 0.731297 0.91902 1.14128
2507 1 10.1335 -0.891151 -16.4243 0.461889 4.5075 -0.603642
1043 1 18.5858 10.4147 -6.94033 0.630704 2.00854 2.18475
2530 1 5.21604 -14.1051 -13.8185 -2.64527 -7.63151 1.27417
3997 1 18.8596 -22.6621 -10.3504 -0.134251 -2.62747 -3.96268
2548 1 15.7209 -6.94342 -8.72265 3.22822 -0.814687 -0.725686
2557 1 17.0179 -23.0476 -14.3263 0.366523 -2.98864 -2.28482
2563 1 19.4728 -0.367795 -20.2101 -3.56249 -0.0971976 0.513777
2568 1 19.1834 -8.34405 -18.8456 -0.0900245 -2.88098 2.4631
1815 1 13.9539 -1.35828 -23.4476 3.64185 1.52466 -7.24009
2573 1 18.1295 -22.1899 -5.53479 -2.36637 1.74738 2.7135
2588 1 18.1636 1.98902 -17.1213 -1.34116 1.09051 2.72459
2590 1 11.9145 2.49834 -7.08301 -5.96744 -4.91063 0.274787
2598 1 19.7849 0.50283 -4.29949 -2.07807 3.54962 -3.10004
3716 1 6.32951 6.38751 -0.550874 5.50937 -0.386318 -0.862338
700 1 1.77969 7.66447 -23.5331 -1.40012 -2.92943 1.37323
2608 1 13.6162 -19.1241 -21.7955 -0.946621 2.38161 0.0562723
2610 1 1.14507 6.25372 -19.3033 0.550622 2.95853 0.893994
3960 1 20.1024 -12.096 -11.8021 0.0766795 -3.00564 4.13582
2628 1 11.4293 -7.45631 -22.035 1.71803 1.50945 0.309273
2632 1 19.5968 2.27525 -19.6232 1.35088 -3.92596 -3.84777
2637 1 13.5199 -13.9915 -17.5706 3.39128 2.01841 -0.946793
2638 1 13.7356 6.42071 -6.14629 3.66399 -0.395539 -0.833287
1453 1 -0.0171477 -21.2779 -7.15396 -2.1735 -1.89068 -0.709441
2644 1 19.7726 -20.2094 -11.5858 -0.798724 -4.41672 -2.02146
2654 1 18.9161 -6.84051 -2.24939 5.80256 3.20628 0.066858
3666 1 1.93662 -16.6728 -23.3685 4.16428 -4.62784 0.688955
2675 1 19.2756 4.00259 -9.12018 -4.43314 3.09362 -1.62914
2678 1 3.97566 -23.0353 -12.84 3.38223 -1.3783 4.48397
2680 1 8.20373 -3.64251 -7.93449 2.60741 -5.52728 1.773
1395 1 1.26457 10.7378 -7.13837 -7.46923 -0.469431 -0.460301
2687 1 19.2415 -16.4049 -14.3635 5.65745 -7.40371 2.93107
2692 1 5.28408 4.17657 -12.5055 -1.18182 -0.823936 2.38447
2697 1 5.32986 0.335646 -4.7256 3.6003 -0.73704 -6.64472
2703 1 15.3931 -5.2793 -12.9588 -3.88887 0.167606 -3.25938
3723 1 9.50915 3.57163 -14.5566 -2.86175 -1.19541 2.02397
2039 1 9.07673 -24.2187 -22.0495 4.22954 0.309446 -1.08725
2743 1 0.717296 -16.957 -7.17509 1.49751 -2.81977 -0.354947
2746 1 5.33597 -13.194 -3.98255 3.53339 0.240051 3.85395
2765 1 5.59379 -18.1291 -18.2185 0.472782 1.47625 0.582126
2110 1 2.75768 9.87433 -0.137286 -0.448413 1.22906 -3.38204
2776 1 11.2371 7.97074 -5.40463 -2.31229 -0.416682 1.40414
2783 1 13.3646 -10.115 -15.7026 2.3359 3.19 3.91846
2785 1 21.5817 -1.29516 -16.7308 7.39575 1.22006 -0.0810792
2789 1 8.62966 -6.06762 -6.33266 -4.42747 -2.69024 5.91298
3264 1 10.4918 9.35057 -22.4015 7.91433 4.62907 -2.91037
2803 1 20.0052 -5.16183 -16.4588 -4.09167 -2.30378 0.369593
3768 1 1.73357 6.95828 -15.4944 0.907023 -2.59441 -1.58489
606 1 3.46322 -0.147414 -22.5381 -0.539195 4.25396 -0.145167
2204 1 4.75655 0.267551 -0.892356 2.5343 4.26864 1.82547
2817 1 6.07197 -15.626 -21.0443 1.8043 -0.387789 1.69453
2821 1 16.2368 -8.73635 -14.2206 -0.378192 -3.77455 -2.92445
2826 1 8.87338 -19.9471 -0.839903 0.588624 -0.894624 -3.67423
2828 1 1.94081 -1.60513 -18.2004 2.49549 -3.4318 -1.7824
2831 1 15.2788 6.85976 -11.62 -1.2244 -0.562776 1.78826
542 1 23.4179 6.51835 -2.43368 -1.1707 2.90533 -4.07118
2841 1 17.7501 -17.7811 -4.29054 2.88668 -3.29836 -0.0673935
2843 1 15.6828 4.69134 -21.8641 -0.225994 1.81215 0.25009
2845 1 18.5384 5.4368 -22.3216 1.96744 -0.976912 -3.85138
2850 1 3.79694 6.65475 -8.84613 -4.15185 -0.822005 -4.01465
3295 1 1.46466 -21.1846 -2.20097 -3.11859 -2.91328 -0.819784
2854 1 5.38351 -7.31539 -8.57183 -2.10028 3.51998 -2.30529
2192 1 0.970845 0.199464 -23.8434 4.4902 -4.50456 -1.86553
2858 1 10.582 -0.0102252 -22.1254 1.85719 -1.74976 -8.95062
2862 1 12.3914 -3.05036 -16.0184 0.0416628 -2.76266 1.96144
2863 1 21.7276 -18.8985 -17.5099 -1.44273 3.275 0.277926
1227 1 1.16013 -8.50362 -2.9249 -1.56343 1.91813 0.700101
2875 1 22.1848 -5.37428 -8.68492 0.330801 -3.18423 -0.789648
3731 1 4.75582 -18.3177 -21.1499 -1.29313 4.45411 0.754972
834 1 -0.0249308 10.7436 -2.37383 -0.862319 -2.53105 6.37414
2911 1 0.902699 3.3942 -18.6277 -1.68421 1.64378 -0.485942
2912 1 8.68991 -15.7052 -8.10619 -4.29455 -1.24597 -3.40719
2913 1 17.6048 6.42579 -3.82949 -0.460151 2.30783 -3.268
2918 1 21.8775 5.03228 -4.36136 -4.80714 0.128628 0.862839
1168 1 13.206 -7.91464 -0.184789 3.2702 1.72486 4.14299
2999 1 11.7997 -19.2355 -1.30889 -2.99696 -0.399717 -0.41922
2934 1 8.41 4.48733 -22.0207 -2.85948 1.80519 -0.361349
3733 1 4.42878 -15.0392 -1.93056 2.37899 2.7943 4.86113
2947 1 15.2184 -12.3684 -23.4554 -5.46809 -0.0153408 0.575196
2951 1 10.6003 -19.1719 -9.82772 3.10007 0.965522 0.451453
2958 1 9.6656 -6.25223 -14.7566 -0.307811 -3.091 2.12345
2210 1 20.0547 -16.8493 -0.767872 2.2132 1.22211 0.334719
2965 1 19.233 -0.551902 -13.3505 -6.18787 3.45225 -0.710605
2970 1 18.1603 -12.2057 -16.5259 -1.72066 -8.13606 4.99134
1693 1 20.1614 7.6675 -22.267 5.35285 -1.75789 -4.55176
2977 1 3.92696 -11.1444 -5.268 -1.02436 1.05308 0.171354
2988 1 0.613182 -23.0029 -4.11635 1.15991 -1.84118 0.185828
1754 1 22.955 10.1982 -16.8237 1.4371 0.575892 0.20316
3005 1 4.65394 4.86454 -5.4629 -0.220184 0.484881 0.6402
2616 1 22.7272 -1.48699 -11.183 -0.971136 -3.45393 -1.39596
3758 1 20.6713 -4.91665 -19.1493 1.64876 3.9795 1.99465
3016 1 17.6659 -11.7854 -20.1375 0.97582 -0.775788 1.81624
3032 1 16.2536 -9.49004 -4.81523 3.41926 2.14076 0.00151534
3043 1 6.67465 -12.3045 -15.5136 0.606451 1.84154 -1.77293
3046 1 17.0625 -7.35493 -16.9849 3.91668 2.28981 -3.35481
2364 1 1.14708 -2.83129 -2.07398 -0.0227504 1.19251 -0.868129
3065 1 5.24999 -10.617 -11.303 -0.212654 0.108158 -1.97226
3069 1 7.17024 -8.681 -6.81821 0.54769 -1.67799 3.36033
3301 1 22.5783 8.18401 -6.36223 5.07745 -1.23549 0.311791
3079 1 12.98 -5.78323 -4.13251 1.09228 -1.04822 -1.8552
3083 1 6.80204 -15.2831 -10.0292 2.88774 2.02192 -2.5891
3090 1 14.8821 -2.75004 -7.67442 0.786127 -1.75944 -1.81938
905 1 21.4163 -5.61351 -23.2308 -0.441327 1.76047 -2.87685
3100 1 17.652 -8.22432 -21.3322 -1.38781 3.0397 -4.79082
3106 1 1.89372 -10.2946 -7.23046 -3.34491 -5.5281 1.24948
3108 1 7.11699 -17.6477 -6.92289 -2.60821 -1.32978 4.05743
3111 1 8.03124 -21.3985 -19.7654 0.363416 -4.3798 -4.04114
3935 1 9.46503 -14.0033 -18.9943 1.92691 -2.75734 -2.47291
3113 1 10.7615 -9.96596 -17.0927 1.8964 -2.26923 3.24762
3114 1 5.0074 8.89083 -17.252 -4.7867 -4.67504 -0.302374
3117 1 13.6659 -10.7396 -4.86838 3.07436 1.63425 -5.02593
3918 1 10.4324 9.84166 -14.9253 5.08112 -2.31391 3.22151
3128 1 4.35162 8.72457 -13.7191 -0.35591 -1.14302 -4.8731
3134 1 17.691 4.8437 -1.39985 -0.0143475 4.47533 -1.95503
3137 1 5.27194 -2.4939 -17.8645 0.0756618 2.92336 -2.54321
3975 1 4.0785 2.33024 -20.8944 -4.05753 0.532116 -2.23813
2271 1 22.3009 -17.5475 -8.76791 0.904352 -1.40915 -2.64565
3141 1 10.5582 -2.19968 -7.93786 0.870034 -0.388152 -1.34594
3149 1 8.94338 9.86296 -19.2666 1.20037 1.3186 1.09688
3755 1 17.1348 6.00884 -9.38469 4.28198 -0.0510205 -3.48284
3158 1 17.1182 -22.2065 -8.30963 -1.64176 4.49168 1.64662
3159 1 19.8893 4.89364 -6.38244 0.25675 4.78632 0.962542
3167 1 20.8554 -16.2464 -21.4319 -1.54856 -0.898725 2.97795
3169 1 12.6907 -22.9003 -19.4071 1.51412 0.876963 1.17877
3175 1 18.2207 2.62978 -3.42317 -3.62126 -2.54835 3.65197
2318 1 21.2884 -8.79168 -7.01469 0.301312 2.4677 -6.14439
3191 1 6.60533 -5.96677 -10.8448 -2.83562 1.75195 0.828382
3870 1 14.5782 -19.845 -11.0554 4.1978 1.55416 3.63084
3198 1 6.76158 2.08294 -18.2848 3.42307 -3.27741 3.70769
2643 1 -0.186552 -13.1165 -23.2109 2.99351 1.34686 1.55306
3234 1 11.457 -6.49814 -12.7025 -1.95245 9.04306 -1.05841
3242 1 20.2743 -8.58636 -16.1569 3.60945 -0.745659 0.0154928
3250 1 13.9938 5.7353 -17.4718 6.04432 -0.238631 0.250892
3254 1 21.9218 3.2372 -10.0566 -2.99379 -1.18338 -0.139425
3954 1 3.85688 6.22084 -17.491 -4.57098 -4.74754 -1.5538
3265 1 8.13304 -2.72671 -17.8409 2.99502 1.12632 -1.80903
3278 1 1.28569 -6.94381 -22.9261 -3.59792 2.58421 -0.210283
3282 1 3.21173 2.07011 -15.8127 1.69914 -4.24816 2.72202
483 1 5.98591 -17.7781 -1.82127 1.86459 -5.43937 1.2364
3298 1 6.52427 -9.38513 -15.206 -4.83153 1.2559 1.06337
1306 1 6.07894 -20.798 -0.9948 2.26791 2.3738 0.308315
3949 1 2.56306 -15.107 -14.248 -0.0339678 -2.33154 -0.382217
3305 1 5.63144 7.40288 -5.78862 6.51217 0.982309 1.11917
3311 1 11.3917 5.59751 -9.7254 -0.168476 -0.272315 1.58124
3315 1 21.6174 -11.4789 -21.0737 -0.424889 -4.2718 -1.96219
3316 1 4.1011 -4.96419 -7.96846 -4.6517 -6.11663 7.03197
1310 1 0.380916 -18.7573 -0.928311 -5.18239 3.01199 -0.418598
3320 1 8.07925 8.39658 -9.46663 0.121199 -5.51196 -2.08749
3887 1 2.77485 -11.8914 -16.5475 -2.05927 0.612962 2.83835
3324 1 12.4277 -18.0046 -11.9058 6.50966 0.919955 3.51621
3327 1 7.84372 -23.0893 -6.40959 5.11278 -0.171924 -1.33984
3806 1 0.234759 1.2616 -3.04336 -2.5353 -0.217678 2.12614
3329 1 12.0099 7.43101 -15.8777 -4.33452 -4.88957 -2.21348
2641 1 21.9031 7.19625 -13.5377 3.31184 -3.31935 -1.14732
3340 1 16.8529 2.53825 -20.3803 -0.698352 1.2776 -1.85671
3363 1 15.1059 -3.81218 -15.4279 2.12519 3.62674 2.36928
3367 1 1.92593 -21.7109 -17.856 4.99001 -1.69986 2.38848
3372 1 6.01048 -0.832611 -8.96476 1.19135 -0.211275 2.76177
3374 1 22.078 -13.7336 -22.6172 2.54985 -1.58303 3.66455
3384 1 15.9629 -19.3808 -15.6012 -1.14533 -0.0726163 2.59801
3386 1 10.7984 -11.6126 -22.1865 2.76055 0.562537 0.182826
2406 1 22.3423 10.5625 -10.9337 -1.54562 3.91616 0.305592
3402 1 10.7957 -18.4763 -22.0367 2.13188 -0.0490317 -1.99146
3407 1 9.49338 -1.87068 -12.1411 -0.523836 0.846148 2.24372
3412 1 7.04473 -3.24139 -10.5423 -0.887329 3.75335 -3.68392
3416 1 19.6509 -19.775 -5.58308 -0.149794 -2.33662 -1.65413
3422 1 7.4841 -14.5062 -1.38388 -1.83347 0.372213 -1.52476
3441 1 4.92263 -15.6229 -6.19805 3.46295 -0.690631 -3.26575
3451 1 4.66237 -13.8566 -17.515 -0.0227451 -2.35208 1.36198
1295 1 14.1061 6.75593 -1.42156 -1.86665 1.50448 2.22948
3458 1 12.9939 7.83575 -21.991 -7.83597 0.737918 -1.67087
449 1 15.1083 -3.88054 -0.0991555 -0.315111 -0.326854 -0.919296
2365 1 22.757 -8.64749 -3.30721 3.10176 0.0384985 -0.209769
1408 1 -0.330695 -5.94383 -14.4406 1.43873 1.99415 1.77897
3487 1 13.0683 -10.821 -12.9617 1.03948 -1.68494 -4.40135
3489 1 19.7204 2.04148 -6.93373 -0.979285 0.0577854 -1.97702
3868 1 7.50217 9.17172 -1.51696 1.50568 2.25296 5.06466
3507 1 8.9719 10.8789 -8.14685 -0.769363 2.79748 0.141519
3860 1 12.9678 -16.693 -17.0522 -1.12317 1.11081 3.31551
3535 1 9.96104 -19.1053 -19.376 0.540418 0.241648 1.95667
3541 1 13.1466 1.20503 -21.9097 6.22741 -2.60955 -0.995946
3547 1 8.56794 -19.9077 -7.99355 1.32538 1.77738 -2.86636
3548 1 7.69939 -11.8901 -18.2543 1.05423 0.728741 3.87599
3551 1 11.4909 3.21642 -20.0086 -2.28927 0.182562 -2.80506
3557 1 7.91839 6.49167 -17.8519 0.674123 -3.11771 0.0905962
3563 1 2.01573 -23.582 -6.83731 -1.84625 0.063929 -1.36714
3992 1 21.5279 8.63935 -1.78633 2.10396 3.22622 0.596276
3565 1 15.8767 -17.8424 -6.56766 1.32822 -4.95678 -1.89311
3573 1 17.9499 -1.00159 -2.70666 -4.11594 0.330876 0.856615
3586 1 15.7924 2.01081 -7.0681 0.102518 -3.81757 2.00309
3914 1 10.8974 -11.5313 -4.86975 0.801973 1.91671 -0.365844
3590 1 9.53261 1.26706 -3.52893 0.178388 1.67123 -6.01887
3593 1 13.6579 -7.28615 -14.4743 2.42182 2.53711 -1.24071
3606 1 3.34363 8.27608 -10.9703 1.64156 -2.16405 4.50577
3192 1 22.2971 11.1479 -0.228409 -1.65742 1.61028 -0.466498
3617 1 14.8417 0.734135 -19.8484 -0.983358 4.08778 -2.63831
3782 1 3.81765 -16.3183 -16.4808 -3.00209 -1.98329 -3.16824
3630 1 5.88443 -10.0615 -1.70262 -0.974256 0.813112 1.69584
3633 1 11.8946 8.6648 -2.66277 -4.1781 2.92461 1.06438
1502 1 23.7083 -7.9777 -8.43376 5.40714 -0.698922 1.57416
3636 1 4.79806 -20.175 -12.2064 -3.1008 -0.806368 2.9125
3640 1 16.4045 -17.6893 -11.1808 1.56946 2.22418 -0.344586
3646 1 16.3979 4.47181 -18.072 -0.628647 -7.04199 -3.5246
1549 1 1.90152 -2.82274 -15.5372 5.34869 4.61806 1.40091
3650 1 6.647 -6.36814 -17.6496 -0.845944 0.984901 9.52337
3659 1 19.9442 7.3626 -18.5501 5.36062 -8.70576 -0.532228
2874 1 1.95592 -9.69604 -13.0054 2.89033 -4.2359 -2.85572
3884 1 12.2637 -19.7576 -7.57652 -1.86106 -2.21697 -3.27658
3665 1 8.95327 -5.32454 -19.0633 -3.69183 0.683537 1.2888
3957 1 17.5292 -23.3354 -19.0665 3.54058 2.46913 -4.52045
3670 1 13.9422 2.57464 -8.96543 2.43916 -6.63655 3.3372
3679 1 9.27854 -20.9449 -5.36794 1.45374 6.22492 2.67271
3982 1 8.49049 -5.13977 -3.4925 3.99223 -1.51673 -0.558189
3692 1 8.66289 1.9787 -20.6204 -0.139367 -1.27978 6.87923
3696 1 8.29134 1.38625 -15.9231 4.58512 -4.54305 3.57786
3707 1 18.7727 3.92335 -13.2293 2.3613 0.287541 1.46191
625 1 0.715261 -7.76947 -6.61356 -1.94937 9.384 -0.57789
3328 1 0.0541162 -16.9618 -11.5345 -0.572008 1.42338 -1.79972
2927 1 11.6736 7.26681 0.044649 4.01086 -1.85351 2.38835
3424 1 1.45614 -9.44784 -0.427267 0.867273 -2.72435 1.45922
2924 1 -0.353842 -16.4096 -21.6028 -2.48426 -0.882582 1.73782
2237 1 0.0288073 -24.4574 -20.6149 -0.449035 0.857658 -0.100955
2203 1 6.30945 -2.33069 -0.158199 0.106569 0.311723 0.451928
893 1 21.995 -4.20474 -0.166841 -2.6859 2.65238 -2.66618
923 1 3.85085 -11.1555 -0.083035 -0.313928 2.79717 1.4939
3271 1 6.66105 -9.16142 -23.8933 -2.03708 -1.78668 3.05954
3680 1 11.8745 4.95509 -23.9071 -5.09346 0.883918 1.41719
2342 1 9.26234 -12.5719 -0.0990948 -1.32059 -2.01692 4.61623
1185 1 15.6497 6.20974 21.0982 -3.98732 2.03805 -3.88167
3177 1 0.915072 -9.54156 22.3929 -1.69536 2.02089 1.84027
2659 1 16.4118 -4.23585 22.9317 -3.23764 3.32387 -0.118026
11 1 7.6064 -12.9845 17.1744 -4.58507 2.00037 4.11818
17 1 16.5244 -7.71617 16.685 -3.48681 -0.0137432 -9.72922
20 1 20.7862 2.68885 22.0939 2.35432 0.00465905 -8.0915
35 1 19.1242 2.89695 11.2666 -1.59809 -1.37358 -0.918358
10 1 0.529905 -6.31666 14.8382 -2.03805 -4.67312 1.39702
50 1 17.163 -19.1917 13.2627 -1.53371 2.75754 -0.0565558
65 1 19.3868 -1.28846 8.09398 -3.5714 -2.30007 3.59405
82 1 6.82709 -23.9597 4.09125 -0.295259 0.366075 0.271524
86 1 16.0207 8.55685 18.2514 1.01412 -4.16437 7.23492
90 1 8.93053 -4.97871 7.02256 -1.52556 2.64292 4.06287
102 1 3.0882 2.48164 5.54716 -1.65889 2.62266 -2.88037
106 1 14.7927 5.0645 7.36942 1.08334 -1.34276 -2.13175
107 1 19.5687 -4.2166 19.2031 -2.00034 1.97589 0.160313
2868 1 2.16356 -21.9398 22.3274 -3.42087 -4.29377 -0.512102
120 1 4.12947 -1.70423 18.7004 -2.26378 1.26651 -5.3049
1939 1 12.6355 10.9484 0.746118 7.53665 -1.49855 0.968124
127 1 10.2553 2.858 9.91639 -1.04585 2.0482 -0.351085
129 1 16.6813 -9.96624 3.54641 6.54121 -4.44024 -6.39427
140 1 4.08449 -4.36593 21.6385 -6.92068 1.32656 5.14467
141 1 10.3477 -15.9148 3.53319 3.98832 2.39512 1.28297
142 1 13.6728 3.79152 21.0182 -2.03732 0.6583 -3.40725
145 1 18.9716 8.31007 18.5686 3.61017 -2.32674 -2.50328
3865 1 1.76269 -23.5355 16.7901 1.72173 0.0974196 -1.50027
151 1 20.5478 0.160434 20.7838 -3.14095 -0.890365 0.965175
156 1 14.139 8.68133 20.7782 -5.64213 4.71234 0.480686
292 1 15.8049 11.1846 4.2772 0.889041 -3.00817 1.0541
163 1 2.28414 -0.771042 15.6481 1.42049 4.06979 -1.26931
164 1 21.1182 9.02837 10.734 -0.210792 -1.09405 2.06831
193 1 6.85898 0.756274 4.64398 1.19828 -0.292522 -2.29796
205 1 21.3562 -5.68143 10.9235 1.29514 -0.639313 2.12976
208 1 2.41688 -4.02728 18.1568 -3.15269 4.65449 -3.34043
211 1 14.0489 0.73569 6.33121 0.550103 2.81512 3.29407
236 1 16.827 -8.12204 7.64864 1.06324 0.358906 -2.33152
3533 1 18.2297 10.5923 2.86228 2.82186 1.84342 0.575303
240 1 8.81875 2.45802 14.1042 -0.718297 0.66881 -6.77649
246 1 10.2867 5.2743 21.76 4.14796 -3.65751 5.29079
1366 1 19.7815 -13.2305 0.503967 -1.3501 -0.0627847 0.962393
995 1 6.68361 3.44872 -0.00548001 1.74905 0.930096 -2.01864
272 1 14.2408 -17.6192 11.2391 0.708621 -1.22782 -1.78565
274 1 11.9229 -11.3517 9.27599 2.48641 -1.7593 -1.96076
278 1 21.5986 8.19243 17.5922 -1.90964 3.2578 3.16324
2908 1 1.58825 10.5919 17.0125 0.826907 1.0559 3.54131
1219 1 14.3993 10.791 10.5333 -4.28548 2.95231 -2.68938
293 1 16.2261 3.32611 13.2221 3.02224 3.58234 3.49816
38 1 21.3259 10.9434 8.44554 4.5158 1.49693 0.789373
300 1 16.2444 -2.69911 16.1425 -2.18494 -4.93221 2.13904
305 1 3.43861 -19.2826 20.1631 2.30524 -1.43985 -0.895191
309 1 6.55512 -17.8225 17.0615 -3.65562 2.35253 -2.34044
311 1 12.9274 -10.243 0.972281 -3.26605 0.0460751 -1.75006
1722 1 18.5219 -23.2286 19.3544 -2.65267 3.52544 2.36967
318 1 19.9853 -17.9313 18.6014 2.16457 -0.154389 -4.31727
2145 1 20.6675 9.87895 23.6516 3.81362 0.363492 -0.448673
331 1 11.5349 8.26423 2.75807 -1.40596 0.188359 -5.54133
335 1 22.7211 -21.9383 3.78859 -1.22995 -2.85928 -1.19818
338 1 5.30277 -9.60825 17.401 -2.15143 -1.58068 -1.94954
346 1 16.3222 2.1438 3.35053 -0.281581 -4.69076 1.41044
347 1 22.359 -6.29594 8.41475 -1.06795 -6.12258 -0.781539
516 1 8.05525 -22.7462 -0.0427042 -0.542224 -1.38096 0.937271
358 1 20.9533 -12.5492 12.7283 -2.07196 -1.87231 1.20836
368 1 5.01695 -5.9383 10.2968 1.73946 -6.80078 0.201184
377 1 15.1538 0.584196 12.454 0.723623 -1.90246 -3.66963
1597 1 15.7937 -23.9672 6.25806 -1.44466 1.35148 -0.540759
387 1 2.98783 -21.0886 0.396674 -6.75041 0.743218 0.952592
390 1 10.8187 7.11503 6.99636 -4.56136 3.67084 1.88635
391 1 20.5901 3.66921 18.1031 -3.41603 -1.49499 0.155568
392 1 20.0593 -9.53261 16.4757 2.58325 2.44646 -1.43316
2944 1 8.59216 -23.0314 14.9211 -1.18904 -1.50907 0.643608
1716 1 14.962 -24.4269 22.166 0.322637 -4.19724 -2.3369
3314 1 0.503806 -4.11173 8.27712 -0.480147 -1.85741 -2.82786
407 1 5.11321 -12.2494 15.7518 0.550141 0.277796 6.15304
1682 1 2.46803 10.2582 2.70961 4.00921 -2.95408 1.45317
432 1 6.85381 -2.25529 9.94363 -0.99591 -1.18373 0.333329
442 1 5.34788 3.27632 15.7801 -0.707143 1.80333 0.621322
450 1 15.0268 -19.5736 6.51793 1.1695 0.851026 5.10637
455 1 13.786 -13.5641 12.4255 1.31505 -0.0917975 -1.62944
2185 1 6.92689 10.1595 18.1604 3.49366 2.15521 -1.40265
295 1 0.344811 7.19859 11.2814 1.28269 2.07558 -0.809077
479 1 18.288 -16.8069 13.9852 -0.731217 -0.7302 3.96652
480 1 1.77564 -9.51798 10.8683 -1.98104 2.56039 0.107335
2635 1 0.149778 9.52021 20.4819 -2.77323 0.169048 3.42827
494 1 4.23105 4.29246 3.4413 -0.615443 5.75184 4.47959
502 1 14.3995 -13.7655 17.5215 -0.0772842 1.70657 3.84014
510 1 8.42115 -15.5917 13.067 1.66583 2.14337 -3.12262
511 1 9.57012 -13.1721 4.42717 2.05224 1.58771 -0.569892
512 1 1.16229 -4.10467 20.9001 -2.16328 -2.15644 -1.47729
898 1 18.0835 2.47742 22.0438 1.18045 -1.79575 -0.198909
522 1 4.70698 -16.9158 8.56954 0.610157 2.00974 -2.52946
2679 1 7.09194 -0.369912 1.97827 -4.67315 0.993547 -4.49188
1328 1 7.89662 11.2292 6.67984 0.342254 -1.24938 -0.554313
365 1 0.822343 -14.8846 18.7735 -0.878303 -2.44725 -4.80292
537 1 10.2283 -5.26634 3.07167 0.810255 -0.244361 3.67861
478 1 3.33523 -2.28078 23.5688 4.041 2.12393 3.86529
548 1 10.7466 3.37598 17.5422 1.17195 -2.77236 -0.543932
561 1 7.11006 -22.4211 19.5342 3.54095 3.13292 -3.6516
563 1 5.67278 -21.5816 8.22719 0.306302 5.07173 -1.87419
565 1 14.8597 -20.8734 21.6416 0.896127 5.39182 3.688
568 1 7.17236 -6.97195 8.64876 -1.7981 -4.16466 -1.4496
3054 1 21.587 -2.16809 22.4723 -3.70563 0.730755 0.995024
3682 1 23.1096 -23.4448 17.5351 1.1302 -4.64693 1.46331
573 1 18.3114 -5.65338 6.82244 0.837194 -0.691001 3.37451
3199 1 13.8363 -24.1426 8.23738 -6.36581 0.439136 1.03434
591 1 22.8467 -19.2678 12.7137 1.31439 -0.934691 -0.251442
598 1 14.8779 -14.1762 4.77836 -2.91262 -2.5913 4.79589
599 1 9.33697 -13.8575 14.9876 2.08854 -0.81663 3.53203
1719 1 19.8686 8.44181 0.400412 -4.49768 3.31485 1.86537
609 1 10.4463 -19.8259 20.8086 2.56411 0.573138 0.325123
610 1 18.9217 -3.53039 14.6314 -0.133744 -2.48482 -0.40665
615 1 11.7565 0.735784 18.6604 -0.518613 -0.0499644 1.20153
616 1 15.2998 -2.58751 20.6762 -1.37947 -2.88321 1.21729
618 1 13.351 7.53011 8.32749 -4.33137 -0.0617847 -1.72489
619 1 15.4793 3.53796 9.49875 -0.241708 -2.07902 0.943182
623 1 21.9081 -14.0061 5.03589 1.7385 2.66505 2.22433
640 1 1.08415 1.89647 3.31587 1.90196 0.310314 1.46786
643 1 11.1862 -18.8036 8.57127 3.96893 1.0589 -2.28462
649 1 9.71084 -15.7993 20.3016 2.49896 -3.08476 4.35449
659 1 8.86416 -0.146057 19.219 -2.03394 1.9354 -0.58153
660 1 7.42237 4.70825 7.42971 2.31959 0.152936 -0.804552
662 1 3.41602 -7.09597 8.10886 -3.59316 3.30046 2.63689
669 1 10.7056 -16.7023 11.561 -0.705994 5.83231 0.0344533
676 1 8.11739 4.14059 16.8312 3.81718 1.31806 1.23393
685 1 21.8016 0.0328357 8.65327 -0.30483 -4.72288 1.50159
158 1 7.85109 8.45064 1.22308 -2.83386 -0.123451 1.14129
694 1 8.41685 -17.342 2.08362 2.52292 2.65419 -0.873803
701 1 16.3348 1.70172 7.36743 -1.78641 -3.13863 2.86804
706 1 4.54409 -0.551514 21.4674 0.763536 -5.33609 6.06468
712 1 4.76964 -9.42603 14.4452 -2.62105 -0.080644 1.80967
713 1 0.12704 6.2087 4.53671 -2.45199 -3.55729 -0.119508
719 1 14.5482 -5.04267 10.4531 7.09449 -0.339807 0.577375
735 1 14.6477 9.18586 6.59864 1.21149 2.39718 -4.3095
737 1 19.7236 -15.8487 4.6913 -0.462619 2.42169 3.58494
747 1 11.3651 -10.1222 3.257 -1.60888 -2.52824 -0.86697
752 1 22.0291 -17.948 4.66255 -2.42427 -1.15143 -3.88395
482 1 23.1269 -2.70421 20.0759 -1.16538 -3.73895 -0.601319
763 1 18.1683 7.21691 9.31581 -0.904312 0.89348 4.2516
764 1 20.947 4.37271 6.66091 -0.490408 -1.25395 -2.31403
2975 1 16.9589 9.34911 0.408802 0.792742 -3.68713 0.165722
771 1 11.926 -14.2914 10.516 0.101398 0.591352 1.92244
772 1 4.19342 6.29111 7.47481 4.19523 4.43309 -3.96732
773 1 10.93 -20.6176 12.1878 0.697407 -0.658882 1.62978
1543 1 0.137325 0.0815655 13.9506 0.271954 -0.612428 -0.767361
783 1 5.57999 -17.8312 21.2719 -3.84734 2.26909 2.86785
790 1 4.86197 0.424562 14.6798 2.82531 -1.11613 0.683215
2639 1 0.636345 -6.41421 17.9127 4.7881 -3.58891 -2.22547
795 1 20.5667 -8.85905 20.6578 0.416113 1.30614 7.36271
816 1 20.217 -20.7698 19.0929 0.617706 0.267092 4.87486
817 1 10.397 -11.5007 13.7133 -0.177731 1.16482 2.05708
822 1 23.1433 -16.0334 14.9705 -1.98311 -2.96117 -1.38723
823 1 8.95106 -10.2939 1.89899 -2.70984 -3.07445 -6.2059
3346 1 10.572 -24.0011 1.00004 1.82033 -3.90159 2.43996
836 1 8.31482 -14.3514 22.1755 -1.99384 2.39921 0.308757
838 1 22.3685 -19.5895 2.17345 -3.22109 7.62606 -5.41816
840 1 4.6469 -17.1709 13.6082 -2.18941 -3.46912 -1.42351
841 1 21.3409 2.70965 9.33554 7.69216 -1.11972 -1.98049
843 1 21.8953 -7.95953 18.2101 -3.21567 -1.44811 0.895526
858 1 17.9553 -12.1844 13.8777 0.595768 -5.90414 0.19912
863 1 15.5374 -16.878 5.54037 -1.19 2.69949 -0.860249
3375 1 21.5101 -10.6206 0.109077 -0.730906 2.46493 -2.31949
866 1 14.6345 -1.2258 18.0804 -2.44794 0.942981 -0.579703
2685 1 0.598958 -8.14681 4.04106 -2.62353 0.0819737 -0.275785
877 1 3.80378 -17.0044 17.3 0.668368 -4.78181 -0.591568
887 1 9.34575 -23.3031 18.0231 0.720067 -1.79841 -1.75671
890 1 14.7565 -19.3482 14.7899 -1.63738 -2.53993 -1.51647
3683 1 5.56792 10.5541 4.93278 -0.212439 2.58004 0.873087
895 1 2.681 -23.4061 5.42262 -1.63561 1.43578 -4.34569
896 1 12.1471 -2.35164 18.3225 -5.4067 -2.88274 1.27459
899 1 15.7378 -20.0259 17.5569 1.67258 2.60844 3.37382
901 1 -0.297657 -17.4327 9.39742 -3.30883 1.70692 0.774187
3753 1 8.82194 -2.91691 23.7279 -4.08425 -0.643257 -5.23826
909 1 17.2218 -21.176 11.2008 -6.50432 0.964259 0.997308
150 1 22.3709 10.9663 17.9686 -0.833762 -0.718878 2.26817
926 1 2.02785 -16.8137 7.75794 1.36735 4.86017 -0.32612
928 1 9.38721 -18.9396 10.5367 2.27693 6.48667 -1.30493
938 1 18.6304 9.39925 5.44171 2.12192 4.25642 -0.564466
943 1 19.2222 -3.31016 0.0810622 0.783747 0.253931 -2.59966
945 1 5.83691 -20.6277 17.4164 -2.43403 -1.95446 -5.41888
953 1 17.4225 -1.98342 2.27192 5.29188 -2.27186 -2.03134
969 1 16.4924 -20.98 0.632557 7.43254 -6.56822 2.79316
2852 1 3.16552 -5.0993 2.08374 -2.72761 0.754054 -0.748595
977 1 3.56196 -23.1799 14.5387 -3.27156 -1.92432 2.83167
990 1 11.776 -7.74735 12.7448 1.69425 0.289029 0.230662
3875 1 23.0998 0.0580182 6.07317 2.7157 -1.51122 -3.19145
1003 1 13.9621 -15.6798 9.22209 0.300428 -0.112616 1.92364
1007 1 14.4644 1.54439 19.3972 3.55171 -3.04656 4.69301
1008 1 5.23482 -4.15506 14.3064 -1.8575 -0.0717856 -2.4486
1009 1 9.60335 -15.6008 6.40092 -3.53099 7.71565 6.93029
1013 1 4.98863 -18.8256 0.796991 -4.66053 1.58935 -3.08685
1023 1 11.2994 -1.7805 5.01992 4.40497 -0.0748698 -1.42237
1032 1 11.3967 7.47235 20.2574 0.190702 -3.05944 4.05642
1036 1 6.8638 -11.6973 22.57 1.32021 1.8598 3.05697
76 1 23.2361 -3.23459 2.49463 -1.42034 -1.23647 -5.17104
2601 1 -0.403994 9.25968 5.41799 -4.92735 -2.01411 -1.30296
1051 1 3.63681 -0.163871 10.1683 -2.78916 -4.66773 -3.68141
1064 1 12.9662 -17.1666 4.32074 -1.83211 -3.57386 3.82709
1078 1 9.80684 -8.68899 11.276 -2.27458 0.501845 -0.588248
1081 1 8.28874 -9.62107 18.1273 -0.187931 -1.24741 -4.38935
1093 1 22.768 8.61446 4.21846 -2.04175 -0.938391 -3.46888
2035 1 13.7447 -14.4806 23.3079 5.23198 -1.57237 -1.08678
1100 1 12.4789 -3.4119 21.1536 2.33093 -2.29065 -0.932483
1101 1 5.45576 -14.6068 10.1876 -1.42024 -3.67672 -2.11177
1102 1 15.8154 -16.4116 15.5268 -0.436301 -1.87322 0.288497
3658 1 22.2097 11.1621 12.1244 -0.501198 -0.283097 1.30086
1107 1 5.26102 -13.7962 0.631912 -2.33058 1.08002 4.13998
1111 1 14.2813 -7.63486 8.89791 -1.83984 0.967982 -1.62838
1119 1 9.65868 -9.05287 5.64865 1.01835 -1.70678 -1.05087
1132 1 22.1833 -5.26146 19.0636 -5.20837 -0.89885 -1.06186
1134 1 14.0483 -22.0342 18.9844 4.07766 3.9216 4.36005
39 1 4.5559 7.72062 20.7286 3.3501 0.354386 2.09253
1137 1 4.24372 6.32224 1.48552 5.2352 1.13146 -5.02353
2931 1 1.52406 -6.7503 22.2252 -2.99239 -3.75468 5.93459
2552 1 0.0666584 -9.8798 8.53323 1.37407 0.454295 1.55205
1155 1 7.32228 -17.6864 14.4149 1.64009 1.0919 2.07454
2121 1 8.21365 -19.5838 23.838 0.444273 2.68303 -4.6325
1162 1 9.87008 10.5972 1.42282 1.83567 -1.17878 2.48453
1169 1 12.7153 -5.25638 16.7704 3.43222 -4.45701 0.174965
1173 1 7.45722 -19.7999 20.9429 1.03847 -1.18877 -1.71251
2607 1 13.0966 2.51243 23.3076 -1.68437 -2.15019 5.14131
352 1 13.0881 -0.412976 2.17814 -0.131937 -0.822419 -2.0001
2900 1 17.032 4.84558 23.2577 0.626506 -3.62727 -1.87309
3822 1 8.49731 7.30618 8.47569 1.46262 1.0193 -3.70868
1193 1 10.5258 -5.2575 14.7463 0.205746 1.1757 -1.91488
1198 1 21.1057 -23.1632 11.6969 -1.02141 -1.2782 0.419248
1200 1 13.5083 -9.57949 11.0338 -0.796497 0.27239 0.0958216
3777 1 15.6787 -6.6719 0.220077 0.844228 -0.526889 -1.04085
1811 1 1.48514 4.59279 21.435 -0.988335 0.397419 0.921468
3802 1 8.19327 -0.0398891 23.9598 1.93119 -0.67564 2.03689
3996 1 5.69755 -16.1621 2.13738 0.635943 -5.86023 -3.8838
1217 1 15.7976 -13.5781 1.21048 -1.97049 5.37222 -0.890805
1477 1 18.4159 -0.172982 0.0273988 4.20789 -2.44238 2.0514
1224 1 18.4687 -5.97931 13.3901 -1.83543 0.278117 6.98327
3179 1 1.57137 -0.552002 18.4893 -3.96163 1.88982 4.46113
1135 1 7.465 -1.39907 21.3961 -2.71003 0.616996 0.194365
1248 1 7.9902 6.65063 15.6607 0.870023 0.467169 -0.606048
1250 1 7.4976 2.34657 19.1734 -3.38713 -0.221778 -2.89023
1251 1 22.6988 -0.0893904 18.6663 3.82987 0.950186 -3.02119
1252 1 18.1363 -17.3828 1.33185 1.06429 2.49345 0.46944
1259 1 19.9152 -10.1049 7.60379 2.523 -0.595261 3.89303
1266 1 15.4265 -7.22113 2.96796 1.20871 1.70685 1.68286
2677 1 -0.247919 -22.0298 3.63079 1.1773 -2.01943 1.21374
1269 1 8.34465 -5.55924 19.6865 -0.911303 0.557051 0.289261
3037 1 1.87567 -10.5921 4.36251 0.713799 -0.882007 -6.09921
1936 1 19.9111 -22.2573 23.6508 7.44869 -1.03961 -4.53665
1275 1 4.15134 3.77717 11.3032 2.14506 -0.236048 -3.33092
1281 1 14.4621 -10.9623 17.7784 -1.92271 -2.47059 1.15217
1284 1 7.56006 -12.975 2.32223 -3.37735 1.03035 1.99147
1287 1 11.0872 -17.4488 17.0443 3.1829 -1.3526 -2.60943
1672 1 4.76625 11.0943 23.2974 -2.05026 1.11623 3.88135
1323 1 16.291 -8.36446 13.7144 -5.02996 1.49096 -1.0732
2366 1 9.19377 6.35809 2.7461 -1.11001 -0.250674 7.37596
776 1 10.5222 1.34493 22.9369 1.85512 -0.108423 -1.6503
1337 1 8.17972 -22.6632 8.34442 0.821856 -4.13218 4.27262
1339 1 2.83612 -13.7289 20.8404 2.52229 -2.56315 6.00328
1341 1 1.13402 9.76202 12.7262 -1.63009 4.89704 -3.64602
1344 1 19.8269 -6.73792 2.80332 -3.34224 -1.41751 -5.25261
1349 1 1.27321 -13.9114 7.48502 2.12731 0.0919771 -1.13033
1351 1 16.5312 -15.8464 18.3414 -2.08539 2.62294 3.65394
1360 1 18.1117 -12.3273 7.1492 7.05943 0.551627 -0.576464
3631 1 10.1554 10.8649 18.3145 2.61605 1.29474 -1.82684
3203 1 18.1343 10.4414 20.3369 -3.75294 -3.94481 -0.775707
1375 1 17.5901 -5.68883 4.09423 1.03697 -1.84565 -0.691912
3817 1 1.88798 7.08465 0.173147 0.529507 1.523 3.54757
1382 1 16.1738 -13.41 8.79436 -3.21094 -1.96328 3.24113
1388 1 17.1797 2.3783 16.5125 -3.96865 -2.16453 -0.269973
1390 1 8.52272 -0.753128 11.9097 -6.15743 4.36687 6.50038
1392 1 19.9244 5.22232 3.96303 -2.30665 0.231208 -2.13283
3728 1 13.7743 -6.95434 20.3266 -3.21462 1.78355 -1.71201
2054 1 13.1359 4.26037 2.24844 -4.09059 -3.6389 2.34243
2496 1 6.51642 3.48679 22.5248 2.87726 -0.992326 -3.32299
1404 1 21.9836 -11.2808 9.10924 4.95898 5.87326 -0.407696
1417 1 13.0382 7.03201 11.0936 -0.52765 -1.11721 1.04893
218 1 9.2427 3.70699 1.42776 -4.10833 -2.6752 -0.376383
1426 1 7.54582 -19.3773 4.23269 0.77662 -0.600137 -0.240202
1443 1 19.6276 -14.5365 17.5572 3.42729 -0.757726 -1.54617
1445 1 13.9822 -19.6537 9.25445 1.83743 4.60327 -7.42994
1449 1 8.25213 -2.7728 2.83329 -0.356414 -1.11671 -1.53524
1463 1 5.09607 -1.88938 15.9481 0.753056 3.35839 -3.98353
1464 1 5.13873 -20.1963 3.37717 1.48246 -0.0264264 -1.48865
3365 1 0.643005 -10.7212 13.2659 0.810253 -1.65481 -0.13371
2415 1 21.9564 -24.2252 23.7818 -1.72132 -3.44988 0.227677
1479 1 12.0536 -7.67653 6.91795 -6.69804 -5.68961 0.325861
3624 1 22.2841 -7.70994 4.26765 3.83861 -2.75486 -0.825282
1499 1 17.1799 3.02808 19.3609 -2.08701 1.36377 -4.99632
571 1 1.17925 -11.2725 20.2364 -0.833785 -0.971956 -5.02429
793 1 22.0879 -10.3927 3.00906 -0.593695 1.27323 -4.29606
1531 1 7.47508 -7.2441 11.6134 0.881395 -2.85765 0.37067
1535 1 3.37664 -7.37341 12.4979 -0.778841 0.930705 -0.507586
3925 1 22.8562 1.63138 2.15989 -2.11914 -1.32958 -1.78454
1566 1 4.44563 -9.87052 7.69439 0.0420633 1.9124 3.61699
1574 1 17.7995 -18.1296 4.05822 0.544469 3.7716 1.38303
1577 1 14.0478 -23.092 4.09764 -0.102965 1.53413 5.60203
1592 1 18.6262 8.46724 11.9159 -0.693921 2.23626 9.68201
1151 1 22.3859 -23.7022 21.1259 -0.603234 2.08168 3.75927
62 1 1.31296 -10.3854 17.2835 1.26385 1.67382 -0.337401
1793 1 19.3636 6.06022 22.38 -0.988501 3.0167 -6.32095
1626 1 13.739 1.15165 16.377 -2.41706 -2.53058 2.27125
1628 1 19.0067 2.55584 3.54985 0.767878 -2.24672 -0.0510517
1630 1 10.7257 -8.46796 18.7931 0.927495 -1.06378 0.0358316
1636 1 20.7478 -9.67122 11.6708 -2.11586 1.12369 -0.424922
1641 1 20.9007 -11.8323 20.5072 1.38465 1.98778 -0.550449
1653 1 13.9078 -21.7034 1.42633 -4.20396 3.39293 4.04162
1654 1 4.73186 -18.4499 11.1145 0.729817 0.524147 4.99764
505 1 0.0773902 9.24856 23.2421 -4.82456 -1.75755 -4.16424
1673 1 2.85966 -18.6266 4.53534 2.31682 -1.03741 -0.690579
1675 1 1.59962 8.37676 15.2801 1.03758 4.25218 4.2836
1524 1 0.882726 -19.4576 6.56943 2.18814 2.5577 -0.465732
1042 1 12.4328 -6.82581 22.8892 5.21273 1.19547 -0.269975
1686 1 11.6524 -9.12034 21.4811 -2.70815 5.33254 -0.54791
238 1 18.1681 -1.572 20.9858 5.75742 1.41788 1.81057
1696 1 11.459 -2.66061 2.32851 -3.46653 -1.67238 1.1031
1699 1 11.2622 1.06176 14.6855 0.668738 4.86113 0.858626
1702 1 1.65042 -20.9556 13.9803 -0.615673 -1.7732 4.94908
1472 1 22.4839 5.62837 16.6217 -0.991876 1.24763 -3.99648
1721 1 7.88715 2.06816 11.3096 0.867823 2.96942 -3.55744
1924 1 22.5234 -16.0502 0.381034 -0.428184 1.57758 -1.49655
1732 1 14.2361 -11.7787 7.71275 -6.17699 -7.04948 -4.49908
1736 1 17.1782 5.08508 11.0525 -1.91518 0.921411 0.847371
3132 1 3.53513 9.84646 6.95174 1.11769 3.7495 -1.66157
1743 1 19.4455 -16.154 7.39494 2.11848 3.33345 -0.20363
2914 1 0.229589 -1.52109 11.6765 -0.123465 0.169905 -2.85821
1751 1 2.00654 -8.54642 14.8291 -0.593407 2.35495 2.91918
1758 1 21.363 -20.3074 5.96077 -0.678418 -0.94027 0.0874512
1188 1 1.54221 4.76211 2.31273 -1.26038 -3.10037 -10.0847
1768 1 12.4963 -1.72254 10.3363 2.56076 1.38122 2.44831
850 1 17.195 -21.5036 23.6908 -2.45434 -0.327241 -2.94066
1774 1 17.2526 -17.4714 22.1614 0.811084 -0.875605 -5.50684
3908 1 23.2881 -16.1016 10.0343 1.64235 5.71572 -1.16737
1806 1 14.6673 -3.85622 13.9993 -1.50457 6.36249 3.86536
1808 1 20.9865 -11.9482 17.8347 -0.747301 0.909384 3.19213
3891 1 8.78986 -17.9931 18.9983 3.63443 0.178145 1.67035
2706 1 1.83242 -19.0398 22.5602 -1.54874 2.89128 2.14424
3850 1 19.6578 -19.0406 22.4503 -0.898048 -6.1857 2.54448
1826 1 21.2185 10.2795 2.16989 -2.60956 -2.8245 0.663483
1837 1 14.5161 -22.3412 10.3804 -6.33686 4.74002 -2.58144
1842 1 12.1468 -19.5265 2.84731 -2.58252 3.06774 0.258535
1846 1 11.6818 -23.1872 6.58529 3.31411 3.85372 -2.45119
1847 1 19.9529 -14.4274 20.3126 1.49383 3.72863 -5.74077
1853 1 3.60218 -13.5077 6.02094 0.47 -2.4274 -3.26691
1271 1 1.13851 3.70272 17.1887 0.994181 -0.862733 -0.325694
2696 1 21.1346 -16.9772 21.2035 -0.359196 0.448023 0.344943
1860 1 6.02749 0.259525 8.70168 -0.00640925 1.94641 -0.826276
1871 1 17.2173 -12.6149 4.47082 -1.45502 0.654276 -2.85866
1881 1 8.2283 7.15822 21.6344 -9.42381 2.70289 -1.34176
1887 1 19.1149 -6.8577 17.9244 -1.57507 3.60221 -3.19879
1893 1 5.33748 1.13787 23.6304 -1.56367 2.48399 3.27144
1909 1 13.0464 -11.0074 13.3898 1.33215 -0.952205 -1.14972
1914 1 17.6627 7.11621 4.46041 1.21291 2.47278 -0.596939
3580 1 2.13439 -11.1452 7.06393 1.75813 -0.150986 -1.55885
3189 1 12.1325 10.7736 6.39923 -2.96831 3.64404 -1.40119
601 1 0.393579 -2.1601 22.8677 3.87728 2.8002 -4.74237
1935 1 18.4094 -14.764 2.56653 0.503275 3.21423 1.24786
2385 1 0.269468 8.41026 2.57643 0.236241 -0.062046 1.01556
1937 1 3.35175 1.75027 17.2255 8.37942 5.45551 2.94857
1938 1 3.69539 7.23262 16.8358 -0.0295982 1.77722 2.39787
3827 1 0.509142 6.06561 19.2054 -4.5402 -0.714173 1.89278
1954 1 5.22348 6.63873 11.4864 -0.212644 4.30435 2.95746
1958 1 14.039 5.43765 13.1338 3.13351 -3.18014 0.878693
1965 1 16.0593 -5.26746 20.0952 -0.820874 -3.10065 4.74418
3848 1 6.60828 -16.26 6.79392 -3.21814 1.24962 -1.98175
1973 1 12.7251 -16.3309 20.0048 -0.661776 -4.13924 -5.80186
1974 1 18.2642 -9.26354 9.89694 -0.202903 1.71276 -3.86985
1977 1 16.0895 -10.212 11.5323 2.22018 -3.99083 -0.746594
1978 1 10.1688 -5.02194 22.1547 1.15679 3.04687 6.09273
1986 1 13.8547 -4.34451 2.64923 -2.70529 -3.18591 -0.30373
3962 1 4.49031 -16.0738 4.81525 -7.11893 -2.71589 3.99054
1995 1 0.799088 2.37339 12.4579 0.533151 -3.89816 2.79589
2005 1 6.20122 -3.63813 19.7133 1.77996 2.11561 1.96747
2012 1 19.1054 -20.5799 14.5049 -0.766198 1.65071 -0.999243
2017 1 10.4068 9.11385 22.484 0.987971 -1.74323 3.38132
2024 1 11.6001 10.3689 13.0409 1.61554 -2.84436 2.77031
1225 1 1.48205 -17.5877 19.1697 -2.02017 -2.83407 -2.34325
3107 1 19.9894 -12.8021 23.4595 -2.79951 -3.60599 -0.899939
2038 1 17.0764 1.10881 10.1713 0.940045 1.57459 1.06842
3138 1 19.4668 -4.09669 22.1209 -2.47678 -3.82783 -1.56295
3871 1 19.1304 1.10838 18.4178 -7.59499 1.24136 2.75497
2044 1 2.42074 -3.89339 4.6283 0.879048 2.36126 -4.95507
2057 1 15.885 -2.8534 6.93387 1.11652 4.61312 0.576941
2059 1 3.53289 -7.09375 20.45 -0.400971 -4.40068 -1.76638
2066 1 20.6109 6.79456 8.15349 2.16114 1.43942 -1.91184
2090 1 17.1664 7.59621 15.8253 0.430165 -1.1055 -4.33013
2146 1 3.95216 10.7838 18.7498 -2.64875 -0.58483 4.77034
2099 1 15.5326 -9.82442 6.14287 -4.57261 -1.56487 -2.25803
2125 1 0.293197 -14.9367 15.6719 -0.941676 -1.11728 -7.40556
2111 1 21.3994 -10.1882 22.9271 0.221816 2.2178 -0.0161921
115 1 7.3015 8.14871 4.49004 3.15965 4.8481 -1.30271
2116 1 20.1594 -3.44809 6.61636 -4.38233 -0.781881 -0.687942
2120 1 16.9714 -17.5374 10.6466 -0.409028 1.26445 -1.40232
3014 1 23.0298 8.09955 22.9375 2.31897 1.76373 -4.51312
1105 1 18.8548 2.93437 0.497537 2.87071 -1.0819 -1.34496
2140 1 11.7106 -14.579 16.7082 -2.61721 -0.115517 -2.50141
2144 1 3.96757 -2.8773 6.89965 -1.73905 -0.399587 -1.26449
2235 1 8.74893 -24.1436 12.4032 -0.583399 -3.13129 6.36535
1 1 23.3012 -22.0238 12.8507 -4.20467 -6.69092 4.27971
2147 1 3.17019 4.91046 15.4375 -0.859628 0.482462 -2.75906
2148 1 11.0611 -22.4445 20.1636 -5.27489 0.803037 2.83113
1651 1 13.3836 -17.9757 0.821425 -3.77682 2.41354 2.30058
2155 1 14.8211 3.76555 15.7432 2.66349 -0.729277 3.31216
2159 1 2.46945 -20.1527 11.3296 3.13382 -1.48227 2.26958
2163 1 7.17518 -7.94874 14.1244 1.29545 -0.48665 1.6719
2175 1 12.7377 -22.6748 12.3745 0.318147 -0.621197 1.91131
2176 1 10.1825 -18.8982 14.4671 2.9746 3.02317 -0.976588
2179 1 11.5734 -4.10765 6.8253 3.38653 1.63443 -3.53385
2183 1 4.16347 -3.10854 9.797 0.339222 -2.34176 -1.69766
3252 1 17.5252 -23.6977 15.5344 0.0978941 -3.82729 1.16193
2187 1 17.1343 -4.30429 9.04153 -6.02424 2.7441 5.37544
2191 1 13.0509 10.759 3.5914 1.65054 0.839954 -0.56051
2883 1 11.158 -14.0606 1.445 -2.86694 -0.513635 3.00548
658 1 21.6693 11.097 14.9954 -1.50103 2.41129 -1.33355
2217 1 11.8821 -11.155 18.5515 2.84284 1.04274 -2.39294
2221 1 21.3088 4.92498 20.5624 0.331068 2.97574 4.9683
2222 1 1.64887 7.66382 6.78118 0.0950333 2.09269 0.948187
2226 1 20.6301 -0.131593 14.4256 0.632394 -1.038 -4.13021
2229 1 20.2828 7.74867 14.0411 1.36754 0.140754 0.258251
2967 1 -0.0369126 10.6455 8.29955 2.62655 -1.27701 -1.45046
3964 1 9.7364 10.2885 15.5327 0.356804 4.2307 4.07386
125 1 14.1168 8.29273 1.14486 1.07878 1.6495 0.179545
2884 1 9.49857 -7.59476 23.9014 -3.2521 5.919 -1.58512
3938 1 19.2211 9.611 15.9025 4.59613 2.10811 -4.30082
2286 1 7.23612 -9.24481 4.07812 -2.94897 -1.68617 3.74859
2290 1 15.3805 -9.38121 20.0106 -1.41404 4.66825 0.699715
2293 1 1.88017 5.2766 12.9022 -2.28185 -0.157236 7.44651
2301 1 4.46436 -21.9628 20.5219 0.955323 -2.89484 -3.12296
2250 1 -0.303947 0.208881 9.48986 1.5763 -2.28769 2.13654
2310 1 6.71891 -18.9615 9.06151 -0.0861505 2.81422 -2.95626
2311 1 5.60667 2.10506 2.04977 -0.731052 -1.7638 -0.464749
2319 1 6.81372 -9.64994 9.58824 1.99719 -5.25823 0.972068
2329 1 7.93385 6.09363 12.8645 1.29448 -2.08188 -3.13137
2330 1 13.3748 -21.9843 14.9786 1.34939 5.39206 -1.23135
2332 1 20.8611 -14.6942 10.6837 1.1123 0.325759 -2.84911
3878 1 9.97573 -20.8819 6.72727 0.855808 3.21574 2.50194
2340 1 10.1801 7.84512 14.0589 0.77679 -6.52575 -3.42589
2025 1 3.52612 -10.1313 23.7686 3.31936 6.16396 2.97112
2348 1 8.44798 -1.3717 5.38409 2.23121 4.77907 -0.117333
2353 1 13.1861 -1.58756 7.5378 1.62731 2.06654 1.26281
2359 1 7.62361 9.84333 9.24231 -4.8632 0.336629 -3.95683
1418 1 18.3089 -5.87378 0.580951 -4.90199 3.51231 7.15487
3776 1 8.72677 -5.01807 16.9549 -0.2121 -2.75422 3.35393
2369 1 20.2281 5.01363 14.7477 -1.51689 2.50397 1.13308
2378 1 7.64716 -2.38723 17.3846 2.45465 2.62679 0.531052
2380 1 11.0645 -13.2751 23.168 2.87603 3.08698 2.37501
201 1 8.91729 2.84533 21.5167 -1.38178 0.770658 -3.51695
3536 1 23.4195 -14.8986 7.391 -2.60306 1.305 -1.45582
2386 1 0.827987 -2.01106 3.09564 1.53322 2.82652 2.08577
2389 1 8.32409 -11.2722 11.6528 -3.46757 -2.00028 2.49694
2393 1 4.76114 -15.5133 19.7733 -2.43485 1.51248 -2.82494
2400 1 12.1495 -2.94067 15.2752 2.61412 -1.36021 0.736359
3909 1 4.20629 -11.6073 19.1448 -2.74326 -3.50973 5.00549
2427 1 14.9013 4.364 4.56429 3.99153 -1.12844 0.421667
2428 1 13.4193 -15.0611 14.8299 -0.555219 -2.60825 2.62104
2433 1 21.7241 -21.0354 21.407 3.03562 -4.48306 0.640017
250 1 1.15851 -1.58203 6.82984 -6.81502 -2.96619 2.77287
2449 1 18.7777 -22.8966 13.1345 2.38439 -0.754646 -2.24202
576 1 23.0621 2.5291 17.0006 3.02747 4.9663 -2.36429
2451 1 8.98965 -22.1564 4.10103 2.36066 -0.120936 -7.67497
2455 1 14.4735 8.718 15.6774 -6.36191 -0.484565 6.68867
2467 1 0.856484 -17.7794 12.0804 1.99085 -3.24741 1.90998
2497 1 5.53717 5.39286 18.0335 -1.59013 -3.34045 2.61152
2511 1 4.72635 1.97793 19.7521 3.14723 -2.12494 0.39717
2513 1 21.3231 8.89009 6.34932 1.99854 1.86436 -1.18109
3832 1 20.8489 -1.33725 1.8215 3.60049 0.372588 -1.47311
2515 1 1.3684 -19.7253 2.37905 -0.579609 -4.80352 -2.6185
2521 1 12.1938 6.72584 16.05 2.9309 0.8549 -0.834135
2527 1 5.9991 3.05116 9.25448 4.37474 -1.23755 0.398616
2535 1 15.4034 -5.16008 17.236 -1.09992 -2.36451 7.28409
2539 1 17.113 -13.0511 16.3341 -1.94672 -0.778846 -0.587143
2540 1 22.5042 -9.75364 15.147 1.91468 -1.2792 -1.17432
2541 1 3.45355 7.82864 13.1447 0.213363 -1.39843 0.695471
2544 1 12.5747 3.68879 6.0264 -1.73889 -1.56571 -1.65109
2560 1 20.7956 -22.6961 9.12192 4.40219 -0.561543 1.07693
1613 1 2.08929 -16.6661 2.15901 -0.00134317 -1.38744 0.548681
2571 1 14.1086 -0.257036 21.8357 -1.20454 -0.350326 7.48157
2585 1 17.1306 -14.5535 21.1045 -0.589198 0.591771 -1.03925
2587 1 17.189 -21.5169 6.49796 -2.75896 1.59034 -1.01648
2594 1 22.546 -6.75789 15.5196 -1.35179 -3.81366 6.39195
2621 1 5.0488 -22.1712 5.60583 1.35474 2.87744 -3.89751
3209 1 11.3565 -16.2766 22.7539 -1.27445 -4.02326 2.24351
3899 1 6.93643 10.9407 15.4624 1.22772 3.50223 1.86814
2645 1 5.92665 -21.8908 14.8447 -2.368 3.9924 -3.56855
2648 1 15.4323 -0.5845 4.10449 -1.09998 -2.30341 1.81437
2661 1 7.11666 7.49363 19.1662 -0.466404 1.58143 -6.02339
2666 1 20.096 -19.5306 0.806993 1.59098 -0.792917 0.07443
2669 1 2.98547 -7.74811 17.3581 -2.38219 -1.35659 -0.660418
2672 1 6.92741 -4.23954 12.1681 -4.75199 2.89162 -3.36988
3969 1 17.9228 -20.762 20.9299 5.87512 3.08532 -3.39626
3786 1 22.6772 7.44892 20.142 1.56377 5.48637 2.3133
2695 1 14.3432 9.04247 12.9191 -2.51275 -6.17733 1.09539
716 1 1.62205 -23.3662 8.44556 2.89907 -4.84014 -4.92543
2698 1 14.4623 -13.9904 20.4964 3.55461 3.49397 2.527
2704 1 2.46897 -23.1342 2.53755 -1.85404 1.41901 -2.69936
2797 1 14.6944 -10.2997 22.6447 5.71632 3.96007 -0.0404288
2709 1 18.5717 -1.69959 18.2019 3.85961 2.22322 0.217896
2719 1 19.3076 -9.54042 2.89667 5.42208 -0.424663 -1.6314
2721 1 2.8575 -13.5627 9.9822 2.99476 -1.68138 1.6129
2728 1 22.0083 -3.26337 11.6685 -1.79928 -6.4407 -0.630645
2732 1 0.0802999 3.44187 5.64459 1.90251 -0.685434 -1.55674
2734 1 18.1663 -10.6109 20.0499 6.01011 -1.53801 1.54592
3932 1 23.08 5.02356 13.3338 -1.19977 1.29 -1.62017
2755 1 3.93013 -14.7883 15.2536 -0.786908 3.20726 1.67434
2757 1 17.2423 -18.2436 19.467 3.46041 6.45872 4.7864
2766 1 9.75619 7.94622 17.6442 -3.54586 -1.21417 -0.35907
1409 1 -0.0691627 5.49237 23.4429 1.74515 -0.382099 -0.353154
2782 1 9.10613 -9.52696 15.3458 3.95946 -4.39973 -3.9736
2786 1 5.73879 -3.91671 2.35398 1.15667 -0.948257 -3.90906
2796 1 18.4048 -15.474 11.5706 -2.83275 4.13867 -3.83867
3898 1 21.3176 -1.8679 16.682 4.53967 -2.09894 1.08811
2816 1 6.58559 -13.241 19.8343 0.858529 -2.3759 2.74921
2818 1 1.25382 -0.872139 0.0519838 1.15627 2.26434 -3.79511
3953 1 21.2786 -19.3757 15.0157 2.92542 -1.77065 0.750273
2823 1 12.5012 -13.628 6.44501 0.00447124 -4.38481 3.06883
3745 1 4.07532 -11.146 10.3937 -7.05564 3.10462 3.45402
2829 1 18.6529 -20.9589 8.78775 -0.501774 0.460342 -3.12402
2838 1 17.2456 -11.9479 22.4844 0.0118911 1.12532 0.571254
2857 1 17.095 9.60044 8.05107 0.371231 -1.00881 -2.88493
1012 1 0.0814207 4.03201 0.107187 -1.87138 1.41906 3.29044
1677 1 22.113 -18.5924 10.0666 0.634427 -0.257131 6.38726
396 1 9.56798 -20.096 2.10616 -2.10501 -2.4645 2.96331
2872 1 4.99667 8.58579 9.30821 -0.398321 -1.16472 -1.99957
2877 1 12.2436 -5.76894 4.8782 -1.60478 -0.533743 -4.13731
3866 1 12.1804 -16.5638 7.11957 -1.31894 4.8443 -5.13851
3075 1 18.1911 8.66584 22.7461 -2.99341 7.08904 1.86211
2889 1 5.34274 -5.5833 6.58963 -3.31375 -6.13564 -5.24662
2891 1 6.31747 -6.01939 15.8025 -5.59246 -0.846935 1.84226
2906 1 12.6838 5.3903 18.6963 -5.35866 -0.551167 7.00407
403 1 16.7368 0.0598418 22.8819 -2.44018 -1.12845 -0.462574
2622 1 -0.0328492 -17.2017 21.4584 -2.22411 -2.1846 2.08185
2925 1 20.9876 -7.20503 13.1268 2.67909 3.55093 3.49929
3784 1 11.5661 1.78762 2.31824 -3.52678 -4.72815 -5.53491
2929 1 6.13795 -13.332 7.61987 -0.216711 1.77818 5.24805
2968 1 0.766466 -14.2496 1.24161 2.20165 0.47381 3.89607
2042 1 5.63452 -21.1334 23.0128 4.46851 -0.0827446 -1.18311
536 1 2.25437 -7.76054 1.87111 1.18282 1.19097 2.8119
971 1 13.7697 -4.24154 23.6959 -1.73633 0.363327 6.15552
2946 1 15.1225 -2.26608 11.5023 -0.433887 2.30901 0.74165
498 1 22.7875 0.103541 23.7887 2.12968 -3.23832 -0.702413
2536 1 22.8921 -19.5956 23.7036 0.901211 4.46604 3.62494
2955 1 11.3979 -7.87496 15.5776 -0.92276 -5.13732 -3.72338
2957 1 2.4233 -18.5175 15.3241 4.97836 -4.54838 -0.859672
3773 1 1.24918 -3.50803 15.5608 0.0470426 3.13524 0.543173
2943 1 23.1307 7.03573 9.64135 2.86109 -4.53779 2.81507
2979 1 5.73444 8.40066 15.1 6.28085 -2.34454 -3.57177
2990 1 14.2021 -17.6099 17.7017 5.95717 -0.667647 4.27673
2991 1 3.45211 1.48088 12.3522 1.10838 7.7062 2.21441
2994 1 19.0257 2.30694 14.1372 5.72509 1.10984 3.13477
2996 1 11.9002 6.15772 4.35799 1.07598 -1.64345 -1.79387
2998 1 1.81475 -15.6534 13.5114 0.467853 2.44863 1.97865
3013 1 13.0361 -18.76 21.9428 2.45106 -1.27462 2.92593
3022 1 15.6045 -10.7783 1.29379 -3.10644 0.120205 -2.99702
3024 1 22.0571 6.49617 2.43289 4.41293 -0.933149 2.73813
3025 1 3.70026 -22.482 9.99309 -4.78139 -3.31488 -1.03795
2705 1 -0.195295 -4.45797 4.45911 -1.67603 -3.32857 4.84288
3027 1 12.9326 3.75815 10.897 -2.51303 2.4123 1.0638
3029 1 6.32446 3.61831 13.1289 -1.28495 1.11822 -0.740954
3839 1 19.5418 5.83256 0.941919 2.16712 -4.44336 2.89157
3040 1 6.70186 -20.1575 12.6633 -3.30409 -0.633231 1.63219
3048 1 8.65722 -11.2359 20.2897 0.844809 -5.72501 -1.5639
3050 1 2.6823 -24.1291 19.2643 -0.118794 4.71479 0.955212
1485 1 9.7642 -10.5675 23.0901 0.300048 -2.35923 5.71566
3055 1 18.5255 3.14647 6.4986 -0.539874 4.61781 2.13885
3057 1 18.2856 5.73551 19.7184 -2.43563 -4.23432 -1.92092
3058 1 11.6367 -4.28792 9.88549 -2.11217 -3.06947 -0.411751
2827 1 4.63848 -9.715 21.2389 -2.98071 7.56866 0.341244
3764 1 17.5623 -10.4572 17.2412 0.680081 0.982394 -3.86327
3072 1 2.32713 8.31927 19.0603 0.321173 -2.91266 4.8308
3088 1 12.0826 3.94983 15.0421 2.05854 0.818365 1.00402
3089 1 12.6168 -17.5993 13.8054 0.158536 2.73047 -0.546756
3094 1 15.4752 5.44623 18.2065 0.0359044 2.7447 0.326492
3102 1 2.72368 2.65099 23.2128 4.10973 1.95601 -1.70274
572 1 11.079 -23.9955 3.69259 -0.843165 -0.876163 0.271653
3109 1 3.27303 0.723529 1.55825 0.528966 5.18079 -1.25434
3110 1 5.10832 8.92466 2.56429 1.9784 -0.605113 -1.58428
3118 1 3.31978 3.61116 8.42765 5.05212 -0.168069 2.10106
3127 1 16.6394 6.70262 1.77707 2.23143 4.79604 -3.02811
134 1 18.0951 -6.66051 23.3524 -2.73492 0.988011 -5.39376
3469 1 0.340219 -6.6482 0.136473 2.81143 -3.85096 1.20561
3145 1 19.4545 -18.3207 9.09066 -0.411333 3.66095 -0.657947
3148 1 8.40759 -6.60478 4.85747 0.585529 -4.53418 -1.49135
3156 1 22.7273 -3.70798 7.38686 -2.61122 -1.79351 0.298778
3157 1 8.72982 2.66795 5.57349 -0.367366 -0.918515 -3.5972
3722 1 20.5979 -7.4163 6.69645 -2.6326 -1.87718 -3.00069
3166 1 18.922 -9.45447 13.8728 1.78783 -7.14891 -5.27317
3176 1 23.2543 1.06987 14.3189 4.12983 -4.50166 0.831644
397 1 0.113994 -19.9211 17.8245 3.39854 -0.96314 1.75916
3184 1 15.9189 -3.37162 4.10987 0.861145 -1.78667 -5.04979
3216 1 23.3659 -1.99433 9.92641 -1.13598 -1.36301 2.69142
3858 1 14.7305 7.42058 4.07958 5.09491 2.96606 -7.80564
2447 1 2.45207 -13.1518 17.1011 -3.37121 1.44274 -0.477682
819 1 12.7806 11.1555 20.2759 -2.05631 -2.50076 2.42715
3208 1 4.93357 -8.36583 2.19545 -1.77216 6.49702 5.83934
1403 1 14.965 -23.6554 16.8427 -0.952029 3.11926 -1.818
3215 1 12.426 0.97113 11.9078 7.67887 -0.82334 -4.2391
2132 1 10.8784 -20.1437 23.5614 -5.23268 -1.37447 3.0754
3217 1 10.2449 4.34178 7.40679 -4.54869 0.337312 -1.12005
3825 1 20.5936 -13.7802 8.00165 -0.627446 -1.45478 1.81717
3246 1 17.3914 5.76624 6.94903 -0.78251 -2.75703 0.321054
3942 1 10.6711 -21.2813 15.8242 4.16853 -2.03146 2.83469
3249 1 10.9733 -1.66163 13.0533 -0.343012 2.87571 -0.919957
1332 1 12.4378 -23.5755 22.2111 0.678028 -0.323251 -4.16059
3262 1 10.0378 7.0959 11.1932 0.0454695 1.43644 -6.42538
2445 1 1.73408 0.111668 21.2057 1.01961 5.62632 -2.69469
1370 1 4.45949 -12.7746 23.1249 -1.75412 1.41487 -0.536364
3266 1 11.3093 -0.847923 21.0183 -1.75619 1.36128 -2.32098
3268 1 8.44149 -21.6682 11.1908 -1.44817 -2.9756 4.91137
3270 1 20.4602 -16.7246 15.9023 1.23648 4.63589 2.52487
2504 1 10.0717 10.1779 10.8419 -2.27453 -3.9077 -0.386759
3274 1 12.8432 -20.7527 5.32021 4.95896 1.31383 3.74704
3275 1 22.8568 7.68581 12.6639 -4.57298 0.555528 -1.71424
3276 1 10.495 4.26182 12.5297 4.02428 0.789097 0.704199
3279 1 7.74857 -0.227358 14.7391 -1.14153 -2.43111 -0.0278945
3915 1 6.84739 -2.99094 7.22634 2.78361 5.01041 -5.57615
3309 1 1.6171 -3.80595 10.8249 2.31723 -2.93342 -0.0251887
3313 1 16.8117 10.639 12.1863 2.04864 3.27828 1.87021
3821 1 14.0538 -9.10801 15.4861 -2.86778 0.663479 1.36507
3317 1 2.16218 0.858192 7.93536 -0.7029 -0.128898 3.78632
3814 1 1.95719 8.99044 9.59079 0.943977 -0.920601 -2.7599
3336 1 13.8259 -15.1891 2.23566 -5.05092 0.525897 -1.16926
2589 1 1.47412 -6.71897 10.4408 -2.68119 -4.08468 1.76402
3344 1 18.0958 -21.3209 17.1276 -1.65642 -4.02924 -0.0893251
3905 1 4.3312 -11.0464 2.72732 1.05843 2.04459 -5.05145
3357 1 7.18136 -6.81821 22.348 0.379642 -0.910749 -3.88992
3853 1 19.9119 -12.3717 3.61469 -2.01264 -2.63794 -1.51804
3368 1 22.8892 -20.5668 17.0817 -0.234217 1.37444 -2.08155
3373 1 11.2547 -5.6721 19.3473 -1.72351 -1.3085 1.29732
3919 1 10.1883 -13.1854 18.9769 3.56594 -0.338169 2.4619
3377 1 5.53482 -11.7465 12.7104 4.46044 3.33388 -1.78953
3379 1 10.2095 -6.70451 9.16225 -1.9025 -1.04484 1.42353
3995 1 5.40536 -22.4034 1.64656 -1.8614 1.49396 1.63419
3395 1 16.4783 -13.1249 11.7557 3.25504 -2.8644 -6.76832
3399 1 0.890032 -3.81522 0.695903 -0.386631 1.74594 -6.10236
3405 1 16.4165 7.1111 13.1869 -4.17827 0.673303 -5.6399
3406 1 5.70469 -6.33774 3.98895 4.95878 2.11582 -2.139
2265 1 0.144113 2.28873 20.476 -0.689798 -3.20658 0.0608436
3429 1 2.91013 -20.643 17.3002 -0.131156 -3.75433 -1.28027
3439 1 1.00669 -13.232 12.13 4.05909 3.67128 -4.33051
1627 1 17.9987 -7.55133 20.3486 2.86459 2.83524 3.64514
3465 1 2.68433 -4.72498 13.3578 -0.672416 -0.0928043 1.21148
3474 1 20.8163 -4.59495 16.5368 -4.16532 2.02034 -4.89016
3478 1 12.4001 -12.7082 3.70309 -5.05373 0.799704 -1.53226
3479 1 18.6573 -6.42397 10.2875 1.48966 -2.74461 2.50462
3492 1 19.4053 -1.96383 4.39827 -1.19171 0.473711 -1.65433
3763 1 10.0691 9.17327 5.32768 0.861313 -1.13009 -2.38436
3503 1 18.7083 -21.5806 2.14448 -1.00838 -4.2723 0.440663
3505 1 3.19206 -13.8815 3.01878 2.47644 -0.543457 -1.50024
3515 1 16.6492 -16.1797 8.01703 -0.604556 -2.03212 -0.315934
3531 1 4.26312 4.62953 20.7811 -0.165695 0.631359 -6.09682
3834 1 6.05286 5.82942 5.32768 -1.09115 -0.323816 -3.23221
3534 1 6.43003 -7.82834 19.5343 1.62894 1.2097 -0.944214
3739 1 1.35294 -6.29902 6.43198 -6.83415 3.23817 -1.62326
3538 1 4.8842 -5.55993 18.1535 2.11103 3.57247 1.19198
3542 1 17.457 -0.689271 6.12929 2.71988 1.87959 0.0521911
3559 1 9.95684 -4.18536 12.1357 5.54503 -2.63892 -4.71853
3237 1 0.973206 -14.7094 22.5979 3.41525 -0.529714 5.08032
3567 1 5.65336 -11.0485 5.46319 -4.36813 -2.65818 -5.52829
3568 1 16.1393 -0.0501445 15.028 4.80787 4.5366 -2.93672
3576 1 18.2659 5.04457 16.7209 -1.20171 -0.378683 -2.68143
3578 1 21.9152 10.1283 20.782 2.53007 -1.32267 0.509226
3981 1 13.5709 -8.54126 4.57882 -0.376611 6.78112 -3.55476
2245 1 22.805 -20.8157 8.32575 -5.83257 5.37622 0.0063803
3585 1 10.3278 0.0904629 9.83359 4.35606 -3.76513 0.267708
3594 1 11.3864 1.30863 5.04128 -4.39045 -5.77164 3.86777
3609 1 8.39978 -11.8116 6.60884 4.1286 1.17447 2.596
3622 1 8.31892 -13.7581 10.5252 1.18988 -2.92877 -4.8811
3623 1 10.2729 -0.878846 16.5736 2.69171 -5.14727 0.317763
3730 1 14.2743 -6.37436 12.7495 1.47647 -1.68365 -0.942493
3625 1 11.9488 -20.0171 18.0955 -0.85119 6.50937 1.38134
3628 1 8.75958 0.370191 7.63774 0.0401788 0.170741 -2.13324
3811 1 12.6432 -11.7437 21.2533 -3.13483 -1.26641 0.052303
3638 1 21.2534 -6.39998 21.7982 -2.61292 -1.14732 6.09557
3639 1 8.59082 -18.3095 6.96121 2.02727 -0.0227385 -1.20222
3643 1 0.163353 3.97342 8.43577 1.68204 1.39313 0.409061
3647 1 18.8797 -20.6116 4.65357 -3.33176 3.55994 -0.617013
3652 1 23.3459 -13.21 14.2287 -0.972298 -1.71439 1.49938
3660 1 12.2739 10.1717 9.05128 -0.169804 1.95581 4.52639
3762 1 9.67161 -9.66436 8.49378 -0.605066 -1.31573 2.40539
2114 1 0.515831 -22.2329 19.9705 2.49734 4.38761 -5.45224
3743 1 5.92316 -14.5222 13.1827 -5.45564 0.0690013 4.35256
3867 1 20.9739 0.456369 3.96362 6.27727 -1.73913 -2.88531
3687 1 10.1185 -13.4072 8.32153 2.62905 3.05801 -4.8068
3697 1 7.33549 4.13266 3.57728 2.14797 -1.61511 -3.57714
3701 1 17.8957 -1.5726 10.551 -0.467293 2.0444 -7.00835
3704 1 19.8582 -1.86974 12.4774 -4.61621 1.98011 -1.10265
3705 1 3.84061 -1.68228 3.58472 1.19269 5.32419 1.37345
3708 1 4.64606 -0.144266 6.19646 3.77539 1.24767 -1.79286
595 1 6.01484 -15.9451 23.2633 4.15919 -0.709452 0.279215
465 1 0.270178 -12.6794 3.51235 1.59087 -2.80095 3.78405
2150 1 19.3776 -8.83456 -0.102555 -1.51721 5.32641 -6.30004
1201 1 22.7766 -18.3121 19.1302 0.510709 1.75624 -0.544632
1213 1 23.4801 -13.0694 20.8904 0.655232 -4.67953 0.524848
3039 1 15.9364 -24.0802 19.6419 1.27375 0.16887 -1.67736
3610 1 13.2982 9.42966 23.5672 1.0346 1.41186 -1.28859
249 1 0.461388 -20.5078 9.37665 -0.817849 2.35816 -0.934499
2300 1 5.56948 10.5725 0.121411 -0.0179749 3.20238 -3.27855
1076 1 23.2963 3.23556 23.7536 0.01271 -3.19227 2.53094
2096 1 11.14 -6.04898 0.614933 -2.74799 -0.492989 -2.38621
3841 1 23.4897 3.97381 10.6643 -2.36309 1.9094 0.083645
2953 1 16.0804 1.7642 0.514328 3.93198 -0.618248 4.4761
3504 1 15.435 -1.13582 0.449831 -2.85094 -0.992857 -2.20387
3026 1 0.302818 -22.2576 6.39629 0.296188 4.54058 3.84663
1854 1 3.97364 -24.3252 11.7528 0.42748 -2.4275 -6.10037
1749 1 23.3876 8.88261 15.4379 -4.30338 1.86359 -1.6258
531 1 23.489 -9.05079 12.3804 1.93749 0.60946 -1.01187
874 1 9.32943 0.776102 0.604352 -3.25611 0.765164 2.35433
3096 1 4.70516 8.18664 23.3199 -1.74987 0.617574 -0.763631
852 1 9.20686 -2.76922 0.0961897 4.77906 -1.58125 0.390205
197 1 23.4611 -3.93914 22.9915 -2.75871 1.14171 0.410475
3879 1 18.5 -15.3284 24.0108 0.517332 -2.84294 -1.45587
3153 1 14.5829 6.60428 23.9427 0.334744 1.44227 0.04963
1273 1 21.6268 5.67789 24.0225 -3.9874 1.03998 2.10485
1040 1 5.31304 -5.16438 24.0718 -1.40882 -3.27223 4.91709
1182 1 15.3972 4.61115 0.388344 -4.27126 -4.71585 -1.28495
2840 1 4.39243 -18.4707 23.873 -2.39432 -1.88128 1.42715
24 1 11.0664 20.8465 -3.70975 2.76694 -5.5988 -1.5962
85 1 5.75361 12.8154 -1.70231 -2.43949 -2.33179 -2.66487
1738 1 3.1046 12.1419 -22.6189 -0.0357651 0.271977 3.20123
91 1 17.1578 20.011 -22.2151 2.47231 2.14907 -3.43299
105 1 4.7105 19.3732 -20.1704 -3.06892 -1.36464 -1.10565
117 1 18.4959 17.1224 -22.007 -3.84354 -0.275871 0.0413225
166 1 7.5033 20.4279 -20.2738 0.832966 -5.14698 -0.602079
2847 1 7.2301 15.0945 -0.6345 4.9454 -0.744504 6.65385
169 1 4.62304 24.2648 -12.7399 2.85544 2.78082 -0.571217
183 1 20.9017 14.0291 -2.71523 4.93922 4.71211 -2.98627
186 1 13.9917 24.2668 -12.782 2.48438 -4.03331 0.403396
194 1 0.493932 24.3134 -20.8611 3.37603 1.89364 4.82061
4127 1 -0.249126 27.7395 -9.56771 -2.57308 0.500775 5.63557
252 1 18.1427 16.1202 -13.0573 2.54093 2.61944 -1.34716
271 1 2.33202 23.0337 -14.2736 0.319462 -0.486367 -2.75506
275 1 11.2731 23.5563 -20.8182 8.04111 1.56349 0.0541245
3345 1 11.7838 22.651 -23.5893 1.19304 -4.5753 0.669845
306 1 12.3612 21.852 -13.3955 6.7856 2.0824 2.20413
4343 1 10.1791 46.1988 -9.83202 1.566 -5.36617 -3.34837
336 1 17.9631 14.3706 -22.6225 4.56067 5.80868 4.22253
354 1 9.67017 20.3899 -7.49668 1.25401 5.20601 -3.34777
367 1 6.38925 19.3171 -17.7604 0.149724 2.33586 -1.85894
380 1 13.6945 15.0198 -20.2772 -2.87914 3.12657 1.46564
382 1 16.1312 16.9143 -3.57018 0.366756 2.73634 0.688696
414 1 4.23153 19.2052 -15.8474 -2.0298 1.25383 4.14603
428 1 9.72913 12.5932 -5.95232 2.03457 -0.35096 0.508168
437 1 17.4571 17.5419 -10.9113 3.80367 -6.82671 3.34345
475 1 22.428 11.4255 -22.5934 1.27856 -0.707134 -2.6951
578 1 22.5836 20.6064 -23.1571 1.63776 1.39821 3.80004
1506 1 16.6669 13.5617 -1.88465 1.52315 0.243791 -2.23058
1318 1 22.7741 20.5724 -1.30055 2.8302 4.05148 6.12433
507 1 12.8212 21.011 -16.0702 -1.07044 -4.78327 5.84165
509 1 20.4894 14.8934 -19.3715 -1.54602 -0.998613 2.09324
554 1 3.51169 16.3427 -17.3038 2.13399 -0.117561 1.66795
3689 1 21.5163 17.5373 -17.2964 -0.899881 2.28824 -2.6853
586 1 15.6489 23.6221 -21.0557 2.272 -2.92061 -4.87449
635 1 10.3039 13.3323 -2.9733 3.88482 -2.64153 2.9596
638 1 13.3903 17.5985 -4.29115 -3.67123 -5.10131 1.9524
1059 1 4.25892 44.9809 -15.004 -4.23821 -2.89826 4.04677
680 1 7.31403 24.4067 -11.5733 0.0979758 -4.966 -4.81123
1776 1 9.57052 13.2992 -0.193503 -0.336156 1.72513 0.428435
703 1 3.67517 27.1601 -21.5727 -1.87844 2.70976 -1.08799
705 1 4.54688 22.0231 -16.1776 -0.879969 2.40332 -1.83744
736 1 5.18832 20.1765 -6.07124 -3.25558 3.12252 1.10796
784 1 11.7074 15.7543 -2.50775 -3.12462 1.85454 2.76885
787 1 7.28533 14.9908 -13.5302 1.50763 1.86578 1.8642
468 1 22.1772 16.7597 -8.69389 -1.89638 -4.45825 4.92222
2935 1 7.82233 22.1966 -0.567162 -2.83082 1.82956 -0.184043
60 1 -0.00598229 19.3735 -22.6149 -1.97969 0.589304 -5.26648
862 1 1.67163 15.3716 -7.72937 1.65718 -1.59147 -1.88815
229 1 11.716 12.4231 -11.6287 -0.67946 4.71086 -0.458314
4123 1 0.211004 27.726 -4.7539 -0.0715992 6.4511 1.06946
883 1 15.6807 19.9624 -7.46936 -3.76193 -1.70493 -3.07809
3849 1 20.0735 12.8911 -21.3304 3.0818 1.7806 6.44349
226 1 22.8245 16.3259 -13.6853 2.75946 2.28498 1.7992
1781 1 4.64188 20.3145 -22.9246 5.20643 3.38751 -4.05716
1342 1 1.84336 46.2098 -15.6497 -0.77654 0.25443 1.84921
979 1 3.86497 26.5596 -18.6304 -1.54581 6.03243 -4.96272
1000 1 17.2678 20.2052 -11.6824 -4.33868 1.5748 -0.0193278
1507 1 23.2644 19.3691 -8.66469 -3.10394 -2.90823 1.83371
1035 1 13.6956 20.4747 -5.12021 1.1808 -1.12626 -5.10724
1039 1 19.7303 23.4112 -9.93844 -1.67443 3.49801 0.84739
1046 1 16.2032 13.9124 -16.9748 -3.15962 4.5479 -3.98769
1065 1 13.9262 19.8463 -20.0228 -0.794677 0.874261 2.43422
4151 1 -0.106561 32.2417 -9.11964 -3.27253 2.14527 2.89963
1096 1 8.45581 18.221 -11.3949 -2.2131 1.41907 0.306563
1127 1 11.858 22.1306 -6.71352 0.961896 0.745504 0.236008
1165 1 16.3459 22.8178 -1.78476 -1.77012 3.03618 -4.54374
1181 1 6.89204 20.7996 -8.27092 -3.37679 -4.7683 -0.907866
1194 1 6.49501 17.497 -5.70101 1.52586 0.908728 -0.47763
1196 1 3.39482 18.1584 -13.0591 4.50997 -2.52072 -1.12901
1221 1 0.0347783 21.3677 -19.9169 5.07578 6.04161 2.75442
1849 1 12.7925 46.6769 -9.68338 -0.955646 -1.24126 2.08507
1243 1 7.1886 18.4446 -22.5112 -0.0306809 -4.36128 -3.80392
1249 1 9.43741 16.9749 -21.2131 1.31899 -0.46692 -2.87093
1253 1 12.7024 24.753 -2.50781 3.1001 -1.5291 -5.32739
1274 1 21.0832 20.2562 -20.462 1.21229 -1.96786 4.93809
1301 1 8.71001 16.014 -9.49377 -2.78336 0.205682 4.73214
1913 1 0.879717 20.583 -0.109514 1.13781 -1.29312 -0.444977
1336 1 1.60649 21.7258 -4.59859 1.13004 -0.333159 0.951148
3835 1 20.281 46.1945 -3.5654 -0.0490203 -1.49196 4.62791
2477 1 12.8532 12.0214 -2.19031 0.492303 -5.77281 0.541377
1380 1 15.1039 20.659 -13.5577 -1.76889 -0.827575 3.94013
1384 1 2.19691 21.5789 -10.4954 -0.250491 0.77744 0.420998
1397 1 4.411 22.7244 -8.73226 -2.42248 3.00741 -1.52542
1398 1 4.37488 20.7376 -3.42759 -0.168529 4.09835 0.0762628
539 1 18.876 13.7656 -9.17994 2.6887 5.1174 3.56548
1419 1 9.15318 22.8207 -3.8645 -1.59054 6.1631 -2.45034
1423 1 4.43442 23.5927 -18.5931 -7.08054 -1.58993 -1.93903
3684 1 12.5677 15.9498 -22.9167 0.143548 3.14089 -0.963366
1435 1 19.1882 24.0083 -7.03969 -2.5523 4.91943 -0.398282
1437 1 4.85191 16.7057 -21.4174 1.35154 -5.38791 0.331018
3882 1 22.2945 16.5245 -1.91415 -2.52095 5.26936 3.51536
1451 1 9.24786 21.1904 -11.1096 5.79891 4.32377 -3.72583
3140 1 2.28483 16.5691 -19.7971 -3.63659 1.86006 3.14312
1480 1 0.0410594 14.0526 -4.23048 -0.445086 -2.04104 -1.02456
920 1 1.57021 14.388 -22.8856 -0.299653 1.09652 -2.03565
1501 1 8.51991 19.5992 -15.7473 0.696492 -6.28832 -4.06773
1503 1 8.06925 26.281 -22.9983 5.16928 -2.24215 -1.73765
1348 1 3.78146 12.7035 -16.6359 4.75374 -3.55087 -3.32447
1509 1 10.8771 18.9277 -9.71696 3.24211 2.28592 0.832624
1561 1 19.3522 20.6789 -9.53597 -5.98301 -1.32507 3.4019
1564 1 8.32802 15.2622 -6.57398 1.58458 0.884593 -1.33234
1568 1 19.8044 19.4877 -12.8143 1.27211 3.76717 -2.48223
1576 1 11.7077 21.4622 -18.887 -2.97249 -2.77215 -0.362784
2392 1 9.88098 45.8343 -14.6003 4.06523 -0.402486 -5.19495
1593 1 1.27759 25.5818 -18.4554 -5.18434 -6.33958 3.88274
1595 1 7.55823 13.925 -3.90072 -1.13179 1.01324 -2.50651
1601 1 6.98681 16.6043 -16.8678 2.47797 0.771896 2.17535
1624 1 4.81948 22.8569 -21.537 2.23205 -3.67743 1.32052
1625 1 13.2092 13.4146 -9.51807 -0.984391 -1.27803 -0.052141
4175 1 0.318706 36.7152 -9.22787 0.132379 -0.565958 -0.254122
2411 1 8.13523 13.0435 -17.7658 -1.80176 -8.37597 -4.17439
4350 1 5.78914 45.9183 -0.978152 0.236821 -4.92897 2.11908
1678 1 2.66865 21.159 -19.3521 -1.67942 -3.23105 0.667797
1683 1 13.3582 25.4622 -17.1102 3.101 -0.600031 2.54213
1701 1 11.1813 24.4455 -5.31669 -1.19849 2.7321 2.05772
1709 1 18.7724 17.9438 -3.0989 -1.83037 -1.54461 1.203
1712 1 12.4758 12.0787 -20.1424 2.74229 1.40956 2.10874
1820 1 15.876 11.8946 -7.75163 3.64996 -0.472572 -1.99682
1744 1 15.4031 24.244 -10.2964 0.299091 -1.30926 -2.13362
1745 1 6.33406 13.9662 -7.90122 -6.43176 2.19506 -0.893024
1746 1 16.1198 23.3374 -14.5075 -5.80304 0.621592 3.50132
1752 1 22.612 16.4231 -20.986 0.612157 -0.481752 -2.61274
1775 1 7.01418 13.9464 -10.709 1.8924 -4.34064 4.46658
2491 1 12.432 45.9646 -3.0106 -2.44494 1.72068 1.30162
3604 1 10.2467 12.0846 -21.8008 1.74293 -3.90215 -1.47063
1787 1 3.96958 21.1725 -12.6175 -1.0722 4.59764 -2.15016
87 1 2.08146 17.9794 -6.62069 0.487796 1.99087 -5.85567
878 1 8.16334 13.4609 -23.1042 -2.46519 -0.474584 -3.45203
2876 1 20.368 46.6198 -22.0399 2.73306 0.516821 -3.40419
1845 1 21.0948 18.1651 -22.8325 -1.05761 8.84163 -4.05463
1482 1 5.4905 25.365 -22.8788 -1.15397 -3.02378 2.13669
846 1 8.92827 11.9111 -10.9745 3.56752 1.19465 -1.06134
1241 1 10.8027 11.4835 -17.6571 -6.18326 2.1438 -1.45498
1921 1 16.6606 15.5797 -6.0016 0.77257 3.36647 -0.719317
1943 1 1.88837 15.6421 -2.90072 -6.22775 -1.30924 -1.75337
1950 1 21.411 22.5376 -5.90807 0.458163 2.99386 2.76259
1964 1 19.8282 24.1332 -18.0216 -1.2171 4.34089 -0.972981
1981 1 14.6767 23.1136 -4.10225 -2.53957 -0.287953 -4.14313
1993 1 1.81959 13.4401 -13.0201 -0.534816 -4.74696 -0.975816
2027 1 5.59044 18.9434 -11.0091 -0.0305396 -2.9044 0.780174
3272 1 2.18111 13.0579 -5.91396 -1.04402 -0.782074 5.23939
2048 1 1.64242 14.4445 -15.7077 1.0238 3.90298 1.96175
2049 1 15.8677 21.5497 -18.8657 -0.178793 -2.36567 -2.18301
2089 1 9.33599 15.4927 -18.5296 -0.364732 -2.1066 -1.71251
3073 1 2.44424 22.2883 -1.77703 3.42153 1.09994 2.97508
2138 1 14.7914 22.7812 -16.7227 2.54496 -2.67573 -5.16268
2152 1 8.26274 22.9804 -6.62278 -2.47851 -5.71239 0.728756
2165 1 17.7589 18.2499 -16.5395 -0.363883 -2.29854 -2.60159
68 1 0.310797 14.3808 -20.0602 -1.16632 0.973978 -4.0787
2184 1 14.0042 17.4645 -18.7335 -0.636144 1.23604 -6.2348
2189 1 3.12481 18.2843 -9.24104 -2.08763 -0.272597 1.23288
2198 1 4.82004 14.1512 -5.44168 -0.797757 0.780308 0.24734
2208 1 16.8048 22.484 -6.03765 -2.13825 0.729666 -1.48585
2215 1 8.7753 17.4694 -0.340944 -1.51128 4.99439 -3.39269
755 1 13.64 11.742 -22.8205 4.11456 1.23143 1.28642
683 1 2.06097 12.1215 -19.0408 -1.47267 -1.48644 -2.59098
2238 1 13.7452 14.4964 -15.6881 -0.682414 0.850823 -0.289777
2243 1 10.6703 23.5198 -10.3502 5.27557 -0.624587 6.2818
2808 1 4.07471 45.0634 -12.0521 -3.00626 -0.3197 0.567591
2246 1 1.93893 19.0224 -17.7435 -0.609722 -0.0850845 -6.51849
2256 1 14.5003 20.0957 -23.1442 7.91189 -1.31588 2.87588
2260 1 19.1936 17.5093 -19.0846 0.113045 -0.132513 4.4912
2345 1 5.08656 16.5027 -14.5846 1.71326 2.22453 -0.623432
2394 1 18.7907 19.3753 -7.15495 -2.7494 3.20285 1.30823
2402 1 16.3219 13.858 -20.4877 -0.986527 -5.5791 3.02952
4352 1 10.2412 43.085 -1.39855 0.0959016 0.565724 0.297682
2432 1 17.2967 11.4262 -19.2302 -2.3714 1.20546 -1.9998
2452 1 11.7667 16.6016 -14.0629 -4.0867 1.76611 4.14667
2464 1 9.5609 21.7395 -13.9451 0.690965 0.295081 -6.24866
2443 1 4.63216 12.3526 -20.1656 1.46017 -3.22102 -2.60745
2489 1 6.48144 21.8259 -10.8675 1.50371 0.913091 6.05368
2493 1 18.3661 24.2931 -20.3049 -1.24339 5.25721 1.00947
2503 1 15.1201 16.9506 -0.982503 1.40542 1.90872 -1.7138
2508 1 13.132 23.2121 -8.7872 4.87587 3.06105 2.20807
2524 1 7.1781 23.0228 -19.6675 2.74297 1.15466 -2.83045
2549 1 4.60846 13.7578 -13.9661 0.0600508 2.09553 0.762692
2554 1 16.3944 25.0132 -7.59628 0.273775 -0.438159 -1.00946
2555 1 3.7617 16.5932 -4.75944 2.27613 -8.64893 0.467086
2577 1 14.2333 19.5099 -2.13825 -1.19915 1.25179 1.86343
2640 1 7.16713 15.1039 -20.707 -1.62049 6.29105 -1.36919
3902 1 12.4216 12.0395 -7.00318 -2.40748 4.41518 -1.46876
2676 1 18.5515 21.3061 -20.0748 -7.38679 1.4602 -1.63315
2693 1 7.26422 22.1841 -16.9153 -1.20694 -0.240945 -6.839
168 1 21.1693 21.9954 -3.14523 1.09251 -1.62519 2.28827
3473 1 22.3605 22.7916 -21.4024 1.74259 -4.1169 -0.11395
2764 1 8.66907 24.3577 -13.9917 3.04445 -1.96574 0.665851
2791 1 20.8038 14.4263 -5.46555 3.86042 -2.02561 -1.72411
2794 1 6.25087 17.7378 -8.4618 -3.02292 -4.17863 -0.811509
2795 1 18.9552 12.9026 -17.5441 -0.92428 -6.6268 -0.178785
3482 1 16.9855 20.0712 -2.03371 0.307473 5.61293 2.6477
2810 1 6.10193 24.744 -15.285 4.28619 -3.11326 -2.64493
2825 1 12.9129 19.7461 -11.6498 -2.54163 0.873898 0.950851
1029 1 14.0809 14.3299 -1.10938 -1.48751 6.30595 1.81201
2916 1 15.0338 21.0697 -9.97285 5.42319 -4.735 -2.27519
3815 1 -0.00318892 22.0354 -23.6773 -2.112 -6.97659 2.74588
1810 1 12.1337 45.3129 -5.77495 -1.77807 -4.88098 -0.297482
2978 1 12.7073 18.1689 -16.37 -1.4068 -1.47722 -4.78408
2989 1 19.9464 17.4314 -14.7969 -1.18935 -1.82773 0.296548
119 1 18.2377 13.346 -6.2828 3.20982 5.75921 0.0300321
3004 1 16.5709 16.2826 -18.7033 -6.67947 -2.56985 3.00582
3023 1 4.73 18.0804 -2.32216 -3.30806 -0.0709629 -3.25171
3063 1 8.8519 26.0633 -17.9754 3.39128 2.07105 1.99491
3067 1 17.1954 13.8064 -14.2957 1.17191 0.0101427 1.86364
3068 1 20.6932 18.542 -0.755862 -1.39865 6.94636 -4.06758
2516 1 5.70814 14.5039 -18.4053 3.63929 3.07062 -1.39563
1526 1 19.1054 23.7853 -1.69994 -1.74507 -0.13394 1.80902
3142 1 1.55212 26.1987 -23.0801 -0.0166891 3.69083 -5.13
3143 1 20.1125 23.9301 -22.4862 1.76582 4.60224 3.39142
3183 1 19.5682 16.9588 -5.76438 5.46066 -0.409126 1.42116
3206 1 14.5821 13.573 -5.85363 -1.01407 1.59857 1.87532
3227 1 5.57036 23.1306 -5.81955 1.38273 -3.66439 5.12936
3238 1 21.569 19.7753 -6.46602 -7.60819 -1.86718 4.06739
3244 1 22.0273 14.8409 -15.9402 1.76812 -4.73073 1.38805
3269 1 7.16691 16.7783 -2.79209 -5.23316 -0.182247 3.84359
1405 1 19.2549 21.419 -23.6665 -2.18471 3.19225 0.191445
3284 1 13.5583 24.9197 -19.7538 2.03163 -1.69353 0.975946
3285 1 1.60667 22.9924 -17.1833 3.73969 -1.09153 2.02354
3291 1 20.2796 23.745 -13.0542 -1.03957 0.632041 -0.546978
3339 1 9.94515 19.3561 -19.9829 -1.99488 -3.00107 -4.86476
3341 1 21.4464 20.3866 -17.458 -0.73893 3.36664 -2.64364
1706 1 7.62721 12.1884 -20.3852 0.0685048 -1.24331 -2.32677
3349 1 13.3429 16.8259 -11.3229 -1.64097 1.22106 0.490874
3421 1 9.08653 17.1273 -13.9842 -6.00918 0.0447157 2.2863
868 1 0.815209 17.8302 -1.70022 -3.2921 1.53239 -4.59605
3434 1 11.7474 15.8471 -9.24375 2.85185 -2.15102 2.0818
3437 1 11.7915 16.8314 -6.71194 1.4493 -0.93408 1.7097
3440 1 2.4544 20.7713 -7.39457 2.4912 3.99438 0.199753
3449 1 6.20128 26.7572 -17.2783 0.849432 -0.471865 -0.945581
3456 1 8.95913 24.9108 -20.5514 -0.623268 0.206119 -3.21942
2670 1 22.398 23.0459 -18.2535 -0.181405 1.35105 1.6384
3483 1 12.4101 21.9965 -1.4391 -0.212018 0.221054 1.10777
3488 1 15.9869 13.4643 -10.0202 -4.40566 2.2744 -1.22494
3500 1 19.3163 16.9153 -8.70493 0.310236 -0.966178 4.35737
3521 1 1.17869 17.178 -14.3548 -3.35066 -2.99099 -3.1438
3820 1 22.5728 12.6976 -7.06824 -4.96322 -2.47679 3.76601
3526 1 9.37637 17.9829 -5.69921 -0.403525 4.15744 0.791389
3539 1 11.0914 25.0167 -12.8843 -0.437745 -0.0771508 4.00994
3546 1 19.8126 13.9037 -11.8059 -0.899252 -0.243723 2.3687
3554 1 15.1868 15.8654 -13.6583 3.96033 -4.23632 -4.24364
3599 1 11.8907 14.441 -5.27865 -0.382913 -4.10445 -2.92519
4342 1 6.367 45.1107 -8.3669 1.65437 -5.30081 2.51785
3608 1 18.4318 20.9567 -17.241 4.91072 2.02985 -3.78274
3644 1 18.642 20.5904 -4.42505 2.00358 1.50118 -2.7839
3809 1 4.4874 46.4035 -19.1827 0.743368 0.910834 -3.09919
3657 1 22.5923 23.0116 -11.0902 -1.00036 1.49749 3.70361
3667 1 11.9737 14.3806 -17.9424 -7.37539 2.47792 4.53668
3676 1 15.5856 16.2181 -9.71661 -3.98257 4.06262 0.761751
3894 1 11.4247 13.7862 -14.1229 4.73455 0.0530068 -0.66516
2421 1 23.2576 15.7218 -6.40452 1.73378 -0.54516 0.727304
3693 1 6.41036 22.5815 -2.71069 1.61533 0.471305 -0.5904
4351 1 10.2769 45.8037 -1.20078 -3.33188 2.48906 -2.11715
3712 1 13.9751 24.9299 -6.1876 -0.280614 -0.0881026 1.26698
3734 1 14.7198 17.2217 -7.01097 -0.269845 2.0188 0.837021
3750 1 10.603 25.1966 -15.9493 -2.44675 2.16511 1.42695
3778 1 1.12441 13.8066 -10.1821 -3.4827 -0.363907 2.6205
4223 1 1.11431 45.9966 -8.65722 3.52326 -1.03189 -4.33338
3787 1 10.3624 22.4197 -16.6353 0.638056 3.7601 3.03042
3789 1 18.9387 23.3148 -15.5773 -2.70491 -4.64757 7.01921
3799 1 17.6855 22.9267 -12.0418 2.70125 7.07078 1.76481
3801 1 4.14881 15.499 -9.12639 5.42607 0.972513 1.16831
1692 1 -0.125351 19.5962 -3.65011 0.833089 -0.549759 -3.16896
2892 1 21.8325 20.2903 -11.1605 -1.61796 1.20267 0.633603
3854 1 18.4911 15.511 -2.00693 6.2092 -1.6054 -2.60953
3883 1 22.2363 15.1222 -11.1396 -0.17593 -0.292232 0.533535
3564 1 19.965 13.5788 -14.9705 3.95179 3.70847 -2.31164
1505 1 17.7771 47.0177 -21.481 -1.69111 -0.514712 0.541277
3927 1 9.90022 18.0809 -3.01557 -2.35153 -1.22528 2.79489
1444 1 12.1336 18.5145 -21.8475 0.859918 -1.23293 -7.91203
3948 1 10.2139 17.9654 -17.5835 2.37785 2.02265 -0.484631
3986 1 15.132 18.4521 -15.2759 -2.57223 2.34064 -2.68545
925 1 3.45831 12.1438 -3.45239 0.847135 3.4288 0.593737
4124 1 1.15757 25.499 -6.41802 0.0347931 0.311717 1.81814
2928 1 22.1641 45.8275 -10.3782 -1.11737 5.12827 1.80736
4128 1 1.25255 25.3723 -9.26083 -2.74774 -0.540927 -2.94766
4135 1 0.579526 27.6896 -1.90041 1.67005 -0.599913 -0.99724
4136 1 1.37948 24.9336 -1.02612 -1.83635 -0.552659 -0.00414692
4147 1 0.259033 32.013 -5.27324 0.234663 3.76832 -2.07244
4148 1 1.59271 29.7307 -5.95392 -1.34224 0.439859 -0.187165
2244 1 20.9242 21.3567 -14.6691 0.632162 -4.78883 -3.57758
4152 1 1.36911 29.8368 -8.7886 -0.120463 0.131563 -0.094292
4159 1 0.743403 32.2082 -2.46894 0.643096 -0.419259 1.41805
4160 1 2.1211 30.0537 -1.30216 -1.2213 2.30097 -0.328301
4171 1 0.498441 36.6981 -4.9174 -7.265 1.33062 0.0853244
4172 1 1.83774 34.3353 -5.81184 3.27065 2.29811 1.17117
1809 1 9.90888 20.3389 -0.694291 2.85944 2.24293 0.00149297
4176 1 1.62722 34.2176 -8.66699 -0.0599838 -1.4745 -1.81594
4183 1 0.626376 36.5974 -2.18487 -4.03098 -0.136399 -2.35155
4184 1 1.89889 34.334 -1.33573 -1.65329 3.38452 -0.484827
4195 1 1.07877 41.161 -4.73129 -2.58003 0.788373 3.22269
4196 1 2.10708 38.813 -5.73568 -1.98801 0.737535 -4.59988
2460 1 8.58188 12.9551 -14.8946 0.911953 -1.10045 0.497132
4200 1 1.81026 38.7858 -8.38751 1.34793 -1.1442 -1.95283
4207 1 1.16621 40.8912 -2.02535 -0.91601 1.37741 3.12038
4208 1 2.14147 38.5378 -1.10541 -3.95909 -3.79058 4.46804
4219 1 1.0609 45.5672 -3.92636 1.44565 -5.86521 5.37349
4220 1 2.22595 43.594 -5.52213 7.26441 -0.682349 0.721727
2352 1 2.31309 23.5596 -22.998 3.70123 0.342437 -2.66695
4224 1 2.15749 43.4281 -8.15697 1.30081 -1.11906 -1.61302
4231 1 1.16584 45.5813 -1.34132 -4.24611 0.284183 -1.58366
4232 1 2.66013 43.2106 -0.90228 -2.10698 -5.51397 2.02366
4241 1 3.52227 25.0747 -5.1457 -5.13802 -2.12298 -2.23742
4242 1 5.22283 27.3529 -6.25547 3.03927 -3.66206 0.128532
4243 1 7.88343 27.5754 -5.22442 0.0911642 2.0061 -1.03984
4244 1 9.81889 26.2528 -6.83476 -5.63139 6.71215 1.47953
4245 1 3.89192 25.1938 -10.1636 -4.59929 -2.78641 2.22467
4246 1 5.11631 27.4674 -9.2783 1.21187 -0.972863 2.90401
4247 1 7.71215 26.9644 -10.2278 -2.48477 -6.76016 -0.502084
4248 1 8.77552 24.5921 -8.8981 2.97056 -0.946583 -4.08191
4253 1 4.15538 24.632 -2.39543 -3.36512 -1.85128 -0.981815
4254 1 5.43025 26.8514 -1.62009 -6.5234 5.86578 -2.64674
4255 1 8.09705 27.0852 -2.38425 -0.751088 -1.61719 3.9409
4256 1 9.79876 24.9814 -1.95671 1.06708 -4.11412 -1.17956
4265 1 4.20606 29.728 -4.95598 0.107798 4.57098 -2.23396
4266 1 5.73259 31.7409 -6.26857 -0.970859 2.63806 1.61037
4267 1 8.50881 31.6521 -5.46467 1.27125 -0.745763 0.130145
4268 1 9.43235 29.4488 -6.70465 -1.75351 3.65141 1.90792
4269 1 3.74852 29.7552 -9.94698 -3.51328 4.58125 1.08723
4270 1 5.53717 31.7895 -9.13009 1.61138 2.77751 -4.25104
4271 1 8.14698 31.5402 -10.2371 -5.16028 3.08684 0.331768
4272 1 9.23303 29.2181 -9.60567 1.7331 -5.45682 0.487016
4277 1 4.55385 29.6045 -2.31822 -2.08027 -0.66924 1.53394
4278 1 5.77011 32.0647 -1.50913 -1.2391 -3.18555 0.56694
4279 1 8.21331 31.4758 -2.57271 -1.88931 -2.61546 4.36404
4280 1 9.5222 29.4007 -1.57877 -2.05255 4.79306 2.04504
4289 1 4.68049 34.3111 -5.03397 -5.31767 -0.706182 2.86842
4290 1 5.91778 36.6026 -6.14523 3.60193 -4.81976 0.897584
4291 1 8.76057 36.3634 -5.48775 -2.60792 2.2241 0.208892
4292 1 9.23586 33.9122 -6.76219 0.212471 3.0545 -7.96061
4293 1 4.16242 34.163 -9.70712 2.83007 -1.19467 -2.37543
4294 1 5.69104 36.3216 -8.99298 -0.979018 3.45369 5.39057
4295 1 8.2769 36.4206 -10.0731 3.3138 -4.25614 -2.40559
4296 1 9.83391 33.9182 -9.65482 6.50437 0.773739 -1.84137
4301 1 4.45731 34.2837 -2.23448 -1.83314 -4.60903 4.14607
4302 1 5.91474 36.488 -1.28483 2.12424 -5.89707 2.77569
4303 1 8.50904 36.174 -2.64431 1.22788 1.02461 0.651936
4304 1 9.79314 33.8539 -1.88912 -2.13689 7.9531 5.63339
4313 1 4.78622 38.8194 -5.13947 2.22027 2.89209 4.49334
4314 1 6.16469 40.9874 -6.29012 -0.207549 3.1176 -4.7068
4315 1 8.62653 41.3201 -5.15374 1.14934 0.741417 -3.67604
4316 1 9.68246 38.8811 -6.15674 -3.48258 0.207441 0.580476
4317 1 4.53697 38.7595 -9.69222 -0.637055 -0.325857 -0.487399
4318 1 5.84247 41.0784 -9.15554 0.693298 0.672329 -1.30663
4319 1 8.51245 41.4158 -9.71787 0.311968 -1.89775 5.50468
4320 1 9.2486 38.8425 -9.01572 1.60415 -3.70171 -0.795138
4325 1 4.82413 38.8324 -2.27793 0.519889 -1.16028 -1.74521
4326 1 6.45785 40.9675 -0.907293 2.42641 2.41714 -0.290391
4327 1 8.87142 40.6797 -2.30868 -5.53134 0.505245 2.28074
4328 1 9.95353 38.2681 -1.46615 -0.143687 -1.17782 -1.38299
4337 1 4.87055 42.8877 -4.6298 0.954017 -2.80365 -1.63397
4338 1 6.091 45.1491 -5.5345 3.21645 -1.37077 -0.413582
2802 1 4.14413 12.8511 -10.8386 2.24503 -2.25516 -2.4537
4340 1 9.79179 43.8131 -5.84642 2.29104 -1.3702 -0.755283
4341 1 4.59969 43.4097 -9.69417 1.40506 -3.16055 2.53127
2603 1 22.2072 17.7944 -4.58609 0.702066 -9.65602 -1.03396
1670 1 3.01032 13.8732 -1.22985 -3.04554 -2.59876 0.511772
4344 1 8.95027 44.029 -8.63951 1.73104 -1.20796 3.35499
4349 1 5.16968 43.4395 -2.05493 4.01291 0.570249 -0.991367
1985 1 1.87989 46.943 -10.9947 0.375634 1.98537 1.05101
2351 1 16.9084 11.5653 -12.4886 -4.15061 -2.60872 -5.6297
4339 1 8.42752 46.1515 -4.69406 -0.490998 4.30483 4.8834
656 1 -0.216788 23.1954 -10.4875 2.66537 1.79169 0.969617
4199 1 0.718163 41.2611 -8.95355 1.44204 2.63175 -1.13997
853 1 13.0442 11.434 -15.2725 -6.77371 1.74474 -1.12367
732 1 14.1698 44.7926 -7.77365 4.26049 2.94284 -0.363109
673 1 -0.373238 16.5344 -22.1595 -1.85002 -1.31697 2.73141
1735 1 -0.206533 18.4554 -19.6763 4.1972 1.09624 -0.395937
3765 1 23.0625 45.8547 -3.24375 -4.78216 0.530462 2.2928
1816 1 1.33428 18.8163 -11.1155 1.33502 0.0832631 -3.8322
2220 1 -0.350821 19.3269 -15.7745 -0.0395543 2.93438 -0.065772
3260 1 16.8891 45.2224 -7.01144 -0.39054 -1.41568 -1.9344
3661 1 23.026 13.9482 -18.4599 -2.75441 -0.469074 2.02859
1424 1 20.5909 11.523 -8.79095 0.329816 2.88703 2.4665
974 1 -0.278896 22.9973 -13.3645 -5.04709 3.04263 1.12527
871 1 6.20167 11.424 -16.0243 -0.795104 -2.92702 0.217257
405 1 3.92716 46.7575 -4.63223 0.582808 1.02704 -2.27017
759 1 -0.102821 16.5974 -9.85758 0.211995 -2.98195 -0.617296
807 1 14.7543 23.1132 -23.6714 1.22339 2.05101 5.86772
3511 1 16.4081 12.3235 -4.26029 0.392586 -6.54619 -3.33905
978 1 3.47861 16.217 -24.0705 2.10554 0.486547 -3.86533
1548 1 15.8127 46.9293 -9.18437 2.37514 -1.12557 0.101503
2686 1 5.97795 46.5141 -16.6248 -0.992519 3.99977 1.99495
1069 1 22.2692 14.2177 -22.8116 -2.13661 -1.59015 -1.02128
2731 1 23.1887 22.6493 -8.35465 0.682105 -1.59775 0.489405
861 1 23.6231 20.4824 -14.3839 3.30303 3.40405 0.687288
3691 1 19.0545 46.7349 -5.90464 3.53242 4.05531 -1.669
466 1 16.6107 11.976 -23.5717 3.46904 -3.60013 -0.255498
6 1 2.07232 17.6563 18.4177 0.743093 -2.01128 -0.904442
7 1 6.02331 22.1854 8.46749 -1.6932 -0.74408 2.68452
18 1 19.6239 24.0038 1.0039 -4.21691 2.80435 -0.55729
25 1 6.18937 24.4322 15.6672 -0.74067 1.9711 2.72651
473 1 2.614 12.3331 12.9924 -3.46973 -3.74179 -1.08002
4234 1 0.01459 45.9672 9.4368 2.45209 -1.80024 2.86352
1838 1 18.091 19.4368 0.319038 0.0455767 -4.23156 2.78696
103 1 19.351 24.7361 19.9086 0.267536 1.70199 -1.2685
123 1 13.417 16.2952 7.16426 1.60742 0.518433 0.636263
138 1 11.433 16.4098 4.12174 0.303661 2.94264 -3.21111
147 1 8.85575 19.8383 6.04366 4.61998 -3.44772 1.65915
175 1 9.99719 17.2529 6.39541 1.16269 -3.6164 -4.01877
185 1 19.8727 22.7834 15.94 -0.856641 -3.27442 -4.372
202 1 11.6254 13.2445 9.6278 -1.71292 0.809499 0.163671
215 1 8.54031 23.1772 16.6196 5.78206 -2.77763 -3.387
217 1 4.49937 19.7892 8.11667 -4.7891 2.44096 -4.81628
220 1 4.47702 20.9977 17.1006 -0.562468 2.99516 -3.75752
227 1 16.2409 18.0606 4.36929 -2.04577 -6.41583 -1.49115
262 1 17.1382 17.7323 10.9267 -1.13148 0.894365 0.615175
281 1 15.0872 20.8118 12.5413 4.98509 -0.963222 -3.73349
4348 1 10.6138 43.1901 1.34972 -2.29023 3.08452 3.75948
288 1 17.1821 25.1119 2.27108 0.430624 2.89176 3.25918
310 1 0.105734 13.2768 13.9522 -5.5676 -1.59251 2.48258
328 1 15.2705 21.912 15.1673 1.82502 1.29902 -0.311281
2756 1 21.8223 14.1059 20.8918 1.64785 4.32457 -4.56093
3930 1 12.7649 19.8093 0.712001 -0.642596 1.27806 -2.85296
418 1 20.6581 20.6363 5.35544 2.62805 -2.80981 0.581981
435 1 0.224583 23.0668 6.56885 -3.36982 0.0251363 -6.02359
443 1 18.7653 25.0653 14.7763 3.65533 2.60006 0.937958
447 1 6.25758 19.7075 13.308 -3.22116 -1.15471 8.16171
3911 1 21.4783 19.9478 2.66293 2.04052 1.18968 -0.784172
457 1 7.27577 20.9876 17.8238 -0.57111 -1.97024 -6.68654
4324 1 10.394 38.4304 1.21897 -4.55741 1.11202 0.0523846
463 1 5.25319 15.0343 11.1352 1.21784 -0.637438 -6.76786
4300 1 10.2701 33.7414 0.918884 -3.65229 -2.14669 2.7063
487 1 2.1582 22.5983 17.902 3.99015 0.707714 -1.34148
566 1 19.6451 17.6977 13.4177 2.62342 1.7962 -1.75446
1353 1 6.25442 21.0436 1.39462 -3.58682 1.03449 1.61682
627 1 20.1551 13.293 11.9077 0.40408 0.512141 3.53934
646 1 13.4137 24.0726 15.8456 -1.28093 0.058602 -0.158037
2751 1 10.053 46.3627 7.89096 -5.70243 1.50966 5.06826
671 1 19.3104 15.6121 3.67265 0.460197 1.28877 -0.0709388
715 1 2.73494 17.6213 11.4454 -8.85681 -0.531323 4.94007
725 1 0.0282129 18.8582 22.0327 0.895561 6.36174 4.58275
1108 1 16.0088 12.904 21.7373 -0.605708 -2.80153 3.48657
4360 1 11.0905 43.033 5.95371 -2.65133 4.23368 -1.92017
762 1 4.95239 17.5691 20.5239 1.29 -3.17715 -0.519873
769 1 12.8313 24.3862 18.5374 1.59659 0.501353 -1.92262
774 1 15.0237 17.2083 14.9092 -1.6718 1.31598 -1.04486
805 1 9.32161 26.5229 22.5521 0.36263 -1.86691 1.22606
3818 1 11.9437 19.857 23.5332 -1.9359 -0.634037 -0.516141
820 1 1.7783 12.7883 8.90635 0.433642 -3.51587 -1.43967
829 1 18.076 14.283 19.9913 4.54834 1.40011 -2.17037
870 1 15.7857 20.3974 20.3276 -1.62285 0.565132 -1.2819
875 1 20.479 15.1355 7.86439 -2.16037 4.62377 -4.31808
880 1 3.33164 15.3757 21.4183 2.44158 3.97162 -4.44761
1430 1 1.70554 19.3979 7.26528 0.188643 -1.1115 3.77777
927 1 9.99279 14.2125 18.2337 -0.0140363 4.75347 2.6283
936 1 9.02235 12.8482 11.1115 0.67743 2.35521 -3.11312
3637 1 1.03944 12.2059 21.1251 3.13434 1.0136 1.70813
958 1 1.36429 13.3986 16.5278 2.33433 -0.290544 0.933038
980 1 4.606 19.529 10.9876 -1.43759 -3.9833 2.37433
1726 1 17.2627 23.1155 23.1657 -1.03558 1.63433 -0.0315338
1019 1 7.86645 15.7917 5.27534 -3.63877 -1.24925 3.73602
1050 1 17.9459 19.7871 18.3092 -1.62739 4.60142 -1.85442
2291 1 0.249484 21.8753 21.4817 -0.399264 0.0496614 -5.84271
1097 1 15.873 24.4539 14.2775 -0.40417 -2.18506 3.41327
4357 1 5.63801 43.1635 5.38204 -0.313435 5.4943 -1.47417
2033 1 11.0054 15.5377 0.426723 -3.58731 -2.61052 9.09054
2940 1 16.243 17.4204 1.55381 2.91453 5.09274 -1.92341
2416 1 6.53901 12.5925 10.0384 2.74523 0.2259 -2.02794
1142 1 6.83014 13.8661 7.38621 -1.63604 -2.81642 3.12344
1145 1 3.48309 19.6875 21.4077 -0.141303 3.51377 -2.84529
1146 1 9.96805 17.4618 19.8767 0.97499 0.42478 0.351847
1170 1 2.17781 14.7088 11.0642 -1.10282 -2.79786 -2.69793
1184 1 5.14702 21.517 22.5968 2.40806 -0.0237243 2.62393
1189 1 11.4309 13.3677 4.03903 3.85091 -1.3323 2.43993
1222 1 19.699 22.4013 11.8659 1.80031 1.58513 -0.697408
1234 1 14.7798 12.1139 7.2003 -5.48511 -1.37439 -0.274699
1235 1 10.5135 19.8815 2.34235 -0.547286 -2.49509 3.91111
1297 1 16.8883 15.0644 15.1946 -4.03562 -0.166684 -1.78249
1313 1 16.7885 18.2056 23.8149 3.77521 -3.32769 -1.4005
2281 1 19.2539 12.0976 22.8708 -2.79507 -6.24553 -2.73755
4252 1 9.04291 24.4051 0.639383 4.07985 -0.924636 3.96888
1352 1 6.00508 24.1322 20.2703 2.32074 -0.686941 4.08055
1362 1 19.6868 21.6468 7.73789 4.26342 -4.90826 5.13705
1381 1 18.229 15.4206 12.5937 -1.87618 -1.56647 0.160346
1414 1 5.11259 22.4589 5.73891 -0.729893 -0.30434 4.84597
1333 1 1.55967 11.4845 5.49132 -1.37205 -4.4416 0.090078
1468 1 18.2165 25.738 17.5283 2.02852 0.984879 -2.66045
360 1 6.02052 15.0154 1.90654 0.39789 -4.81693 -1.30379
452 1 22.6245 14.9508 1.7977 -3.84746 1.62475 -2.9189
1528 1 8.58192 14.8521 15.7754 -2.48284 2.35953 -2.64358
1530 1 17.1598 13.3011 6.05692 1.6755 -2.39615 -2.93433
1533 1 12.502 19.9372 12.4811 0.758132 1.42653 -0.912959
1538 1 6.00134 15.7348 16.8784 -1.42508 1.85332 -0.589672
1559 1 20.7436 16.9021 5.65323 4.52944 0.0713457 5.55787
1569 1 7.42504 12.303 1.62238 5.97948 -5.65771 -0.970681
2819 1 18.9201 12.1766 14.0352 -3.78595 -0.0952211 -0.730428
1598 1 1.50836 12.8497 2.93789 -6.0114 -2.1964 -1.54998
1618 1 10.9622 15.8613 14.342 -1.49251 -2.9008 5.90139
1619 1 16.2965 13.7691 17.7471 -2.38415 -5.15089 1.57233
4359 1 10.0404 45.2962 5.15605 1.29553 4.77156 6.17541
1639 1 13.6798 15.041 18.7073 -0.522118 -4.73315 -2.39702
1684 1 5.39341 15.4885 14.102 -0.487034 5.27379 -2.47668
1713 1 21.7306 15.514 12.8606 -3.98173 -4.46773 1.29362
1715 1 12.7716 21.3728 16.6502 -4.99532 1.86159 3.22932
1518 1 -0.208562 13.4168 23.1026 -3.42345 2.88477 0.860429
1740 1 1.68599 20.3608 19.3665 -3.0511 2.91837 0.405502
2230 1 3.15611 17.6261 0.247608 -0.203691 0.00270966 0.700919
1750 1 16.3568 24.3552 11.1728 -1.62932 -7.84715 1.59527
1762 1 1.98089 21.0676 2.45764 0.508937 3.69904 0.60011
1767 1 10.0499 24.2588 18.6411 -3.43875 3.17253 -1.08425
4276 1 9.55077 29.1371 1.27738 3.13302 -0.584867 0.839881
1773 1 18.2935 17.0094 8.36423 -2.13228 3.36822 -0.972272
1797 1 0.983277 16.2631 16.2516 1.21631 -1.02365 1.54414
2043 1 16.7781 11.984 9.44148 0.686272 2.97826 -2.85917
1821 1 19.0312 25.112 12.056 -1.19563 -2.24187 -2.61669
1829 1 2.01958 16.6609 5.6774 -1.53309 0.232708 0.315071
1835 1 4.59574 24.1448 17.7187 -2.88601 4.41172 0.516838
282 1 13.7107 12.4073 12.6492 -5.10727 1.58502 4.01066
1839 1 17.7683 24.2937 5.03477 -1.64465 -3.33884 -0.385756
1866 1 7.604 21.969 12.4128 -4.25634 -4.32291 1.79943
1884 1 15.9789 15.3796 7.91989 0.384988 4.03712 -2.20346
1886 1 19.2987 24.5027 7.46972 0.00856316 -7.13239 -2.37939
1922 1 10.1978 14.8451 21.0918 -2.62837 2.50239 -0.14454
1929 1 6.4976 17.6025 3.22038 -0.413512 4.01804 2.75111
1957 1 14.9801 19.2045 9.75661 -3.2857 -4.92718 2.25741
1878 1 22.2024 22.3824 0.767901 -2.14572 0.715574 -2.99587
1988 1 6.15661 18.0492 6.44349 0.767981 2.47044 0.205388
1992 1 12.2666 23.0804 3.51927 0.717795 0.459664 -3.45367
1997 1 20.6172 25.2663 9.85329 -2.46118 2.16155 -0.137054
1115 1 21.3464 21.3177 22.2772 -1.50486 3.26798 0.657736
2022 1 16.789 25.1138 8.39214 -0.408582 -0.398677 5.49971
2026 1 8.26871 20.975 9.95123 -0.377999 0.363275 -0.148704
2055 1 3.01774 15.5895 8.2836 2.27325 -4.74895 0.847689
2084 1 14.1807 18.4761 21.9194 -1.1944 8.55061 -0.869776
2088 1 7.35283 21.5464 20.631 7.13222 2.16853 1.61647
2886 1 11.7506 23.6174 0.789041 -0.635563 -6.01384 -2.34829
2134 1 11.564 21.2245 8.07412 1.68684 4.01459 1.53928
1591 1 12.9513 13.7625 1.62852 -4.28661 2.12504 -2.34806
2177 1 17.8578 16.9285 18.758 -2.59337 -3.29796 1.76006
2197 1 16.7436 23.3694 20.3288 3.41192 1.3338 3.32975
2240 1 13.5251 18.5408 16.8575 3.46611 1.7184 1.83144
2254 1 3.58333 20.1693 14.4514 -0.404882 6.05874 -3.21213
2583 1 6.02625 18.39 0.539849 -3.73055 0.550154 0.423934
2287 1 22.7659 17.5534 15.0347 -4.5 1.94378 0.252254
4356 1 11.4332 42.9236 8.66574 5.25772 -2.5995 2.59993
2631 1 18.5818 15.6171 0.758974 -1.02071 2.03876 0.125456
2304 1 9.49123 14.6597 7.76301 -1.08609 5.1989 -3.69786
2309 1 19.1007 17.5843 21.1273 -4.40468 -3.76167 -2.96373
2343 1 8.70985 22.0797 2.97072 5.32281 -0.202832 -1.52853
2344 1 13.3012 25.4952 4.56407 0.149655 -1.54168 -1.65549
2360 1 13.3416 18.461 5.10787 0.517658 0.310102 2.49979
2367 1 7.3454 18.1489 10.2914 6.51343 -0.618812 -3.39832
4355 1 12.0315 45.6085 9.46417 -1.96301 -0.679683 -2.32349
2375 1 9.7011 22.7023 14.064 3.28085 0.448599 -0.425965
2388 1 8.1539 25.9207 19.8354 3.67473 0.462654 3.83527
2395 1 4.81785 18.1991 17.7291 -0.674531 0.749394 0.307938
72 1 22.7117 15.8519 18.8883 -6.21861 0.896887 -0.406815
2412 1 9.56977 18.1891 15.4256 2.25021 1.5017 3.49993
3251 1 0.285933 18.1055 12.7769 -1.71015 -0.488012 6.77877
2423 1 11.4578 20.7677 5.10896 4.0105 -0.763545 -2.87349
2444 1 13.2037 21.5387 19.5134 0.763154 -3.9762 -4.72952
2456 1 18.1409 19.998 22.0692 1.77636 -1.44914 -4.50944
4354 1 7.19171 45.8629 8.53696 -2.49242 -3.92042 -2.76461
1099 1 15.9727 12.5511 14.2941 5.03679 -0.206796 3.01985
2500 1 8.96661 22.4694 7.51865 -3.12297 -2.30302 1.53574
2501 1 6.33051 13.3942 4.32338 -1.04336 5.78378 -1.99709
2993 1 21.3481 17.6548 17.2749 0.489342 2.90494 0.636381
1741 1 9.70694 15.7999 23.9973 -1.46597 0.818368 2.387
2565 1 13.1109 17.172 12.6672 -2.78238 -2.63333 -4.57227
3527 1 -0.329819 13.4337 6.81482 3.05226 -4.64365 -2.20334
1925 1 20.9969 46.968 18.8948 1.42688 0.346693 -0.526708
2582 1 13.2202 23.5728 8.62981 -2.35257 -1.90584 -6.63766
4358 1 7.29534 45.2877 5.76706 1.84512 0.353881 2.60594
2600 1 3.85512 22.253 1.01996 -0.601487 -1.41403 -1.79848
2606 1 15.0865 17.4602 19.1803 1.06183 -1.46877 3.42169
2627 1 14.8068 24.25 6.52181 0.438638 3.23524 4.5126
1633 1 17.4443 15.4647 22.6564 -0.250031 3.57727 -0.0399483
2671 1 10.4014 21.9941 20.3345 -2.35276 5.28776 3.94469
2712 1 16.7177 15.2185 3.96348 1.69336 -0.341151 3.83557
2716 1 15.6845 13.2072 2.27755 -2.33642 0.973991 2.40941
2717 1 10.9756 19.6727 10.2307 3.34048 -4.76833 -3.37121
2736 1 13.1225 13.9914 21.4624 0.317309 0.823981 3.21533
379 1 20.4622 23.3859 3.88988 1.23572 1.20179 2.37105
2773 1 7.82222 23.6242 5.23103 1.01342 -3.45707 0.796898
2779 1 21.0712 13.9341 15.5947 1.13836 -5.97774 -1.54106
2781 1 13.8266 23.3267 11.5153 3.99402 0.087032 -0.500529
2801 1 0.87277 17.3674 9.23155 -2.81341 -0.960652 1.74945
2824 1 8.92497 12.452 13.9736 -2.47375 -3.0815 1.07198
2844 1 22.3318 16.4125 10.023 5.80955 0.98875 -2.4798
4353 1 6.12842 43.3449 9.77452 1.80713 3.28977 3.07702
2879 1 1.86639 18.1534 2.77883 -0.0807279 -1.21012 0.835849
570 1 23.4533 13.7186 17.0214 -0.468068 2.68913 -1.88126
1474 1 1.98212 25.8074 21.9894 -5.17099 -6.62346 -2.57652
2932 1 8.02161 18.309 17.7068 -2.58403 0.487579 2.34356
3641 1 5.45833 14.4604 19.5786 0.549579 -2.60072 -0.890064
3001 1 12.2416 13.7079 6.95465 0.302517 -4.1188 2.98445
3003 1 16.2438 14.5983 10.6992 -3.29497 -0.87633 -1.45551
3035 1 18.4791 18.5458 6.15667 3.61284 -1.15271 3.13008
3036 1 11.7238 19.4563 20.7993 0.0502343 -4.53822 1.50455
3047 1 3.96381 18.7529 4.66089 3.34081 -2.63377 -0.978323
3086 1 14.3852 21.6864 2.1959 -0.938304 -1.57529 -2.67708
3123 1 13.5044 14.7884 11.1406 -5.20454 -1.81171 -2.59916
3154 1 6.50394 20.3914 4.24127 -5.0978 1.49408 -3.66939
3170 1 4.17906 24.1954 22.5696 3.3742 -0.129924 -4.97615
3173 1 9.94935 16.8552 9.43484 -0.159294 0.395646 4.89294
3178 1 16.9299 18.8205 13.6341 0.692827 1.2868 2.61346
3236 1 17.3936 21.5564 10.9367 0.438768 -2.80247 1.12442
3243 1 7.78492 18.5167 21.0795 -2.94178 1.6885 -4.17748
458 1 20.7785 20.2756 18.3458 2.64965 3.24375 3.53186
3253 1 9.35658 17.3969 2.39994 -0.90025 2.98696 6.11466
3259 1 16.4389 20.7103 3.53889 -0.343069 2.17341 3.50876
3280 1 9.80468 15.4023 11.7879 -0.38441 5.33927 -0.550436
2137 1 14.6642 15.8215 23.1018 0.57925 2.29598 0.756431
3310 1 16.3743 22.0728 5.93683 -0.3012 0.910183 5.44756
3338 1 11.0851 20.4243 14.7581 2.7275 -2.31928 0.622384
3352 1 3.48162 14.4615 4.37274 4.72339 4.11844 6.78083
3380 1 0.803155 16.2763 20.6977 3.99262 6.42615 -2.30719
3418 1 20.2255 20.7468 14.0575 -7.56017 -0.911626 0.323444
3457 1 20.0533 12.2972 19.4982 -1.46767 0.161251 0.885654
3467 1 11.8073 12.9498 14.8272 0.248358 1.98807 5.19626
2861 1 15.5648 11.2126 19.4589 -2.50288 -3.62886 4.00915
1979 1 0.988569 22.8807 11.4836 -1.01506 -0.61962 3.57269
794 1 6.14823 17.046 23.1151 -2.26821 1.83732 -0.041192
3486 1 15.7471 25.1918 18.6119 -4.25605 1.64654 -1.6099
3493 1 4.09186 13.35 17.0642 -0.587479 -0.948138 1.95024
3537 1 21.8096 23.7422 18.9126 1.76065 -0.553568 2.86354
3545 1 3.07823 17.2248 14.2699 5.07816 1.78798 -4.84366
3552 1 14.1558 20.1749 7.40268 1.6715 1.79118 -2.52633
3570 1 11.2236 24.184 22.2147 5.76018 -3.06387 0.890777
3571 1 1.05887 21.7021 8.80405 -1.95341 4.86207 1.73972
1896 1 15.4729 23.5284 0.812562 0.153164 2.92397 3.91459
3605 1 17.7073 20.8009 15.8456 1.65801 -3.33936 3.14456
3613 1 0.816001 20.8248 13.8806 0.929254 -0.491473 5.19969
3615 1 -0.211986 22.8862 2.77401 -0.757569 -5.79454 2.6697
497 1 9.32699 18.6521 23.3992 -3.96285 0.258689 -2.18829
2450 1 7.88885 12.5335 19.6363 -2.4119 -0.132137 -3.304
3522 1 21.4561 17.434 22.4696 2.78665 0.726088 0.906209
3664 1 7.81604 17.0268 13.2631 2.91616 -1.671 -2.97717
1469 1 19.5636 12.0545 6.28777 2.24068 1.14216 2.02271
3713 1 2.61484 21.461 5.27286 7.45657 1.30855 -1.77674
3715 1 19.3898 21.8936 20.1838 -3.32664 -0.128998 0.971379
3720 1 19.2468 16.3002 16.173 -0.421881 -1.12529 -2.90331
3732 1 17.051 20.4875 8.09414 -2.06611 3.84167 -4.23817
2770 1 20.1204 12.7164 3.39075 -0.136503 0.729629 3.63454
3760 1 14.8705 26.8473 2.49672 -0.285326 -4.75202 3.98012
3783 1 19.002 21.3251 2.25457 -0.375398 0.369316 2.31455
3788 1 5.86524 16.3115 8.66955 -0.313622 0.266238 0.116209
3795 1 13.9957 23.8951 21.3237 -0.206738 6.84356 5.95365
3804 1 12.9128 17.5527 9.6027 5.7752 -0.968793 -4.915
203 1 22.6337 20.8669 7.37395 3.31403 -0.359739 -3.47136
3819 1 3.61489 22.0228 12.0348 0.586323 -3.60671 2.97781
1133 1 12.4112 12.5215 17.6475 -3.11149 -6.28134 -2.90764
3837 1 9.1469 11.8366 4.11607 1.33406 -3.5651 -3.25366
3859 1 20.0234 18.3606 10.6512 -3.2973 -2.04835 -1.19881
3885 1 11.8442 24.2197 13.3956 1.84629 -6.95101 -2.8607
2576 1 23.1592 20.2708 14.2717 -1.74129 3.8925 2.3819
3897 1 7.60391 14.4448 21.8507 8.61358 3.05114 -3.44258
399 1 13.3231 16.9344 1.94998 1.73201 -1.53553 3.4124
3974 1 5.63217 24.0132 12.6693 2.1244 -6.03218 -4.35813
3987 1 11.5894 16.6534 17.3921 -0.329157 -0.661856 0.438049
4131 1 0.681569 27.6084 2.70234 -0.245167 -1.78263 -2.00134
4132 1 1.41409 25.0878 1.87727 -1.95992 -1.40535 5.25194
4139 1 1.4924 26.945 8.93386 -4.38788 -0.733415 -1.15166
4140 1 2.67041 24.2999 9.45657 -0.114079 1.15051 -0.608775
4143 1 0.660147 27.3066 5.54135 -2.40107 -6.84048 0.479631
4144 1 1.99604 25.1275 6.72735 5.74323 1.5809 -1.50273
4155 1 1.02304 31.9803 2.34469 0.108746 -3.15658 2.7028
4156 1 2.0461 29.6481 1.32088 -3.61857 -3.05088 0.179159
4163 1 1.7848 31.6707 9.85135 -2.30286 1.31089 3.4226
4164 1 2.89665 29.3008 8.61318 3.00695 -4.38152 4.45964
4167 1 1.08208 32.1422 5.07107 3.79034 -3.64384 -1.12219
4168 1 2.20785 29.6563 5.93235 -1.13437 -0.0686214 1.57969
4179 1 1.34944 36.4991 2.70044 -0.148454 0.432474 -3.34221
4180 1 2.36786 34.2169 1.41208 2.31931 -5.1587 -3.39483
4187 1 1.90543 36.0737 10.3172 0.293675 1.93536 -0.149296
4188 1 3.24184 33.9245 9.02469 -0.49845 -0.803079 -1.31433
4191 1 1.5456 36.1884 5.51646 -2.71551 4.08318 1.0358
4192 1 2.81484 33.7653 6.33724 -3.25014 4.0459 4.13257
4203 1 1.46069 41.0025 2.6859 -0.491968 -1.17957 -0.29524
4204 1 2.82495 38.828 1.59368 -2.78805 -1.16353 1.4445
4211 1 2.16164 41.0517 9.80952 -1.9878 2.13191 0.448009
4212 1 2.98809 38.4649 9.38153 0.159859 -4.32892 -0.482525
4215 1 1.65712 40.7464 5.65474 -0.719089 4.3578 -2.69107
4216 1 2.96852 38.4337 6.45537 1.88928 0.628023 2.19908
4227 1 1.44251 45.7894 2.51506 -1.45098 -0.67241 0.579676
4228 1 2.49959 43.3557 1.75474 -2.64444 -0.522481 1.55951
4235 1 2.21104 45.2811 10.7404 3.49446 -7.30536 7.47426
4236 1 3.39726 43.4532 9.13349 -1.79568 -1.86501 -2.66303
4239 1 1.54936 45.5643 5.3076 4.20891 4.99209 -0.69725
4240 1 2.91683 43.1696 6.35759 1.95325 1.6876 1.40257
4249 1 4.18297 24.6671 2.42432 -0.386552 1.83781 2.70959
4250 1 5.51234 26.8599 1.22278 0.396008 -2.64327 -4.22292
4251 1 8.09903 26.7396 1.9156 0.696219 -4.47783 -3.37519
3484 1 3.7391 13.0707 6.84565 -2.16185 5.33704 -1.42786
4257 1 5.3434 24.6922 10.0428 1.75689 -2.46952 -2.35493
4258 1 6.67908 26.6364 8.83495 2.33221 3.92137 -3.81411
4259 1 9.4037 26.7309 9.37232 -1.51456 4.10818 3.76633
4260 1 10.7895 24.8067 7.79365 -1.981 -1.4064 4.24775
4261 1 4.2449 24.9809 5.3153 2.36886 6.89869 0.898946
4262 1 6.07062 27.0347 6.1125 0.159629 -1.45902 -1.6542
4263 1 8.39262 26.1762 4.58535 -6.29346 -0.206074 0.202008
4264 1 11.0065 26.777 5.64803 -2.03079 0.671269 -2.57607
4273 1 4.66485 29.3625 2.2686 2.59566 0.266002 3.88888
4274 1 6.05411 31.8303 1.3418 1.80877 2.50939 1.8733
4275 1 8.94587 31.6108 2.21283 -0.980999 4.24413 -1.19038
2887 1 22.2508 19.3983 20.3527 -1.71393 -1.29992 -0.293622
4281 1 5.47263 29.2211 9.53797 1.09558 3.40995 -0.723866
4282 1 7.01163 31.2641 8.91529 -3.84337 -1.1593 -2.68462
4283 1 9.82501 31.5443 10.1655 2.28975 -0.936667 0.0711317
4284 1 10.8065 29.3074 9.06077 -0.756984 2.35175 -3.5199
4285 1 4.99026 29.3436 5.19381 -3.83018 -3.65456 2.15762
4286 1 6.57312 31.5839 6.20829 -1.44436 -3.42985 4.41818
4287 1 9.06724 31.4377 4.8636 -4.70708 -2.66389 -5.76443
4288 1 10.6687 29.4407 6.28269 -3.12389 -1.98918 1.56682
4297 1 4.935 34.1794 2.47985 1.08867 1.12573 0.0690606
4298 1 6.43435 36.3791 1.53296 -2.49458 -6.00859 -1.81323
4299 1 9.28626 36.0216 1.98841 -1.75014 -1.51973 0.847414
2209 1 22.2637 23.9581 21.7686 0.379021 -0.451698 -0.21232
4305 1 5.9685 33.8136 9.43568 0.154624 2.82798 2.22358
4306 1 6.92508 36.2803 8.79787 3.16316 -0.477848 0.928776
4307 1 9.50367 36.3475 9.84477 3.76475 -1.64507 -1.6027
4308 1 10.4571 33.8969 8.94301 -6.92901 3.79824 -0.0912078
4309 1 5.35993 34.0009 5.17353 -0.05954 6.47362 2.81672
4310 1 6.82574 36.3492 6.12669 -0.487182 1.00149 0.0854395
4311 1 9.48343 35.9793 4.779 4.20886 1.33968 -6.47028
4312 1 10.7009 33.6087 6.13586 -4.79817 -3.93644 -4.87615
4321 1 5.48494 38.7045 2.86776 -2.63611 -7.72288 0.935259
4322 1 6.82688 41.1235 1.91171 1.17759 -2.87026 2.94959
4323 1 9.65114 40.7565 2.34219 -0.451655 2.25611 -1.902
3703 1 20.3167 14.7654 23.3627 -5.98732 -2.43846 -1.70023
4329 1 5.8662 38.5913 9.54818 0.991302 1.47911 -3.01856
4330 1 7.24628 40.9158 9.05185 -2.89391 3.84758 1.2569
4331 1 10.1041 41.0057 9.72895 -3.0196 -1.13271 2.53163
4332 1 10.3027 38.6518 8.39592 -0.873068 -0.39956 -2.25561
4333 1 5.71477 38.956 5.70137 0.378359 0.555454 -0.673566
4334 1 7.10213 41.1886 6.26942 -2.24134 1.2224 1.71571
4335 1 9.62719 40.778 5.12364 -0.517534 -1.84264 3.43789
4336 1 10.7403 38.423 5.75558 -2.29249 -5.99225 2.87178
4345 1 5.09262 43.3712 2.43673 1.26011 2.01371 5.86655
4346 1 6.20618 45.8569 1.73319 -3.81329 -3.31547 6.84042
4347 1 9.11281 45.3862 2.40811 0.566578 -1.21208 0.856839
413 1 23.1565 24.0775 4.25022 0.473519 6.21074 2.8227
1823 1 6.53068 45.8377 11.3939 0.392375 1.30799 -0.84401
383 1 11.3362 46.446 11.9095 5.48419 4.19037 0.966865
2553 1 -0.145391 21.9512 16.4368 -3.89975 -3.33947 -1.25231
3562 1 17.6369 12.3204 0.341238 -0.123865 2.78521 -2.9656
3454 1 23.5335 20.6323 11.4981 -1.42392 2.57779 -0.619777
937 1 -0.120935 13.9755 18.9077 -0.406313 -0.00515357 1.03529
801 1 20.9425 17.1385 1.75902 -2.56159 7.51318 2.71532
2409 1 4.99231 12.6656 14.6396 -4.86954 5.17788 -0.619431
2920 1 22.7123 13.7563 6.7571 0.462178 2.97586 -0.396892
284 1 0.466754 15.6693 2.22129 -2.9603 -3.77029 4.63342
2019 1 0.958279 24.0411 19.9195 0.242879 -3.24887 -0.764753
535 1 3.99823 11.2273 10.5348 -4.02234 -1.6063 -1.10832
84 1 19.5504 24.9068 22.8551 -0.507968 -1.75234 5.85499
3836 1 20.5283 13.4645 0.359234 6.13532 -5.2107 -1.83843
180 1 21.1459 20.766 9.93908 -1.06471 -2.39465 -4.10012
3334 1 22.4955 21.8164 16.7595 -4.36396 2.751 0.932292
1759 1 19.4336 12.9718 9.20338 -8.01024 -0.76911 -5.13803
2487 1 3.13393 15.0874 1.28929 2.09488 -2.53263 -5.55496
894 1 3.85669 12.3548 21.1603 -1.68791 -3.60991 -2.22545
740 1 18.7455 12.2641 17.0463 0.271625 2.11334 -4.35873
633 1 7.48972 11.6371 22.9868 -0.82801 1.65651 0.6787
49 1 23.043 13.1559 4.07181 -1.78211 0.23574 0.870377
2373 1 14.8457 11.4745 16.5339 -1.27959 2.67396 0.300387
2214 1 10.1567 11.8615 21.4195 -0.201021 -4.51862 -3.16246
1004 1 23.2943 24.884 9.17239 -2.38331 0.904512 0.0799349
307 1 11.5219 13.4038 23.8746 1.5965 0.689186 -2.1988
1319 1 13.7157 25.6879 0.108272 0.675056 -3.4668 -0.156615
1588 1 2.50998 18.8094 23.8938 -1.94785 -2.88452 2.28205
2865 1 0.742715 11.9938 0.0685869 0.990989 -5.03729 -2.11454
