ITEM: TIMESTEP
3400
ITEM: NUMBER OF ATOMS
4360
ITEM: BOX BOUNDS pp pp pp
-2.4531107016702023e+01 2.3721942916726206e+01
-2.4685380477241054e+01 4.7201816077241048e+01
-2.4130624825418266e+01 2.4122423225441963e+01
ITEM: ATOMS id type x y z vx vy vz
555 1 -12.467 -13.7586 -1.15159 6.06272 -1.15515 0.463903
15 1 -3.06922 2.06146 -11.9921 0.942805 5.32182 0.478942
22 1 -11.3677 0.013295 -16.1779 3.07355 -0.381937 -3.86922
27 1 -18.5526 5.50724 -1.44933 2.83148 1.15017 1.17471
29 1 -8.32833 -11.2987 -9.34008 -1.23934 -4.49228 2.41278
37 1 -11.0193 -7.98208 -2.85344 -4.57962 -3.29647 1.85381
100 1 -23.7845 -14.8093 -22.9761 -0.546373 4.47154 -2.9346
44 1 -2.83083 -16.845 -7.75478 -2.72411 -0.590873 -2.13493
54 1 -17.3892 -11.1466 -11.9697 1.45097 -0.616487 -7.32211
55 1 -4.60065 -3.38736 -14.446 -0.703138 1.30691 -2.87708
57 1 -15.115 -9.81277 -3.95712 1.86925 -0.835636 -2.02073
66 1 -10.3701 -15.7391 -14.555 -3.55849 -0.0237717 -4.84288
75 1 -18.7571 2.78415 -11.6295 1.86769 2.92713 3.60052
3064 1 -3.29028 11.228 -18.5996 -0.579452 0.164476 0.80583
97 1 -7.72459 -13.3125 -20.9626 -3.91111 2.29337 0.470068
3824 1 -8.82826 -24.1021 -6.33323 -2.46567 4.00001 0.461966
2434 1 -0.582355 -22.0281 -2.90867 2.07707 -2.24396 0.257073
112 1 -15.7989 0.230285 -19.6718 1.89539 -3.22634 -1.60698
126 1 -8.9003 -1.22255 -7.64289 3.46041 2.03715 -1.73375
128 1 -18.2303 -2.06637 -9.15247 2.63867 2.03105 2.2536
132 1 -8.18268 -3.9894 -22.7459 -0.480947 -0.472581 0.524987
135 1 -13.2431 -4.99887 -21.3216 3.38008 2.94701 -0.169479
2463 1 -13.1936 -19.9545 -22.7868 1.56034 -1.6636 -1.66634
137 1 -10.7899 4.53974 -14.1415 5.54682 6.00623 5.19593
139 1 -18.2634 -18.8232 -15.2153 2.50885 -0.567424 2.34975
143 1 -4.27224 -1.07095 -6.23836 -1.30196 -2.07246 -2.53098
951 1 -9.69246 -24.4003 -13.6251 -4.30743 -3.00659 -1.78981
149 1 -18.8089 -21.9671 -18.5914 -1.01081 3.17286 -2.7233
160 1 -5.67626 -16.0294 -5.50083 1.11699 -0.663832 -2.34203
167 1 -12.4943 1.33059 -2.22913 -4.6605 -0.646643 -3.68801
170 1 -6.07588 -18.4608 -14.3156 -3.06367 -3.198 0.331113
174 1 -17.316 5.37481 -21.7176 2.22498 -2.41322 -2.61421
179 1 -5.9583 -7.49322 -13.6526 -0.791265 5.06275 1.35969
181 1 -4.64779 -1.67385 -20.7829 -2.41679 0.247439 -1.56694
187 1 -10.931 8.38556 -7.73117 -3.20421 -3.92921 4.58383
3378 1 -5.52064 -18.5806 -1.51524 0.841772 5.13218 -0.538037
198 1 -9.16702 -20.8547 -19.4085 0.159871 -0.677625 1.21184
2930 1 -21.2807 4.70134 -0.478782 4.05902 -0.564195 1.62641
204 1 -7.55647 -14.065 -9.11504 1.18155 -0.494681 0.574226
206 1 -5.00682 -15.946 -21.4545 0.173964 -4.26964 0.0110509
3403 1 -14.0522 -23.5227 -1.13899 2.76486 -6.54912 1.62151
213 1 -21.9329 -20.7118 -2.5012 2.86626 1.41898 -2.48968
221 1 -14.2106 3.40896 -1.83574 1.08879 -1.41188 -0.925397
3082 1 -2.17182 2.71632 -23.26 -2.37645 -0.821406 -0.865059
235 1 -23.109 -2.00833 -8.38371 4.97164 5.74397 2.6111
242 1 -9.40472 -3.46493 -13.9087 -3.84996 -1.51856 2.32965
248 1 -17.3126 6.05643 -12.5328 3.18768 -1.64814 3.39779
251 1 -21.5123 0.100864 -22.5294 -3.55709 1.01846 -1.68609
253 1 -1.4894 -3.68693 -21.7584 0.450196 -2.64381 -5.05631
256 1 -10.5496 -5.97754 -10.9486 -2.05209 1.79749 3.47349
257 1 -1.78141 5.04768 -21.4887 0.829347 -0.773464 -0.417151
258 1 -3.67806 0.424232 -8.47836 0.0922476 2.34041 -0.353818
263 1 -19.6174 8.62121 -5.30835 -4.08224 0.226319 3.45362
269 1 -20.0584 -6.84998 -16.1744 2.05377 5.19291 -5.1103
1310 1 -1.25974 -18.5233 -2.49457 2.01202 5.56219 3.60902
280 1 -2.33941 -19.4074 -12.3417 1.3084 3.13898 -3.79444
283 1 -3.19721 -22.1708 -20.4402 0.482303 0.307061 -0.071092
290 1 -5.88809 -12.8437 -15.7993 0.157341 1.73523 -1.00436
63 1 -0.704628 10.5551 -17.095 2.30652 -2.7702 2.43002
303 1 -21.5074 -18.7145 -6.99857 1.69979 0.905808 0.943838
312 1 -7.33389 2.04813 -7.50776 1.07238 5.43721 -0.467159
313 1 -17.6643 -16.1587 -13.7539 -1.18575 2.01612 1.00933
314 1 -13.3522 4.56766 -8.16873 1.24077 -2.85098 1.11791
317 1 -10.1483 -11.9666 -23.6262 -1.24842 1.65312 -1.69932
321 1 -19.9732 -11.6506 -13.0542 -2.53161 2.5526 -2.31313
3306 1 -8.51376 9.48305 -21.8308 3.27878 1.97392 -1.2915
339 1 -5.42412 -13.351 -22.6416 2.29003 -3.82364 -2.18385
340 1 -13.7271 1.54039 -16.9468 2.90444 1.01972 -1.25715
341 1 -8.83683 5.15471 -12.228 -4.34692 -1.26713 0.826874
3255 1 -17.8789 11.0141 -17.9379 -4.09149 -1.74289 4.60459e-05
343 1 -1.8854 -13.9068 -5.63617 0.50773 2.27812 3.37807
356 1 -2.38734 -19.5701 -20.5921 1.82892 7.96139 5.83035
359 1 -14.2304 -21.4802 -10.0941 1.62145 -2.85238 0.151668
681 1 -0.638213 2.16081 -5.89935 -0.0954536 -0.858326 -7.20542
364 1 -10.1765 1.74045 -7.39857 4.23149 -1.50323 -3.30708
366 1 -22.6972 0.650392 -8.99813 2.72175 -3.09147 -1.65651
376 1 -4.06713 -14.6034 -17.2036 0.490537 -2.86697 0.671625
190 1 -16.3715 10.4737 -10.3112 0.363496 2.23498 2.01897
393 1 -12.266 -18.7653 -12.5198 -2.89182 1.87688 -3.0697
294 1 -8.26503 1.30978 -0.659132 2.13132 1.80246 -3.60866
3525 1 -16.9348 11.082 -20.773 -3.35416 -0.110755 -1.41661
408 1 -0.910089 -1.85676 -15.3381 1.46131 -0.335934 0.967813
970 1 -3.70862 -23.5666 -8.39548 -4.46261 2.79928 -0.101876
415 1 -16.1445 5.44297 -7.85571 -1.46375 -0.409022 -0.13313
421 1 -15.7285 -23.362 -14.5537 1.79725 -0.475157 -1.94866
426 1 -16.2659 -4.20297 -9.01665 -1.91115 0.276596 1.26688
429 1 -7.1569 9.0828 -12.016 -5.44433 -3.41152 7.22171
433 1 -19.8342 0.558134 -17.0365 1.43814 1.13225 -0.840476
434 1 -11.9309 -3.61806 -12.2824 0.513614 -4.37239 5.20476
436 1 -15.2039 -9.80206 -10.523 1.88665 -3.14927 1.24182
438 1 -16.5853 6.11811 -3.47725 2.23315 -1.2821 2.03942
444 1 -23.7427 6.89747 -18.1388 -1.29461 -1.5902 -3.43817
454 1 -6.67579 0.538913 -14.4427 6.08271 -4.99915 6.00205
470 1 -20.9763 6.06292 -9.55574 0.90736 0.0284079 -0.450034
476 1 -12.5101 -5.71249 -4.12938 -2.53409 -2.20144 -1.21424
477 1 -10.579 -10.5316 -16.4776 -0.0647478 -3.05015 -2.78381
481 1 -1.99907 7.50218 -20.3419 -2.27053 -2.51079 -6.23833
492 1 -14.3126 -17.1832 -11.546 0.722747 2.4533 0.976357
2070 1 -23.0881 0.675489 -0.376647 -2.04513 -0.417806 4.65678
1796 1 -22.4403 -10.7647 -23.8359 -6.18396 0.229098 -1.47105
501 1 -15.2535 -12.8465 -7.04346 -0.195295 3.74628 0.519187
1892 1 -1.63023 -12.5252 -18.4571 1.62789 -2.04503 2.33013
231 1 -22.9616 -2.37198 -22.2259 0.613843 3.05175 -1.03335
517 1 -14.9592 -1.73013 -21.5998 -0.705132 0.0836797 0.340491
519 1 -20.7792 -14.0404 -7.42452 3.91455 -2.14449 -4.81312
520 1 -5.60486 -22.6318 -13.0926 -3.63594 -7.17983 -0.552091
523 1 -11.3795 -13.4198 -9.55619 -2.01839 1.77653 1.63066
525 1 -5.35177 -0.564859 -3.28531 -1.50996 -2.32412 -3.73262
532 1 -8.56625 -2.59659 -3.99206 0.255436 2.24857 -3.09691
544 1 -5.42218 -18.8506 -20.3292 -1.28324 0.443739 -3.49501
546 1 -6.14637 -14.785 -13.9195 -3.4712 0.953981 -1.93797
2223 1 -19.7332 10.7364 -22.1258 0.954132 0.706725 -0.0719637
575 1 -13.8467 5.51089 -3.77181 -2.05535 2.33448 2.44554
580 1 -6.14772 4.75677 -20.893 -0.975122 5.44112 -3.78716
582 1 -2.83687 -14.9354 -19.9727 -3.97366 0.0312647 -0.282094
1789 1 -23.2411 -1.56571 -4.68316 2.80295 1.32926 -3.7574
2596 1 -14.2467 10.7008 -20.2162 0.483006 1.92643 1.30089
1890 1 -24.1249 7.84632 -23.7295 0.730388 0.372252 0.220637
603 1 -7.32876 6.2977 -3.89281 4.17068 -0.112511 -0.769391
611 1 -1.85223 -9.91195 -7.89181 0.0578997 -5.93045 -5.39962
614 1 -17.523 -9.9031 -5.42694 3.26908 2.36414 -4.93294
624 1 -7.13476 2.15167 -22.0202 1.80004 5.71637 3.84071
626 1 -3.39774 3.65251 -19.5881 -1.74861 -3.99509 0.799591
3200 1 -23.5056 -6.3792 -4.15973 1.95118 1.85918 -3.66737
629 1 -4.96141 9.5519 -7.53738 7.95772 3.25687 1.61065
636 1 -22.5434 1.53337 -16.8273 -5.16674 4.42926 -2.16272
3207 1 -0.640134 -6.37229 -19.2836 -1.16899 8.92332 4.24474
639 1 -10.675 -18.1447 -22.1138 0.361585 -4.96361 1.26149
645 1 -8.28482 -7.10189 -20.0022 0.388754 5.30987 2.73969
651 1 -21.2698 4.33195 -12.0167 1.22931 0.830755 -2.47753
652 1 -5.26578 -3.70684 -18.5386 -6.15432 0.465339 -4.21473
2859 1 -23.4921 -22.2739 -20.2042 -5.03344 -1.10864 0.443663
654 1 -10.5679 -1.2075 -18.8029 0.233927 -0.834041 0.596551
655 1 -3.63859 -11.2052 -14.7407 -0.0474393 0.882656 5.71652
661 1 -18.709 -6.42305 -18.9964 -2.07092 -2.40729 2.64845
663 1 -14.233 -19.9366 -7.6374 -1.9273 -1.34185 2.46499
666 1 -8.32259 -6.09854 -13.2253 -2.10982 1.52573 0.420914
742 1 -7.9058 -22.7368 -24.1253 0.0772385 -4.78237 -2.5776
1908 1 -15.4328 -6.88209 -0.380106 -0.534951 3.52567 -0.309372
674 1 -8.96828 0.102576 -21.7552 -1.80824 -2.65705 -2.59842
675 1 -21.5783 -11.6971 -8.94503 -1.92463 -3.41918 -2.67444
1024 1 -4.14198 7.72584 -23.709 -3.44129 -0.319695 -2.25262
679 1 -18.1994 2.32359 -8.77399 -5.24427 -5.78664 1.98853
3052 1 -20.44 11.0184 -11.5168 -1.2137 -4.86926 2.60001
688 1 -12.7919 -12.0913 -13.8012 0.773635 2.12375 1.99463
3671 1 -2.95218 10.5202 -14.9578 -3.13596 -0.624859 -4.34964
709 1 -7.72991 -4.1246 -8.58646 -0.18842 2.26842 4.95396
711 1 -16.1648 -5.31738 -14.2465 -3.31294 -2.89022 -3.18515
717 1 -11.571 -5.02985 -15.0597 0.591134 -0.0387688 -2.50536
721 1 -8.38944 -8.91064 -16.0168 4.97499 1.24452 2.86961
741 1 -16.7806 -21.2259 -11.1412 1.74444 -0.0239339 -2.93905
394 1 -8.7476 11.0608 -4.82971 -3.9965 1.23307 3.0866
756 1 -4.78033 -3.22796 -2.54255 -1.4693 3.43779 -2.18978
761 1 -10.2912 -11.7169 -7.17575 0.404713 -3.57054 3.17917
780 1 -5.83884 -9.02826 -22.2564 3.75641 -2.67313 -0.394561
796 1 -10.0523 -12.6778 -14.673 -0.677769 -2.9758 -1.45206
798 1 -13.1912 0.627828 -6.68916 -0.822961 2.85948 -2.73498
808 1 -1.61104 -17.5544 -10.1139 1.80412 2.33441 0.0501786
810 1 -21.3757 -13.6643 -4.74069 -2.24073 1.62178 5.61346
811 1 -12.3951 -6.66986 -8.88571 0.146504 -2.42202 2.35769
2646 1 -4.30857 10.3294 -2.5721 -1.17689 4.73389 -3.33347
1354 1 -2.58787 -5.24862 -17.4463 -1.11123 -1.9944 -0.825379
388 1 -19.2092 -24.3117 -23.7914 -4.72052 2.28644 3.06474
826 1 -11.4164 6.64261 -2.29702 -1.14826 0.500713 -1.33142
833 1 -9.40779 -5.32505 -6.76029 -1.46168 -5.0648 -8.5698
837 1 -21.8389 -16.2554 -3.60588 1.13879 0.978916 1.21375
842 1 -7.25345 -22.8053 -1.57722 -0.921626 0.717071 2.87374
1314 1 -15.1079 10.6086 -17.5756 -1.84395 -1.14921 5.41983
856 1 -20.6561 -3.08664 -8.33439 1.93846 -0.269779 -1.51366
3989 1 -16.9844 -9.61593 -14.5003 -2.51683 -1.86816 -0.997112
872 1 -3.30544 -8.40871 -20.8621 0.314947 0.962768 -4.38106
873 1 -3.66251 -0.98431 -23.6945 -0.147663 5.7729 5.83005
882 1 -11.2046 -3.53455 -2.87167 5.02535 -3.2762 1.95505
885 1 -4.69484 -18.5834 -4.26495 1.11361 -0.164806 5.43688
3614 1 -1.55412 -5.68468 -4.7208 0.142986 5.36238 1.02874
900 1 -13.7795 -14.3191 -12.2202 2.13659 2.19149 -6.27966
904 1 -8.68068 -8.01121 -7.29111 -1.95573 -2.25296 -4.22796
907 1 -14.69 0.538405 -9.054 -2.06014 1.14303 0.837385
910 1 -9.97776 4.53086 -3.91911 -0.6038 4.51438 0.277631
922 1 -10.468 1.76158 -19.826 4.61495 -1.26357 4.2587
929 1 -7.80656 -13.1054 -3.27413 3.19169 1.74555 0.576366
930 1 -21.387 -18.6767 -12.2937 -1.49286 2.79546 3.56317
939 1 -8.16791 -14.0263 -16.8562 5.45779 -2.82965 -1.62231
942 1 -6.52131 -14.9577 -19.0173 -3.35449 -1.84477 0.80501
948 1 -21.0238 4.58674 -6.99356 -8.87318 -0.0219696 -1.32104
1387 1 -17.189 0.144281 -1.82088 2.07774 -0.0411363 1.51065
956 1 -14.1401 -5.58687 -12.0908 -4.14868 0.854835 -1.54658
962 1 -4.70683 6.76212 -3.72113 2.66772 -1.03702 -0.433528
3965 1 -6.00945 -0.579896 -0.549167 2.83554 4.49285 -0.184626
678 1 -19.1962 -6.21553 -0.502216 -1.42314 -1.47512 -0.268489
2396 1 -15.7578 -21.0461 -1.63522 -1.48625 -0.862019 0.566581
1001 1 -20.39 -5.35398 -6.80875 -3.21595 0.458354 -6.03954
1010 1 -13.4714 2.98218 -10.3082 -5.44758 0.148356 -2.62402
3768 1 -0.984739 6.48532 -14.7288 -4.03594 6.59118 0.470624
1022 1 -9.1052 -21.9904 -11.8756 5.88945 0.434887 1.15351
2237 1 -0.7292 -23.8018 -20.3535 3.16536 -1.87156 0.535839
1028 1 -6.387 -10.5327 -14.351 1.36951 4.24116 2.46853
1030 1 -17.1741 -16.1206 -21.7932 1.02912 -1.07876 7.33826
1031 1 -2.41383 -11.6395 -3.49299 2.79986 -0.47178 -2.12063
4103 1 -8.08998 -23.3563 -9.11129 -0.309575 -1.84894 -0.720848
1041 1 -2.94575 8.24725 -12.8503 -2.29216 4.77513 2.43938
2494 1 -13.1076 -15.3418 -23.8742 0.280615 0.501631 0.205401
1052 1 -21.4763 -3.05905 -19.8751 2.13765 1.78914 -0.694243
1057 1 -7.7777 -16.5441 -15.4618 2.87657 -0.509184 6.49678
1080 1 -19.7768 -7.87131 -9.36322 0.32667 2.73265 2.14254
1082 1 -17.7085 -17.2383 -5.54489 1.94235 5.96192 -2.63017
1084 1 -2.92052 -16.3382 -4.91613 2.09567 2.11132 -0.626761
1085 1 -11.095 -14.0215 -5.66432 -4.51304 0.8421 2.06436
1086 1 -9.90353 9.18481 -2.75347 -0.68945 -4.30995 2.9716
1090 1 -22.5582 -20.7907 -10.5287 -0.780597 -1.43642 2.03001
1092 1 -20.1746 -18.5778 -4.2841 -3.43845 -1.11637 0.946936
1120 1 -6.15479 -15.5034 -2.53973 -2.10312 3.36877 1.91266
814 1 -19.3818 -2.17667 -1.38989 1.47587 -0.98396 1.92117
3977 1 -11.1117 -18.2005 -17.7125 4.89262 -0.161834 3.07524
1136 1 -20.7212 -20.8778 -20.5023 -0.842279 5.5618 -0.987034
1160 1 -8.50393 5.30275 -8.55922 -1.25692 1.49042 -2.24676
1512 1 -10.7661 -11.4274 -2.32689 -0.239451 3.26053 -2.2747
1172 1 -21.5317 -15.8814 -15.0342 0.441617 1.18078 -2.72136
1174 1 -22.4469 -20.2959 -16.35 -1.97993 -3.15972 3.15662
542 1 -22.842 5.41045 -4.77668 -2.5448 -2.1349 4.62143
1191 1 -1.94699 -1.99779 -19.6031 -1.24581 0.706785 -4.36444
1192 1 -14.5588 -2.77391 -11.0264 3.25529 0.154811 3.44626
1199 1 -12.5702 5.2337 -11.7615 6.24635 2.77579 -2.05447
1202 1 -14.9395 -1.27491 -5.41957 2.25346 3.90001 -2.74049
1203 1 -16.6954 -10.6589 -17.1973 0.663458 -5.74281 -0.025992
144 1 -23.8874 -8.74708 -16.0761 -4.25736 3.52501 1.30323
1230 1 -14.4301 -17.1302 -8.58877 -1.49257 -2.90016 4.16844
1231 1 -18.6856 -10.8 -9.42002 -2.20302 1.58023 1.70535
1233 1 -2.41223 0.486243 -21.4136 -6.07303 1.52976 -2.79669
1245 1 -20.2528 8.04781 -20.993 -2.66894 0.0467133 -1.61654
1247 1 -1.0906 1.4307 -9.91924 -0.387971 -3.23502 -0.922555
1257 1 -5.79813 -22.4358 -10.3748 -3.04025 -2.20458 1.71142
1263 1 -14.964 -6.80213 -3.4496 -1.13134 -3.26294 -1.06187
1264 1 -22.0064 -11.4827 -2.92188 -0.615864 3.44872 0.35021
1268 1 -23.2367 -10.4613 -18.7278 -1.96433 2.46298 -0.832915
1276 1 -2.49065 -10.0864 -22.9597 3.60751 -0.674282 -0.903434
1286 1 -5.74123 5.37368 -15.65 1.55263 3.03394 -2.5774
1299 1 -11.6381 -8.9779 -7.46297 0.123586 -3.66884 -2.48204
1302 1 -4.28937 -3.99835 -22.6313 -1.36189 0.287121 -1.2498
1303 1 -6.43224 -8.02582 -17.9717 2.70117 1.37422 0.852376
1307 1 -16.8281 -22.8613 -4.69687 4.11647 3.53311 4.21892
1011 1 -17.2198 3.09768 -1.34548 -2.83508 3.10228 -4.43371
2995 1 -3.58232 9.28891 -5.22139 -1.52184 -3.17815 2.37131
821 1 -23.8757 -23.9448 -22.3969 1.58813 -5.00072 -1.5455
1315 1 -20.2056 -11.0888 -22.0629 -0.621758 -3.08167 -4.49512
1317 1 -12.1329 10.1127 -11.4988 2.97491 0.429152 -1.16042
1324 1 -11.0636 -21.632 -21.4778 0.427824 -4.16469 3.87546
1326 1 -19.5615 -18.0689 -19.8898 1.70949 2.64678 -0.390053
1331 1 -19.2718 1.65902 -3.14247 1.16752 3.10877 -0.0434116
1343 1 -9.18062 -8.6454 -10.2227 2.92228 5.24109 -0.502051
1345 1 -22.8106 2.77367 -19.2388 -1.42663 1.59718 -6.5072
1347 1 -17.7965 -11.6245 -20.0027 -3.24803 -0.961072 -0.48534
1350 1 -14.4053 -0.630894 -2.83364 -3.33582 3.01748 -5.39137
1356 1 -19.3106 -11.8289 -2.12896 -0.296621 -3.11105 -5.94939
1357 1 -22.1941 -6.38865 -10.6481 -0.958479 1.21075 3.09516
1363 1 -15.6769 -10.271 -21.4805 4.16163 1.71498 1.71746
1371 1 -20.6377 7.83807 -1.13614 -3.27497 3.67187 2.1499
3947 1 -24.3581 10.8264 -23.6341 0.532413 0.862398 -0.0337889
3972 1 -4.74155 -7.02577 -11.0055 -0.758618 -0.2064 -1.4806
1399 1 -2.65735 -24.1609 -2.88948 -2.00106 -0.761641 1.09246
1402 1 -18.8902 -4.15902 -17.1419 -1.99698 -1.07459 0.437777
1406 1 -6.20612 2.14329 -11.7793 -1.35204 -0.564579 1.79649
1407 1 -23.6394 8.92797 -1.76982 -0.926579 2.41141 -4.70741
1408 1 -2.08908 -4.5152 -14.4584 1.10678 1.52027 -1.84308
1413 1 -13.2874 2.07534 -19.6382 1.06884 -0.651282 0.0586764
1422 1 -14.1898 -19.0364 -14.9583 2.05201 -1.37644 1.78916
1431 1 -8.54282 3.04445 -10.2843 -0.714668 0.556512 3.22981
1433 1 -19.4439 -10.9716 -15.6079 -0.173158 -1.5798 -1.99316
1436 1 -16.3686 -3.25924 -16.0348 4.30579 -1.77761 1.32067
2194 1 -20.5618 2.39768 -20.905 0.868941 -5.17435 1.88789
1439 1 -18.7479 7.69893 -10.5489 -0.711063 0.590221 -1.65997
1442 1 -21.8045 -8.29094 -5.11799 2.79721 -1.49076 3.00163
1450 1 -3.01748 -5.21967 -9.04185 -2.00508 -0.350725 -4.90696
1452 1 -7.22898 -24.1984 -16.8184 -2.42082 2.68088 2.3818
373 1 -15.4406 6.81041 -23.8319 2.28964 -6.47796 -4.09117
1455 1 -15.3113 -18.5053 -3.06103 -1.713 0.935954 5.4684
1457 1 -17.4302 2.3056 -18.2752 1.6343 0.837622 0.245652
1459 1 -9.41109 -10.7467 -4.75358 -0.530571 0.374745 -1.2459
1460 1 -14.3908 8.61194 -10.5802 0.382014 0.770789 2.43609
1466 1 -16.9639 -5.68353 -5.01387 3.56424 0.803985 -1.31735
1471 1 -1.60912 -4.87736 -11.6272 -1.97166 4.12883 3.35193
1475 1 -23.8383 -24.4023 -3.65655 -3.12219 4.16987 1.173
1487 1 -3.41581 4.42158 -17.0138 -1.72088 1.96895 2.4894
1490 1 -20.2352 6.27145 -3.76637 2.22316 -1.27476 -2.08147
1493 1 -4.35427 -7.09218 -16.0003 6.23845 -4.55328 -0.336953
1494 1 -8.99141 5.38299 -18.1917 4.74723 -2.69349 1.81411
1496 1 -2.85453 10.5628 -9.18352 0.479407 -2.58824 4.71053
2483 1 -1.01367 9.86621 -11.3159 3.04273 2.74578 -5.06962
1504 1 -4.11203 -23.5785 -5.50042 1.0794 -1.94834 2.83105
3736 1 -24.1769 10.1675 -9.743 1.51091 -1.63158 3.14258
1514 1 -12.3189 -4.61396 -6.84488 -0.326933 -4.49469 0.397861
1522 1 -12.6529 -1.25878 -13.6677 -1.46558 2.10966 1.58819
3181 1 -19.6507 -17.8945 -24.0519 2.8965 -0.961984 -3.93174
1540 1 -20.2165 5.00206 -21.6648 1.68302 3.72801 -3.05586
1550 1 -2.00882 -7.67535 -11.3381 -1.20791 1.36466 -2.5418
1554 1 -6.46141 -6.03552 -22.0687 -2.3577 -4.07056 -1.91176
1555 1 -20.8988 -4.66492 -4.15836 -0.823421 1.73971 -1.83658
1570 1 -22.5375 1.5788 -11.8705 -5.32477 1.94986 -0.0149068
2835 1 -4.39232 5.36941 -0.184655 3.85407 0.714729 2.48996
1580 1 -17.2227 -23.9834 -7.68019 0.757001 -1.96989 -1.81354
1828 1 -14.1811 -24.6337 -23.0371 5.76996 0.498254 0.0942327
1589 1 -12.4233 -20.9934 -3.57003 -5.26523 -1.25105 2.50964
1596 1 -3.41348 -2.26329 -16.7777 0.504105 1.07071 -0.485765
1602 1 -21.658 -12.5623 -20.071 -1.97255 1.48069 6.40498
40 1 -2.03841 2.44609 -15.4991 0.936228 0.354259 0.472929
1615 1 -5.00306 -15.5992 -9.14075 -1.80373 -1.81923 -2.47605
1617 1 -16.45 -13.7701 -12.84 1.50532 -6.23474 4.30024
1632 1 -5.57553 9.09823 -21.6898 1.71141 -3.76726 -4.38442
3347 1 -24.0083 10.5212 -14.8019 -4.84296 3.33564 2.36939
1640 1 -17.7148 -23.2816 -12.651 -2.30121 1.56333 -5.93218
1645 1 -2.20852 -7.12719 -6.94795 -0.467559 2.40454 2.02745
1646 1 -22.9991 -7.68209 -19.9083 1.89777 -3.20052 1.05575
637 1 -10.0871 -24.1176 -22.6843 4.43331 -0.303633 1.3143
1649 1 -19.4219 -6.01043 -11.6892 -0.688717 -0.994757 -2.36687
1662 1 -9.33639 -20.4948 -9.35615 0.804635 -0.124065 -2.91676
1663 1 -14.5092 -2.76856 -1.02235 -2.68411 1.63096 2.25793
1676 1 -19.0489 -0.123551 -5.43815 -0.621974 -4.20597 -1.36763
2347 1 -14.4469 8.87019 -15.2364 -1.63622 1.91604 4.35722
1681 1 -16.5417 -7.75626 -22.5819 7.00173 -0.460153 2.31264
1688 1 -19.0662 -1.79575 -12.0341 3.3062 0.897293 -6.58441
1694 1 -14.622 2.11629 -12.7955 0.391436 -3.28759 4.09965
1710 1 -11.6571 -20.4673 -15.6474 2.52125 -1.80794 2.85629
1724 1 -19.6337 -23.2015 -4.4048 1.37376 0.0487822 1.41218
1725 1 -14.8348 5.87409 -15.3081 -2.75219 5.30345 -1.54776
3959 1 -21.07 -5.77691 -20.6358 -4.65976 4.00931 -3.78409
2936 1 -23.2467 8.56892 -4.87101 -2.26009 1.18157 2.1224
1737 1 -16.7991 0.0508416 -7.11305 -5.49178 3.15853 -2.54732
1753 1 -22.6325 -15.2848 -20.6554 -2.10632 3.4029 -2.70576
1755 1 -7.53742 0.121629 -9.92459 -1.78984 -3.73311 2.12363
1760 1 -15.5461 -14.0798 -22.9352 5.69261 -1.65337 -1.87449
1778 1 -18.1938 -7.24159 -14.0125 2.63371 1.27197 4.65538
1782 1 -22.8298 -14.4773 -9.5179 1.8827 -2.39635 0.318091
1785 1 -7.07489 7.67417 -7.70324 5.68687 0.967136 0.54846
1786 1 -2.66854 4.16008 -6.27697 2.64463 -5.36714 -0.0695064
1680 1 -23.8701 -17.8553 -20.3321 -6.24899 2.03263 -1.11677
847 1 -13.5106 -24.0226 -13.2789 0.85677 -1.29941 -2.00734
1801 1 -12.3895 -18.6906 -5.67751 1.4709 -2.52096 -1.40493
1802 1 -18.1828 -19.994 -9.13091 4.49362 2.98892 1.42753
1804 1 -3.14036 -21.6084 -14.0757 -0.129955 2.10538 -3.39501
1812 1 -9.909 -3.6205 -20.2932 1.89091 3.34694 2.72505
653 1 -23.9152 -17.695 -13.0464 -1.429 0.556383 0.625124
1830 1 -16.3622 1.2698 -15.7379 4.82262 6.20504 1.52449
1836 1 -11.2498 -24.2462 -18.192 4.1056 0.633742 3.44126
1851 1 -6.56791 3.7745 -0.786915 0.897471 -1.8566 -0.390419
1861 1 -15.2997 -21.4716 -16.5854 -0.626711 0.755035 -3.29883
1862 1 -10.0262 -3.07961 -9.96778 -6.1148 0.852054 -1.56646
1863 1 -2.96957 -12.8865 -8.03392 -4.86013 -4.56791 -2.49301
1872 1 -2.74423 -10.6685 -12.0527 -2.97664 2.53334 3.55706
1874 1 -9.94885 -15.0807 -20.4662 -2.58979 0.620395 0.992065
3973 1 -11.3778 -21.1815 -7.4339 3.16071 -1.00543 -1.31808
1876 1 -23.2988 8.14632 -20.9457 -3.53598 -3.40219 1.47901
1879 1 -19.6128 -17.223 -17.2002 -4.47567 -0.00575627 -0.302265
1883 1 -6.58587 -11.7244 -5.61237 3.57633 2.98692 -0.149329
1888 1 -9.708 -18.5867 -14.2291 5.22113 0.402679 3.16478
2468 1 -22.9724 -24.1106 -6.47948 -1.84729 -0.0483995 -1.82156
3080 1 -20.1845 11.1018 -6.73272 -0.584256 6.03193 0.95913
1901 1 -10.7748 -13.5299 -18.136 3.47261 -5.10153 1.49893
1905 1 -14.671 9.40163 -6.52957 -8.3146 -3.17181 -0.290402
1918 1 -19.193 -1.22559 -21.3584 -0.578119 -5.33735 -1.13332
993 1 -23.9449 1.56101 -21.7332 2.61362 0.703815 0.888155
1467 1 -24.0507 -16.7096 -15.9602 1.01814 0.189404 0.842048
1930 1 -6.55761 -17.7224 -18.0874 -1.9661 2.65815 1.03137
400 1 -24.4573 -17.0777 -2.25208 -0.505135 -1.48475 2.87091
3968 1 -2.44949 5.72853 -2.28902 -0.847658 -1.37882 0.859244
3945 1 -21.4893 -13.1482 -15.8854 2.59301 2.70904 4.82478
1944 1 -21.5691 -23.5439 -2.4248 4.03782 0.841018 -2.92999
1949 1 -7.46464 -6.25943 -10.2907 3.87764 -2.16978 -1.80383
1960 1 -15.1542 -5.13791 -19.1377 -3.8674 -4.04743 -2.17399
1966 1 -18.7989 -18.06 -11.6045 1.0616 -3.08653 2.09558
1980 1 -21.4437 5.3048 -18.9223 -3.05528 5.69673 6.28055
1996 1 -10.2467 6.55366 -22.3599 -0.185984 -1.02071 -2.55748
2001 1 -6.79816 -8.58284 -2.35355 -1.3067 -1.60226 -0.615917
3688 1 -11.2817 -23.2092 -0.736311 -0.395932 0.995485 -5.11002
2015 1 -1.49983 -7.95327 -3.0632 1.72139 -3.23421 -2.51941
2016 1 -5.43054 -13.6368 -7.06524 0.374103 -4.70379 -1.01136
2031 1 -7.71174 -20.8684 -14.0649 -4.7276 3.67446 5.56426
2034 1 -7.56505 -1.62508 -17.9226 4.19325 3.21629 2.78873
2036 1 -13.0517 6.0243 -21.9203 -0.350256 -0.642957 4.02043
2040 1 -6.72447 -23.178 -4.53662 -3.79751 -2.59204 2.65762
2050 1 -11.0962 6.48698 -9.68037 -2.61145 0.302864 6.04947
2051 1 -21.2418 10.2394 -3.10598 -1.77106 2.5911 1.84372
2052 1 -9.10345 4.20124 -21.0136 -1.7668 -5.60389 0.599619
2060 1 -7.35696 -0.294722 -5.43836 0.174134 3.33556 2.56098
1852 1 -0.82003 2.0266 -19.4962 -1.3702 0.220606 -2.98091
2063 1 -11.764 -11.0491 -19.1038 -2.15818 -2.63562 2.144
2068 1 -13.8322 8.65979 -3.8838 -5.3082 3.61336 1.17444
3994 1 -15.6059 -20.5011 -21.2682 -1.24038 1.85591 0.963535
2073 1 -18.3939 7.56194 -14.6107 0.590341 -0.213709 -2.12718
2078 1 -13.1513 1.76541 -22.3768 3.89654 4.87458 3.5314
2593 1 -23.1645 -5.19324 -23.0258 0.518472 1.9195 5.15181
2085 1 -20.7501 -20.9574 -8.47101 2.42107 1.07791 -1.22407
2087 1 -10.5991 6.27555 -16.2444 0.633088 -3.25939 1.31722
2098 1 -15.0151 -17.5338 -5.87241 -6.40566 -4.37257 -0.375781
2106 1 -20.0661 -16.035 -21.924 4.35208 -0.675783 -0.642842
2107 1 -6.91771 6.51391 -10.5684 0.000439865 4.18713 5.50672
2118 1 -10.9842 -0.803982 -4.02483 -3.17438 -2.59979 0.755929
2128 1 -19.3721 -19.7693 -1.6688 -0.0361388 -0.979691 1.53754
2130 1 -21.6706 7.5503 -7.12518 6.08004 3.30281 2.58904
2139 1 -8.71427 2.71817 -17.4471 -2.70123 1.51869 -0.902082
1897 1 -12.8728 -23.6201 -6.55386 -1.14265 1.37377 -5.15556
2167 1 -14.4392 -11.9526 -18.5992 1.04332 -3.6764 -0.0395288
1634 1 -19.2293 -8.95548 -23.7764 -1.45764 -3.97056 -1.07589
2195 1 -10.2714 -18.2051 -10.6134 -1.66959 -2.6791 2.00615
2196 1 -2.19488 5.66054 -11.1668 -1.01528 -3.39504 -0.169956
2205 1 -23.455 8.03749 -15.6273 0.847265 -0.51733 0.470388
2206 1 -2.32494 -8.96198 -15.7652 -1.1978 1.88893 -3.19717
2207 1 -22.6334 -8.61414 -2.46224 -0.942868 -3.52305 0.600008
2211 1 -16.7721 4.8744 -19.005 0.387858 -4.40002 -5.69461
2212 1 -18.0795 -6.42184 -7.61238 1.66764 -1.00335 -1.97368
2228 1 -8.70215 -9.41603 -23.1758 4.40582 1.80029 -1.45904
2233 1 -9.49688 2.02037 -14.7401 -0.470295 3.25425 -2.83621
2234 1 -4.04709 3.60751 -3.98791 -2.06134 1.79682 -0.0987748
2241 1 -23.4805 -2.85052 -17.7451 3.03967 -1.3051 2.98211
2248 1 -0.943888 -7.1428 -14.2063 1.50775 -2.10935 1.42355
2251 1 -12.2982 -7.45687 -13.2759 -3.30781 -2.12708 0.739356
495 1 -0.6617 -10.0323 -4.94271 -2.56277 0.523555 0.860645
2267 1 -10.2578 -14.6383 -3.07987 0.908937 -1.35186 -1.87746
2278 1 -13.7998 -14.653 -5.62075 0.523937 -0.0665426 2.3056
2292 1 -12.1146 -9.97482 -4.62604 0.262192 1.71989 -2.00447
2294 1 -20.5316 8.14705 -16.5716 -2.24158 1.22227 2.09176
2296 1 -21.1518 -9.23006 -17.148 -3.1557 2.39416 -3.08821
2298 1 -2.52636 -21.2088 -6.02303 2.4692 0.281892 1.12411
2317 1 -3.99683 -9.59055 -9.65171 2.79886 5.67285 0.487287
2328 1 -8.57927 -8.1223 -4.39314 -1.26968 3.1848 -1.50434
1289 1 -24.2608 -11.7366 -10.0765 2.20496 -2.34895 6.95446
2361 1 -21.5989 8.21418 -11.6751 2.0177 -1.68872 -1.25527
2368 1 -7.25331 -19.4129 -7.60902 5.13457 -1.42562 4.82605
2370 1 -23.0151 -10.4432 -7.01846 -4.21386 1.77776 2.95178
1293 1 -7.57199 -2.83577 -1.28979 0.725874 -2.54392 1.69149
2374 1 -5.09536 8.05135 -1.02195 -1.00577 5.11313 -6.40683
2377 1 -4.65732 -8.35332 -6.24139 2.8906 0.417275 3.85299
2390 1 -22.3648 -7.39024 -7.7537 2.10637 -0.0541477 -1.81838
3343 1 -23.9221 -6.02386 -17.6731 2.65125 -1.74693 -4.02288
3662 1 -0.831277 -0.563618 -23.8475 -2.1488 4.09763 0.234199
2404 1 -20.4778 -6.37662 -23.7124 0.00677671 4.3827 1.65859
1519 1 -10.5097 -18.1686 -0.403085 -1.27225 2.83853 -0.0200112
2408 1 -23.0834 -3.70047 -13.2133 1.31122 -2.80044 -2.13288
933 1 -18.878 -21.7301 -22.4136 -1.81918 -3.37108 -0.211792
3267 1 -18.1617 9.24018 -0.557231 4.44206 3.0744 0.50682
2425 1 -13.6031 9.01416 -22.5514 2.4389 3.88748 -0.679128
2429 1 -9.43718 -8.8029 -13.2659 5.72508 1.154 -1.74207
3958 1 -0.900654 8.25236 -4.21557 -2.23097 0.1608 -3.11338
2438 1 -5.03597 -22.3478 -22.8096 -5.08199 -1.04591 -0.595644
2442 1 -2.77271 -9.8435 -18.4972 5.79947 -1.74089 -1.39988
2454 1 -5.91151 9.86377 -15.743 -2.08314 -0.11039 0.606966
2465 1 -8.14278 -14.6661 -11.8778 -0.756333 5.85568 2.42229
3944 1 -15.1043 -7.64972 -15.5805 0.542838 1.37083 -1.86939
2474 1 -5.444 -10.8049 -18.2363 -0.209671 -0.622576 -0.899055
2476 1 -6.94403 -22.7784 -20.4107 -0.922455 -1.06212 -5.73508
2478 1 -4.53304 -22.2332 -1.42415 4.55438 -4.13351 -2.70611
2481 1 -15.0199 -6.9421 -9.71752 0.457457 -2.52354 -4.46536
3993 1 -4.97096 -10.3351 -4.0945 3.58886 -0.402361 -3.43115
689 1 -1.67384 -0.537306 -4.92239 1.88309 -1.29673 -4.06256
384 1 -10.4192 11.1974 -7.18926 -2.63243 -2.32779 -3.19316
2510 1 -21.7947 2.32399 -1.90633 1.68321 1.64799 0.347178
3998 1 -11.9615 -3.76835 -0.248407 4.61411 -2.37339 -4.1068
2520 1 -22.824 1.1252 -5.58317 1.14436 -5.63299 0.865023
2523 1 -17.0227 -22.986 -20.5089 1.27985 0.0740339 1.76082
2525 1 -13.9984 -14.4066 -9.24977 -1.82114 -2.72105 -4.13814
2526 1 -8.99582 -6.06946 -16.1483 -2.24877 -3.80085 1.37249
2529 1 -19.091 -7.89392 -4.16688 0.326841 0.487077 -2.89542
2531 1 -18.9858 -9.23008 -19.0688 -4.23224 4.34043 -0.375645
2534 1 -16.2713 -11.7573 -2.09086 0.729057 -4.30765 2.40243
2538 1 -7.65912 5.64962 -23.3098 -3.25684 0.419423 -5.00435
2542 1 -12.0162 -7.41831 -20.4564 1.42707 3.72512 2.9349
2543 1 -16.7083 -9.13571 -8.16641 -2.71809 -3.41451 -0.533514
2550 1 -22.4691 -18.0181 -17.7199 -1.26279 -3.74124 -0.5349
2558 1 -19.0551 6.7779 -18.7899 1.95059 0.0493436 3.11857
2562 1 -21.0946 -3.45447 -11.2937 -2.41581 -0.318749 0.395388
2564 1 -10.9392 -15.2187 -11.5767 2.07031 -1.40764 -3.77191
2567 1 -13.5055 -1.20665 -18.1837 4.25473 1.54659 0.459911
815 1 -20.6843 10.6741 -17.2708 -0.0115008 -2.19497 -0.218985
2574 1 -20.219 -23.4391 -7.3493 0.189068 -1.58253 -4.7064
2578 1 -17.4524 -14.695 -4.06687 0.721105 -0.163602 -2.64823
2584 1 -11.9456 -21.5027 -12.0805 -1.33778 4.88801 -0.365656
2949 1 -9.52582 -20.2336 -23.7386 -0.362722 1.17213 -0.516186
2595 1 -1.61099 -17.398 -18.6881 -1.59707 0.735974 -0.688138
222 1 -11.1045 -9.35457 -0.389948 3.79775 0.416684 0.483195
2597 1 -21.6237 -3.36034 -15.8103 0.544224 4.48839 1.8163
2602 1 -4.92132 -12.8009 -2.16318 -2.2994 -3.54144 -5.29449
2605 1 -16.0951 8.46285 -2.33152 3.13825 1.11035 2.52537
2609 1 -13.3202 -5.77702 -17.2337 0.675041 5.78377 -1.07463
2618 1 -7.64099 -17.5221 -12.1161 -0.443834 -0.0750805 -1.38518
2619 1 -1.44493 8.73163 -22.718 -0.179294 0.266031 -2.01534
2633 1 -4.22549 -15.2618 -11.661 0.363442 -2.93393 -1.39303
2403 1 -11.5403 -0.352464 -23.3107 3.82609 2.37209 -2.64301
8 1 -24.0996 -11.4849 -15.2454 2.75768 -0.683327 1.186
2652 1 -22.3976 -6.0942 -14.9814 -0.846255 3.10837 -0.926954
2653 1 -7.92073 7.6617 -1.30857 0.868933 1.7181 -5.8109
2656 1 -4.52072 8.58418 -18.9355 -3.28419 1.29803 4.61887
2667 1 -8.27961 -5.28552 -4.0258 0.900476 -4.9133 0.965173
2668 1 -9.06736 -17.8473 -19.6827 -4.71169 -0.443855 1.54362
2673 1 -14.1766 -23.3667 -3.942 -1.64967 -0.262479 5.57863
2674 1 -9.61453 -21.5115 -2.0995 2.63885 2.17865 2.20271
2681 1 -16.1451 -7.77281 -18.261 6.44691 -1.02381 4.31872
2683 1 -17.3653 5.5677 -16.3118 0.311457 -5.2579 -0.749225
121 1 -5.62232 -17.8985 -23.6809 -1.4795 -3.31583 -4.41476
2689 1 -4.94889 -3.37435 -8.01802 -0.558014 -3.05122 -3.63742
2690 1 -15.912 -14.1255 -19.9467 -4.70466 0.729729 -2.633
3146 1 -1.0183 9.18074 -7.05826 2.41501 -0.191187 -0.353121
2714 1 -18.1221 4.88819 -9.84452 -1.89381 5.88594 4.2363
2720 1 -13.8334 -9.18899 -19.695 -3.39072 2.36176 -3.05912
2725 1 -2.29827 7.07537 -17.4632 -4.98017 -2.17813 4.69286
2726 1 -10.9383 -7.63105 -23.3594 2.67047 6.80208 3.64548
2727 1 -12.8365 -19.0701 -1.7325 6.00231 1.42555 1.12485
2729 1 -5.14839 -22.4758 -18.275 3.01032 -2.1368 0.692017
2733 1 -7.47937 9.24337 -18.1732 1.09196 0.811014 -1.2022
2735 1 -5.72438 7.79131 -14.1138 2.7102 -0.885493 2.35981
2740 1 -12.7124 -14.9157 -21.0342 -3.7976 -2.74668 3.082
2744 1 -16.649 -18.1743 -19.8057 1.3103 5.88022 3.24166
2748 1 -5.06396 -1.43159 -10.0886 -3.02481 0.0287951 -0.312488
2758 1 -19.7643 -16.7736 -7.50045 -1.48985 -4.28966 -5.17234
2767 1 -12.7576 -18.5796 -19.9673 0.189445 -2.31578 -2.56869
2771 1 -19.6878 -12.6777 -17.939 -1.74903 -0.356039 2.23352
2780 1 -11.4318 -1.87912 -6.70387 2.90153 3.72476 -5.24083
2153 1 -8.3575 -11.9499 -0.751998 -0.448188 0.664222 -0.441751
2790 1 -6.28875 -4.85919 -16.1728 1.05959 4.42561 -0.844147
2798 1 -20.5561 -1.8307 -4.00638 1.02574 -1.56006 -2.6485
2506 1 -21.2027 9.60436 -9.04673 -2.19685 2.26006 0.929048
2800 1 -11.9792 -15.5486 -16.5648 1.44044 -3.87999 2.4041
2805 1 -13.8164 7.38166 -8.30535 -1.37847 -7.36668 -0.505075
3923 1 -23.7182 4.89228 -10.343 -0.491485 -5.2538 0.395594
2053 1 -21.7727 10.6331 -20.0604 6.4824 -4.10097 -2.41136
499 1 -24.1396 4.31162 -7.40413 -0.369392 -1.93735 5.31853
2839 1 -17.5298 -3.06926 -22.8422 2.5586 -1.22394 -1.91051
2842 1 -2.346 -13.2111 -10.9292 2.56329 -2.99145 -3.45
3231 1 -18.8441 -17.436 -0.115536 5.13339 3.30297 -3.07505
2855 1 -17.1567 -5.51451 -21.0399 -1.29654 -1.91089 -2.57451
2417 1 -2.63785 -3.53115 -1.04629 4.30766 0.471969 -1.69778
2885 1 -6.63603 4.65633 -6.32383 -0.419939 3.87465 4.83205
2888 1 -11.3682 3.87666 -23.0329 -3.19483 2.44185 6.85153
2890 1 -1.39801 -6.88753 -22.2314 -1.95209 0.564258 -2.63676
2898 1 -9.84647 -9.37257 -20.5122 2.92132 -0.695316 3.45332
2901 1 -14.6154 -16.9488 -16.5523 0.117974 1.60943 3.76912
2902 1 -18.1036 1.35513 -21.0123 1.18182 3.59472 4.51907
2909 1 -10.9706 -4.99794 -23.0819 -4.21196 1.49223 -0.556594
3941 1 -17.9466 1.58745 -23.8548 0.279087 1.4605 1.18146
1959 1 -23.3352 -3.51931 -2.72418 -0.244355 -1.30219 -2.73054
2926 1 -9.93917 8.1 -11.9365 4.34191 2.71274 -1.46991
223 1 -22.2443 -5.89511 -1.16761 -0.128911 -2.85933 -6.65224
1571 1 -1.62869 -11.3208 -0.633678 -0.509043 1.75567 3.90411
2937 1 -16.9509 3.36489 -14.0182 0.535808 -2.60803 -0.344118
2938 1 -5.67199 -6.01558 -4.82257 -0.916356 0.368962 -2.3519
2941 1 -4.67511 2.98351 -7.88557 1.4175 -1.86228 -0.693719
1648 1 -20.0082 -13.792 -23.345 -2.50588 0.345503 2.89609
1931 1 -9.30608 5.01875 -0.79935 -3.06813 -1.62016 3.16022
2960 1 -12.2449 -2.02953 -21.0758 -3.20735 -2.61618 -0.00441203
2961 1 -12.0432 -12.3089 -21.67 -3.67186 2.74919 1.74747
2962 1 -8.83629 -1.37488 -15.6546 -1.82226 -2.66374 -4.09404
2972 1 -8.86335 9.55308 -9.46071 3.13081 -0.272455 0.976166
3922 1 -17.886 -14.9381 -17.8929 1.9685 -3.98108 -4.40778
3007 1 -6.96535 -20.1783 -22.277 1.58929 -7.64349 -0.951059
3010 1 -16.2344 -18.7813 -12.9946 -1.21455 -1.59189 -3.792
3011 1 -8.92393 -1.37344 -11.9569 3.05463 -4.78885 2.34621
3018 1 -23.3756 -0.672138 -13.3764 -2.32454 -3.05738 -3.6902
1073 1 -1.94664 -21.8216 -9.66587 -6.36481 -1.11814 0.813461
3034 1 -12.2029 -8.38006 -15.9542 2.18675 -0.0367069 -1.03428
3038 1 -20.3981 -23.4632 -16.7025 -0.217514 -7.34178 3.43985
3049 1 -11.8343 -21.3603 -18.6239 -3.06497 4.85307 4.69831
3051 1 -17.5063 0.184501 -10.8039 -1.67718 1.93314 -3.74123
3059 1 -9.86726 -21.9054 -4.92458 1.6789 -0.770763 -1.33432
3071 1 -3.83179 -3.91443 -5.12427 -1.38566 1.2058 4.113
3077 1 -14.4096 -23.9564 -8.78338 -0.807326 -1.51277 2.40211
3078 1 -21.2893 6.6255 -14.0529 1.09275 -4.49419 5.11182
3085 1 -15.1491 -3.95431 -6.48258 -2.15367 0.873111 1.40741
3093 1 -14.1321 4.93218 -19.4371 -0.958671 1.7105 0.374204
3095 1 -14.7971 -14.1436 -2.92608 -1.15695 0.088321 1.71301
3097 1 -7.26289 -10.7991 -20.295 1.5674 -2.65595 -1.77823
3991 1 -17.3941 8.31719 -22.0451 -3.20832 1.29457 -0.925953
628 1 -21.7703 -16.4677 -0.519146 0.928479 6.88963 0.650514
3120 1 -10.6835 -5.98404 -18.3607 0.0635481 -2.66059 0.327692
3125 1 -2.20612 -15.8494 -2.34502 -1.26003 1.50881 -0.717689
3135 1 -18.6432 -12.4685 -5.13668 -3.32564 -1.09644 0.991999
79 1 -24.1341 -0.738928 -16.1325 -4.11303 2.2884 -0.198161
751 1 -18.359 9.79151 -12.5501 1.76045 3.76165 2.21322
3963 1 -16.4196 -16.286 -1.67602 1.47262 2.88429 1.98389
3161 1 -10.1971 -17.4851 -4.40786 1.96209 1.3228 -1.39379
3162 1 -13.8352 -13.3551 -16.2469 4.51787 -0.715409 3.87573
1412 1 -18.4265 9.10592 -8.12901 0.397345 0.716801 4.53214
3202 1 -17.8178 -14.8293 -10.3466 0.281244 1.09095 -0.576032
3205 1 -11.3456 2.06296 -4.73168 7.35072 2.97465 4.01175
3210 1 -12.5595 10.39 -2.30429 3.00418 -2.92756 0.553031
3212 1 -13.1505 6.95958 -17.4562 1.52336 1.86659 0.703652
3213 1 -1.15711 3.87721 -13.2071 -3.94681 3.20284 1.10119
3219 1 -9.00309 -22.1023 -16.4541 0.225265 1.99929 -6.18254
3221 1 -3.80109 -8.52722 -1.81595 2.06813 0.26415 -7.00145
888 1 -8.72625 10.7386 -15.7539 3.13234 1.56949 1.00524
1799 1 -12.1247 10.3681 -14.4303 -0.813664 -0.528741 -0.863272
3229 1 -8.86424 1.14987 -3.55683 2.5775 -4.32313 -1.34743
2372 1 -23.878 6.17634 -0.342877 -2.26841 2.10427 2.0565
3240 1 -14.4078 -22.3203 -19.2202 4.93648 2.13825 1.46214
3247 1 -4.34631 8.19172 -10.2328 0.666104 -2.17334 3.2183
3261 1 -13.5236 -3.02624 -15.9577 -0.466786 -4.07953 3.71486
3273 1 -17.062 9.79362 -15.3971 -2.74383 1.43508 0.0366914
3294 1 -19.701 1.97453 -14.3879 -1.67689 -1.61113 -1.69492
3300 1 -1.98774 6.74807 -8.42578 -2.52468 -1.37113 2.51981
2170 1 -8.52462 -15.9066 -0.978562 -0.729719 -2.4509 4.45433
3326 1 -23.1392 5.35935 -22.0436 -0.0493399 1.2617 -0.454195
3331 1 -18.0513 -4.37314 -2.64435 1.43937 -3.85827 -3.65962
2518 1 -0.476104 -1.67536 -2.56401 0.556111 0.144127 -1.46481
2924 1 -1.54423 -16.0746 -23.0712 -2.4579 -1.30224 -2.91473
3355 1 -17.4345 -19.9338 -3.99406 0.240785 -2.67294 1.40385
3362 1 -7.1968 3.68939 -14.0088 -1.08641 0.141369 1.47667
3364 1 -18.8817 -8.9795 -1.47649 -4.05128 -2.28392 5.44853
3366 1 -22.8909 -22.9793 -17.4697 -2.26664 1.40898 0.314096
1228 1 -24.1709 -20.0323 -7.9569 -3.21668 1.30864 -4.8203
3370 1 -19.8298 -14.6425 -12.8106 0.796678 0.956073 -1.16629
3381 1 -2.87855 -18.5078 -23.1929 -3.09831 -1.38123 0.308076
3385 1 -4.3333 -19.2437 -7.28595 2.04812 0.480665 -4.0953
3389 1 -14.2234 -9.4781 -13.2943 0.111725 1.46186 -2.14505
3392 1 -6.39689 0.787207 -17.6708 -4.38907 -0.465468 -3.95941
3396 1 -18.7989 4.00453 -4.83264 3.71323 -4.03898 -1.56764
3398 1 -7.43911 -20.3031 -4.7436 -6.17242 -6.74908 1.83983
3401 1 -21.7997 -23.2961 -11.834 -1.29481 -5.63806 -0.729821
1438 1 -1.86271 -0.173225 -12.9993 -1.72775 -2.08241 -0.43974
3413 1 -3.83735 -17.4576 -17.035 0.380737 3.16215 0.985743
3414 1 -16.707 2.84306 -6.46117 1.38925 -2.71197 0.567172
3415 1 -17.644 -0.957201 -14.5766 5.59997 -0.69197 -1.81817
3431 1 -9.6753 -5.74101 -1.69775 -8.98499 1.65963 -3.03558
3433 1 -7.4689 -2.07314 -20.8151 0.0873582 0.204481 -1.05303
3445 1 -11.1847 1.58878 -10.0938 5.32189 -1.44805 2.24529
3446 1 -3.48816 -20.3629 -16.6634 -3.53033 -1.63663 -0.534276
3447 1 -4.33585 6.69588 -6.61418 1.80577 -0.208145 -1.33524
3450 1 -2.04133 -13.3698 -15.7041 -3.01228 1.17716 1.77658
3452 1 -10.8047 0.626324 -12.6781 -0.49126 0.612533 0.496423
3466 1 -10.6498 4.59354 -6.73346 2.17925 -1.05744 0.655206
3470 1 -16.8518 -21.0939 -6.91877 -1.17317 4.12672 2.17672
3471 1 -17.3515 -19.8784 -17.4758 5.35093 1.16377 -0.792528
3472 1 -14.6837 6.86126 -12.7603 3.82754 1.60953 1.51042
3477 1 -20.5686 -1.01434 -14.3783 -1.44744 1.45676 1.64736
3491 1 -9.58004 7.92482 -19.7933 -5.46778 1.48354 0.566328
3496 1 -9.80326 8.49761 -14.797 -7.0986 1.33215 -4.6059
3508 1 -2.50354 -12.7395 -22.038 -0.780284 1.10888 1.27402
3509 1 -22.9851 -19.8862 -22.1281 3.44287 -4.10452 -0.856679
3513 1 -20.554 -20.0253 -14.3219 -1.01364 -1.07657 0.465879
3516 1 -19.7777 3.75435 -17.1168 1.89549 -2.72825 -1.14738
3952 1 -4.49523 -6.33071 -19.6761 1.26859 -2.37581 1.13668
1903 1 -1.06452 -15.6191 -14.4497 -3.42075 -0.0154397 -0.838732
3980 1 -22.8046 -15.2729 -12.4673 2.10853 -5.4806 -6.03965
3558 1 -19.3466 -15.0305 -1.78058 6.84028 1.48627 -0.6382
3569 1 -4.61993 4.29544 -10.4719 1.21019 0.274623 0.669171
3572 1 -14.4714 -16.4943 -19.3386 -2.83259 1.08252 -1.81534
3574 1 -17.3424 -4.08474 -11.8614 -3.72258 1.4373 1.45989
3575 1 -10.9521 -10.8729 -11.6155 0.239902 -4.63561 -0.603099
3577 1 -8.84155 8.28923 -5.45104 2.15015 1.02012 -1.40802
3579 1 -18.0794 -13.3428 -8.05232 0.00856251 3.9766 -0.72418
3588 1 -22.802 -8.32373 -13.1299 3.4132 0.402922 2.9656
3589 1 -12.303 -1.17517 -9.42166 -2.44312 -0.847973 -6.03065
3592 1 -8.12607 -17.0307 -6.30221 2.448 3.51293 0.339357
3596 1 -6.2484 -9.97285 -7.89185 0.26254 -0.645714 -1.4179
3598 1 -14.2871 -10.137 -6.69435 -0.555804 0.734 -1.38872
3601 1 -23.8789 -12.2751 -5.07687 -5.358 0.671594 -0.142893
2572 1 -23.5536 -17.0483 -5.76119 -6.71803 -3.02471 -2.19584
3626 1 -13.9189 3.27067 -5.90377 0.412367 -0.904268 -0.280117
3645 1 -17.2042 -17.2584 -8.78392 -2.48287 1.27549 -3.33992
3649 1 -19.11 -1.83542 -18.5298 1.12247 -0.0286981 -1.6347
3663 1 -20.5398 -16.2561 -10.4287 -3.41059 -1.16694 1.60424
2893 1 -10.374 -15.6973 -23.563 -3.96715 -0.518932 3.52229
506 1 -0.573222 -20.5084 -16.312 -3.94051 2.19712 -4.45089
3961 1 -2.92464 -20.6315 -3.23609 0.445434 2.10224 4.76458
3690 1 -11.5917 7.03466 -5.31011 1.09117 1.20464 3.32942
3694 1 -20.4467 1.72428 -7.30758 -4.49032 0.374136 -1.10924
3700 1 -6.54837 -20.2048 -16.793 7.06748 -2.49374 1.46628
3702 1 -6.2511 -1.7216 -12.6913 -1.54306 5.74907 -4.17001
3706 1 -13.3458 3.49073 -15.0472 -0.834679 4.0185 3.9801
3724 1 -3.03141 1.34432 -3.34237 -2.85648 1.14358 -0.0524403
3726 1 -8.26162 -11.6084 -12.5146 -0.389333 -2.23641 5.19348
3729 1 -21.0516 -9.81909 -11.2202 1.79767 -3.53517 2.86865
3741 1 -18.1863 10.2918 -3.31975 3.10217 -1.0086 4.08576
3742 1 -3.51626 -17.2343 -13.8442 -1.12296 0.618044 -0.138897
3748 1 -16.3007 -2.48958 -18.582 6.21959 -1.26605 3.61806
3756 1 -12.4086 -24.1393 -20.7117 5.93909 -2.47703 2.4859
3759 1 -12.5419 8.27793 -19.8335 -7.87284 -0.178928 5.17214
3950 1 -5.06869 1.42956 -20.216 -3.21875 5.46111 -0.00141354
3906 1 -17.1735 7.6073 -6.01079 -2.2745 1.74828 -0.139083
2915 1 -13.8594 -11.4619 -23.3494 -0.384342 1.52131 4.16344
3794 1 -4.0063 -20.1399 -10.1673 1.21221 1.09309 1.48094
3796 1 -12.8681 -10.7574 -9.32704 3.53592 -3.13127 -0.277525
972 1 -8.5633 -18.7025 -2.28255 -3.10462 -4.94153 -4.88156
3823 1 -6.16818 -18.1319 -10.0158 -0.396515 2.09072 -1.18444
266 1 -22.0066 3.83951 -14.8344 -2.26342 -1.00332 1.77215
3829 1 -11.4935 -17.5306 -8.1748 1.03074 2.0157 1.8613
3838 1 -7.09692 3.40411 -3.63649 1.72569 -3.88541 -1.59454
3845 1 -4.00302 4.89537 -23.2722 -2.51383 -4.01785 -4.1636
3847 1 -16.199 -14.8261 -15.6826 1.09809 -2.24633 0.0870051
3851 1 -1.98185 8.71317 -1.54844 2.37341 1.36093 -3.22914
3196 1 -0.773248 0.958328 -1.64617 -3.37077 -1.92731 2.45066
3862 1 -3.87745 0.376741 -15.5603 -3.6178 -2.05177 -4.65858
3864 1 -2.44697 -2.08684 -11.1778 0.884713 -0.285171 -0.13332
3874 1 -20.011 -22.7366 -13.8984 -2.41275 0.281517 -3.62897
3877 1 -24.0094 2.70822 -3.65963 0.241767 1.47152 -0.686761
3881 1 -15.3088 -0.499063 -12.6856 -0.167377 0.412865 2.87656
3886 1 -9.84034 -15.31 -7.97457 1.28438 4.75164 -5.11812
3888 1 -6.20548 6.37202 -18.3254 0.513736 -4.51339 4.53149
3896 1 -5.45271 -5.85387 -1.89734 0.0675884 2.18682 -2.58201
3812 1 -3.17126 -13.915 -0.292855 0.0342613 -1.74016 -1.08807
279 1 -22.0907 -2.25695 -0.239896 4.95235 1.26933 -2.27797
3151 1 -11.5836 -23.3235 -15.472 4.73814 2.59182 -2.40323
3099 1 -20.966 7.58317 -23.74 -4.83119 4.48338 0.538392
2009 1 -4.4712 1.80939 -0.827777 0.940797 0.488943 -3.14784
1045 1 -6.30192 -2.19893 -24.1248 0.667156 4.19489 -1.03857
2784 1 -10.9684 0.703365 -0.226704 -3.44843 -0.126468 -1.99876
1891 1 -8.09337 -13.8235 -23.9247 4.90611 0.400705 1.7148
2922 1 -16.919 -20.4252 -23.8298 0.511494 -0.485512 4.74274
1510 1 -14.21 -12.0658 0.0555459 -0.89462 -2.76629 7.7579
2711 1 -13.6054 -4.41784 -24.077 -1.97564 -1.50985 2.85506
1525 1 -8.62785 -8.05332 -0.168668 -3.05078 -1.7625 -3.3475
5 1 -18.9854 -21.144 22.3182 1.98804 -1.72322 1.19675
9 1 -15.1884 6.03959 4.73536 0.224482 -2.61208 0.194328
13 1 -20.4886 -14.5784 14.179 3.54479 -1.85651 -0.651749
16 1 -18.2146 -0.221239 5.29961 3.13241 4.27303 1.53453
3855 1 -3.25175 -5.92307 23.7299 -1.4288 3.61086 -3.32557
1629 1 -4.69718 -24.3655 18.6393 -0.479496 6.766 -1.76705
28 1 -20.0406 7.21289 2.89931 1.52034 -7.39861 7.60006
34 1 -19.7573 -23.3462 15.2665 -1.55611 0.464743 2.58763
42 1 -15.0803 -16.3284 0.803337 -4.23505 -4.28205 0.957107
43 1 -13.5562 -5.47596 1.36936 2.96827 1.68511 2.71396
46 1 -22.3679 -22.8546 18.8898 -1.15113 1.67319 -4.53535
47 1 -7.54139 3.65769 20.5481 -0.429872 -0.715678 3.9622
51 1 -9.26248 -3.26049 18.3899 -2.91406 -0.983685 1.35098
56 1 -16.1337 4.94502 2.16373 -1.03724 -0.221924 2.55979
3008 1 -2.08821 -19.5505 22.425 4.2588 1.47136 -4.33612
76 1 -22.9612 -4.33711 3.42208 1.62137 1.61813 0.549949
2067 1 -24.1288 7.9346 21.375 0.009593 -1.71874 2.88682
64 1 -9.41696 -3.34996 1.1887 0.129411 5.32356 -5.11532
71 1 -8.34374 1.66894 2.4249 2.38217 -1.83358 -3.01045
73 1 -12.2067 -18.3355 14.0103 -4.15245 4.3269 1.07585
1033 1 -4.25484 -16.4499 0.144877 -5.49876 -0.469299 -4.52542
89 1 -9.75205 -3.13103 23.1011 -3.50504 2.91397 -0.445422
93 1 -18.1091 -24.3717 17.27 4.86187 0.845788 1.95043
2737 1 -22.3499 -19.3464 0.0945035 -0.861685 -2.5563 1.67382
108 1 -9.97295 3.41076 22.9514 -0.23551 0.257504 3.77207
113 1 -5.21006 -6.67787 18.4653 2.30668 3.50197 1.61243
114 1 -22.3794 -19.904 18.7155 -3.67242 0.136784 -4.90343
320 1 -1.22656 -0.760254 8.99048 -1.25371 -3.41941 -0.460109
122 1 -6.23074 6.355 20.6541 -4.28224 0.824287 3.59776
133 1 -17.1763 3.5899 18.1495 0.780497 4.73351 0.291038
146 1 -11.8163 -10.4136 13.3719 -2.58519 -1.66932 -0.215352
152 1 -6.72648 -4.32877 17.2225 -8.49343 -0.851582 1.29417
159 1 -19.83 -11.7951 12.8906 -0.938398 -0.396052 -2.22331
162 1 -14.9758 -11.3442 19.3639 4.62955 -6.07953 -0.422712
3494 1 -16.8525 4.42593 23.6562 0.0548104 -0.877452 1.57673
171 1 -15.1997 0.491416 14.1409 -1.69458 2.47643 0.186624
173 1 -20.7005 1.36506 23.3065 2.18861 3.31963 -0.615834
177 1 -6.39885 -20.3663 13.2425 6.03133 2.10754 -2.45334
1920 1 -23.7022 -14.9107 0.557049 5.81274 0.457272 1.55642
182 1 -20.495 -3.72401 13.8259 -7.46035 -2.10291 2.38688
189 1 -4.10802 -3.78519 2.76773 3.05795 -7.24788 2.34145
2966 1 -1.78027 -24.2889 17.9734 -0.0573955 -1.02764 -1.37283
3555 1 -24.4375 -18.5121 2.19344 3.76939 1.60198 -0.715744
3495 1 -24.525 -4.91788 17.5163 -3.24709 1.71485 0.527922
464 1 -13.9451 -24.0183 4.48207 0.79883 4.98893 3.81544
232 1 -2.68035 -16.1296 10.4463 -1.05618 4.44119 6.35077
241 1 -22.0501 -16.0176 9.77172 4.20907 0.105776 7.23725
243 1 -7.51465 -8.66506 8.57697 -0.194166 -1.61881 -3.20205
986 1 -1.64786 5.4036 11.4181 -3.75107 -0.251676 -2.34544
247 1 -23.062 -7.13302 14.4718 2.82887 1.61648 1.94909
1359 1 -21.7793 -23.3178 23.9439 4.87308 3.02372 0.120698
2125 1 -1.04066 -15.3905 14.7556 0.930918 2.73502 -0.154279
1994 1 -23.1388 -17.2014 4.4093 -2.64471 2.02885 0.839596
270 1 -22.4069 -17.7447 16.7512 0.205917 1.96312 0.591658
273 1 -17.9347 -9.62759 12.4293 -6.60244 3.78261 0.847819
289 1 -6.64028 -21.301 9.78676 3.38151 3.04914 -0.973214
291 1 -10.6649 -20.4666 12.9164 2.21663 -0.931802 1.61847
304 1 -20.0139 -18.421 12.9237 3.95748 -2.73217 -4.86386
308 1 -17.6578 -23.0018 2.07209 -3.09466 3.25161 -0.0855814
315 1 -14.7577 -23.0653 1.86454 -0.537985 -2.46966 0.810001
319 1 -12.2707 0.811449 13.4945 1.7285 -0.49905 -1.08981
3936 1 -0.495494 -23.0046 23.0402 6.00102 -2.36778 0.290549
323 1 -13.8818 1.32904 2.53569 -2.11336 -4.12481 -5.8022
325 1 -2.67491 -21.5181 19.6177 0.912463 0.421337 1.60377
326 1 -17.4119 2.63094 1.39376 4.76601 -5.37683 3.81287
327 1 -6.59956 -11.3231 19.1201 2.44994 2.62771 4.49809
61 1 -11.7492 -1.4364 1.40358 -8.17884 -2.77094 0.826902
345 1 -12.2084 -5.68408 14.4323 -2.03797 0.0640373 -2.33336
348 1 -10.4617 -4.38635 8.78106 -5.49843 -0.387324 -2.65641
349 1 -5.71662 10.2378 22.0345 2.96621 0.0322783 -1.40551
351 1 -17.5688 2.30378 11.7811 -1.14234 0.0943254 -0.100379
355 1 -3.95787 -0.595635 6.55113 0.0530054 -3.28652 4.30874
357 1 -6.63439 -15.9066 1.38957 4.57827 0.930958 -0.832738
23 1 -11.5999 -24.3786 20.3185 1.91783 -1.73983 0.908529
363 1 -18.6442 -19.9706 8.3427 -4.60383 4.46674 -5.85102
3893 1 -7.49651 9.83521 9.82479 -4.74242 -0.657591 4.03909
806 1 -3.27357 -13.4434 14.0833 2.23161 2.13527 3.20521
585 1 -8.84685 9.20777 15.1386 -5.66068 1.84404 5.00822
224 1 -12.3571 -2.13635 22.8279 -0.991338 -1.73766 1.17709
381 1 -22.6889 -18.2121 13.6795 -3.55936 -1.53037 -4.08383
385 1 -8.67282 2.17826 18.405 -0.728262 -0.0860816 -2.67293
3087 1 -9.91927 -24.3339 12.2554 0.804805 2.33301 0.555857
389 1 -11.9072 8.28838 6.44909 10.2621 -0.502016 0.29294
1147 1 -8.35239 9.47347 0.748319 -1.59081 -2.03114 -4.93418
2485 1 -2.27838 -18.9662 4.43045 2.07758 2.97235 1.6425
404 1 -14.681 -1.20347 1.50733 1.94398 2.91467 -3.52681
406 1 -8.00911 -18.2213 22.722 -2.76332 -0.748884 -2.52957
412 1 -17.7441 -4.64823 6.31745 5.21178 0.0354037 -2.21184
417 1 -13.156 -0.199044 10.6005 6.6699 3.22869 0.754037
420 1 -1.96556 -2.66457 10.9634 4.18262 -1.48863 1.26563
423 1 -7.92224 3.43303 4.6507 0.239873 -1.59768 1.5747
427 1 -15.9088 -22.9651 21.6496 0.130837 -1.09691 -1.34678
3749 1 -22.4012 -3.75367 11.5762 3.53136 -3.05772 0.899255
448 1 -15.4232 -1.42519 12.0628 1.79434 -0.727289 -2.65226
462 1 -6.84655 -19.9714 20.6842 -0.41772 1.86599 1.0615
992 1 -23.8019 10.8293 3.47432 0.079851 0.726747 2.44397
3695 1 -7.55708 -5.32154 0.0912402 1.26101 3.85023 0.213813
467 1 -4.93469 -11.51 11.1062 3.01465 2.1188 -0.0514472
472 1 -15.8661 -5.47337 17.4799 4.47376 0.978343 3.98821
2793 1 -1.02032 3.05134 5.78637 2.46005 -0.519518 -0.813806
491 1 -18.2173 -12.9303 9.83956 -0.831843 0.408756 -1.69761
500 1 -5.44109 -14.0544 8.51933 -7.99482 0.725553 -4.22098
504 1 -2.71822 5.52619 6.17274 1.4983 -5.85573 1.70273
513 1 -20.7428 -14.9109 16.8493 -3.05115 1.7052 -2.47713
3913 1 -7.68847 4.44015 1.73272 3.56946 0.390668 1.57197
524 1 -3.05007 -2.6018 18.0258 0.294151 2.59507 4.00644
529 1 -9.39087 -12.8116 7.37226 -1.03569 4.49133 0.209424
530 1 -10.8051 3.22995 9.69811 -0.602684 2.94824 2.07204
533 1 -14.4634 -22.4841 11.6972 2.81873 -2.25955 3.33019
538 1 -18.2762 -7.30439 11.0157 1.43593 1.81264 4.91682
540 1 -12.0144 -11.3903 3.50637 2.04179 -1.66019 1.32434
541 1 -14.2987 -1.44704 15.9688 -1.65388 0.318627 4.48917
549 1 -20.679 -5.22856 6.50189 -1.35207 -3.16835 -2.44869
1971 1 -23.7367 -2.33648 8.033 -5.27635 0.976538 -2.83147
558 1 -6.39952 -13.9936 14.123 -1.05088 -0.634221 1.61067
559 1 -7.56444 -19.2687 6.52161 1.77092 -5.26854 2.67861
564 1 -12.0683 -21.1116 10.2883 0.543804 2.3179 1.21505
581 1 -15.9759 -8.6887 14.1559 -3.00289 0.580597 -4.5854
592 1 -15.1547 -15.658 11.9 5.41473 3.86821 2.64269
593 1 -12.498 -21.7172 17.6884 4.60244 -0.579699 -3.30539
594 1 -20.2098 -1.29012 3.37731 -0.175501 0.672508 -1.18314
596 1 -11.5632 -19.9168 5.7803 -2.54198 -2.1119 -1.26614
602 1 -10.469 4.88315 20.6777 -4.92545 -2.99537 5.50759
605 1 -22.0825 -2.10484 19.0832 -3.02092 2.6883 0.684455
607 1 -1.28746 -2.38996 15.6668 -3.32497 1.59508 3.19986
622 1 -21.1997 -8.83582 0.195078 -3.26854 -3.64658 4.2297
631 1 -5.71343 -16.7394 14.6512 -1.82671 1.72695 0.929648
632 1 -13.4892 -20.4663 2.60689 -1.53181 -1.99986 3.24581
634 1 -11.7068 -3.12185 16.3064 -0.814421 -3.53331 3.08498
642 1 -9.30563 -1.27939 6.16667 1.15393 0.112911 -1.79839
650 1 -9.32623 -0.541493 19.1532 -0.722998 -1.37462 2.61336
664 1 -16.2953 -20.4923 12.3173 1.10749 -1.14715 -2.82241
665 1 -2.76837 -5.64161 17.8794 -0.484595 -0.968733 -3.63712
2247 1 -23.1742 -12.2709 10.4735 -1.17362 0.519266 1.94556
686 1 -16.5474 -1.28911 18.0414 -2.51686 -1.64793 0.385529
687 1 -15.2079 9.80652 10.778 -3.05565 1.6566 3.93885
692 1 -9.89943 -7.28933 3.71917 -0.300364 -1.70332 -0.50287
696 1 -8.12635 -22.1863 7.74216 -0.0875437 -2.22027 6.32517
699 1 -14.5615 -11.4768 14.2946 0.626673 0.0548879 -1.07182
702 1 -17.5687 -4.63197 11.2458 0.172892 9.21386 -0.533616
704 1 -9.2805 -11.4476 12.6867 1.35623 2.15498 2.96361
707 1 -16.6366 0.297203 21.4748 3.3415 2.34858 2.83219
710 1 -3.55678 -8.96984 11.6456 0.550363 4.1124 3.25762
2589 1 -1.30303 -7.71076 10.4842 3.14492 0.416596 -1.10732
718 1 -12.7461 -7.29207 3.22471 5.74616 -1.92195 3.79422
726 1 -4.78628 -9.00591 20.3182 4.24697 -7.84178 -5.79854
733 1 -13.75 -18.4448 4.52926 1.04869 -0.568291 -3.19299
738 1 -11.4799 5.76931 16.4347 -1.26836 -3.97352 -1.98762
739 1 -17.0618 -18.5067 1.90829 0.168063 1.15072 -3.20131
1777 1 -23.9767 -12.2084 17.301 1.16597 -5.52692 -2.13826
745 1 -20.1665 3.32795 20.9642 -2.76559 2.00454 -0.780089
3842 1 -23.5677 0.789098 22.6366 -5.26296 0.49115 -0.926566
748 1 -11.7544 -21.1925 22.79 1.93766 -0.0427501 1.12525
2984 1 -1.25656 -0.339572 21.6538 0.765873 0.05935 -2.2064
758 1 -14.8037 -18.5047 19.6161 -3.29463 -1.53647 -1.19489
1176 1 -2.05203 -10.8557 14.8344 -0.0337298 -2.83946 -0.632758
768 1 -5.46825 10.1735 7.7671 1.56964 2.78438 1.85244
781 1 -16.8791 1.75298 7.0208 -1.34253 -1.0431 6.81179
788 1 -19.549 4.86476 4.59636 -3.49705 4.03824 3.66408
797 1 -17.7457 -13.8246 13.3873 -2.47496 1.88756 0.997052
800 1 -17.4534 -11.9879 18.0287 -0.578322 2.87046 3.30948
802 1 -18.6398 -19.8726 16.1774 0.64449 -2.06782 1.45901
3224 1 -3.93579 -5.73666 0.56021 0.810068 -4.83199 3.51155
818 1 -9.27471 7.216 19.726 -0.572562 -7.3888 -0.414095
825 1 -22.6389 5.4302 5.12609 2.65989 -1.35519 1.53465
3307 1 -17.7871 11.1844 20.8146 0.972655 2.06873 2.09039
828 1 -8.44129 -22.4099 14.0734 -3.38958 4.17669 -3.05691
830 1 -11.0311 -9.20871 19.8329 -4.14246 2.83319 1.38128
832 1 -4.50545 -2.94423 9.90881 -2.96626 -6.02153 -2.5499
854 1 -21.1377 -13.5496 3.2014 3.52144 -0.557542 4.70783
1940 1 -19.0361 -24.0089 4.58571 -0.128861 -3.28508 -1.90936
864 1 -14.4528 0.206334 19.374 5.42542 -7.44445 -1.71264
2405 1 -4.94739 -10.565 23.7898 -0.792136 0.369451 1.89219
881 1 -3.34835 -2.33085 21.0455 -5.9369 -0.989553 -0.55762
889 1 -15.3132 -3.92886 15.1278 -0.484332 3.50126 3.18143
891 1 -23.0823 -1.77848 2.38653 0.916627 -1.18864 -2.15985
897 1 -12.1564 -23.9644 9.54834 -1.13212 -3.68976 -3.33573
906 1 -7.54244 -23.9109 18.6817 0.937682 3.40395 2.25273
908 1 -8.6951 -19.5911 11.1492 4.93882 -2.19577 -1.09218
916 1 -17.1109 -17.5222 21.2364 -3.27089 -3.61081 -1.18197
918 1 -4.28737 6.87585 3.97078 -3.77631 -4.4204 -3.08225
165 1 -17.7415 10.9464 16.7603 0.0880361 0.803939 -0.0861368
330 1 -14.4291 -22.1548 23.7916 -6.70402 4.5486 -1.22192
946 1 -13.9205 -8.61412 6.25246 -0.241816 0.157059 -3.9503
950 1 -19.3162 5.02162 13.3986 4.87285 2.88467 0.193568
957 1 -6.48144 -2.69173 14.4183 2.28445 -0.0846385 5.9077
3182 1 -18.6013 -23.8863 21.7841 -0.803979 1.70231 -1.44829
960 1 -3.53852 -21.5038 3.22427 2.30002 -0.536291 3.60709
966 1 -17.2218 -6.00603 13.8502 -1.82576 0.725318 -5.46206
973 1 -13.0211 -5.47952 17.1731 -3.09361 3.33399 -2.53914
975 1 -10.5078 -10.623 5.80753 -1.11465 0.339908 -3.58413
976 1 -16.1095 -7.87709 9.32766 1.34512 0.551252 -1.53306
982 1 -6.08428 -7.83009 4.61813 1.55176 -1.41559 1.47573
983 1 -20.3785 7.32518 17.5834 3.68203 -1.4661 -3.88782
362 1 -19.9687 9.45973 4.63539 -0.892883 -1.90735 -3.10653
987 1 -22.2382 -18.6592 10.8768 6.11471 1.84664 2.26977
988 1 -10.2302 -23.9729 7.47536 1.48364 -1.8127 0.91434
991 1 -5.62597 -6.73448 7.06086 -1.56262 -5.63789 3.09047
3591 1 -7.13637 -11.7611 22.1128 -0.801341 2.71441 4.94259
3241 1 -0.691384 -21.0294 16.0628 -4.22939 -1.22694 2.70081
3475 1 -22.9887 -14.2587 18.909 -2.30593 -3.14991 -3.31679
1002 1 -12.4093 -16.232 3.31667 4.48116 0.364268 -3.12711
1006 1 -23.6497 10.5243 17.4444 -5.85467 -0.112677 -2.76391
250 1 -0.543263 -1.44103 6.15945 2.0281 0.00529399 0.592186
1016 1 -21.318 3.6849 6.85743 -3.98099 0.908024 5.5511
1017 1 -9.64997 2.63839 15.536 -2.98397 2.69451 -1.49837
1018 1 -21.9476 -20.7396 6.27783 -6.91377 3.76885 1.33988
1153 1 -4.15455 -20.0658 0.577461 3.90175 -2.73431 4.54783
1027 1 -20.886 -7.256 12.3017 -0.952422 0.33947 2.83752
416 1 -24.2004 1.04243 12.3154 -1.68192 -5.36099 1.70364
1037 1 -10.6259 -17.5242 16.5215 6.54612 0.461958 1.17287
1038 1 -3.78371 7.08036 11.8503 -0.585855 -1.7221 4.25239
1014 1 -20.7396 -22.9868 2.40168 -0.813002 0.503107 -1.77867
1047 1 -17.2405 2.86816 21.096 1.24894 0.677416 -0.0693736
1060 1 -17.0771 -11.6678 7.47989 2.67947 2.02778 1.37077
1062 1 -8.01698 -0.0062138 9.70567 1.59962 -0.519543 -1.17836
1067 1 -19.8273 5.14607 8.88324 -0.860888 -4.83623 0.245481
1070 1 -8.10987 7.21523 10.6066 4.49034 5.05444 -1.27831
1079 1 -15.5937 -1.1443 9.11151 2.33029 0.391 -0.442267
1089 1 -16.402 6.33676 18.1873 -1.56671 1.94255 1.2538
1811 1 -0.920038 4.12389 20.1026 0.726987 2.23667 0.351856
1098 1 -12.2907 -5.22326 19.8945 1.33934 -1.31319 -3.02186
1104 1 -20.8838 -0.0088285 6.63356 1.77458 -0.553864 2.0827
1106 1 -16.6969 -18.8835 4.94227 -1.66518 -2.58733 -0.485217
1109 1 -18.7157 -12.1846 4.23543 2.11617 0.37543 -2.76428
1112 1 -3.06282 -13.562 18.2738 -6.29047 0.723426 1.19471
1114 1 -19.2346 -3.28377 9.51853 5.03631 3.18304 4.09814
1116 1 -14.5786 3.36701 7.63702 -0.5092 0.199791 -5.63999
1125 1 -23.8896 8.13791 4.92096 -1.03653 0.877834 -5.63649
1138 1 -23.019 -22.3131 3.92319 -0.00913062 1.22354 0.0305788
3070 1 -23.8418 -7.69244 0.759082 -1.12469 0.333899 -5.10939
1141 1 -19.6677 9.87787 12.0784 1.57441 3.36094 2.64357
3518 1 -2.94568 2.26057 1.5631 -0.808291 0.809718 -3.77525
1148 1 -12.4578 10.554 9.87716 5.64192 -3.23743 3.96605
827 1 -0.457307 0.565945 4.11364 -0.329683 0.524889 2.34526
3469 1 -0.948027 -8.48153 0.395165 6.46257 -0.961024 2.71582
1158 1 -18.2855 0.592528 17.3259 5.44289 1.97543 -1.94857
1163 1 -18.2245 -23.9176 12.7973 -1.10749 1.59674 0.00239011
1164 1 -19.1177 -15.4791 10.3118 -3.78939 1.93559 2.9494
1139 1 -7.31996 10.2657 3.84432 2.6472 -0.427981 3.79879
1178 1 -3.36149 7.92496 7.88652 3.26335 -2.49944 -0.79039
1205 1 -4.84257 -19.4098 10.938 0.800519 -0.552789 3.68723
1211 1 -16.006 -12.1277 11.83 2.06322 -3.07126 5.26233
1223 1 -23.7642 8.46599 12.8523 -4.4368 1.43466 -0.60661
1236 1 -5.03112 -22.4377 16.4092 -2.6083 1.09216 2.08618
2943 1 -23.1744 7.13347 9.10108 2.26333 0.615522 -0.107767
1240 1 -5.71123 -23.0895 2.45043 -1.694 -0.654498 0.963181
1244 1 -17.6803 0.654936 9.60519 -1.23046 1.48322 -0.63267
1246 1 -5.97563 -15.1602 4.89098 -1.48271 0.159357 7.35298
1254 1 -20.7449 -19.0035 4.2791 2.83197 1.96604 2.75918
1255 1 -3.45523 -10.123 7.021 -1.71203 -1.617 2.52111
1258 1 -15.2384 8.64214 22.015 4.5813 0.617371 1.09949
1272 1 -21.3837 9.19928 15.7627 2.63538 -3.26377 0.256858
96 1 -23.9156 -16.8367 23.2195 -3.75626 -1.44355 0.633211
1296 1 -5.49739 -10.6026 4.88623 0.064802 -6.77043 -2.05605
1305 1 -5.53087 3.86404 10.3473 -3.47531 0.991702 1.61503
1308 1 -17.7322 -2.09029 7.37629 3.02025 3.65679 -1.30398
1312 1 -17.2546 -9.81788 3.88437 3.05979 2.09952 1.81324
3121 1 -1.05811 -23.8964 15.3414 -0.0534272 1.29762 2.25492
1361 1 -7.11876 -21.9486 4.96634 -2.8891 0.99529 -3.0469
1367 1 -9.32192 -13.6439 14.8201 -1.09962 -0.0903746 -0.82481
1373 1 -13.4972 -7.86305 13.0877 -2.78918 3.75683 -2.46217
1379 1 -18.5295 -16.7264 4.04806 3.02512 0.705988 -0.0837388
1386 1 -15.7004 8.11862 2.53267 2.50331 3.14153 -0.888029
3876 1 -23.4958 -11.9384 20.9685 -4.23127 -0.35846 0.713054
1396 1 -16.9629 -8.77378 6.45295 1.23793 -1.97385 1.97246
3686 1 -23.3088 10.4301 0.770683 -0.650334 6.19524 0.601429
1415 1 -7.67977 -21.769 0.974366 1.60914 -4.58347 -2.41342
1416 1 -20.6305 -8.61967 9.58837 -0.042122 2.14294 0.331879
1428 1 -4.05954 -19.2297 20.3835 -4.76452 1.76522 -2.37197
1429 1 -20.6404 -16.494 6.13452 -0.0803183 -2.0857 -1.05992
3163 1 -23.6818 -1.03705 15.3541 -1.94293 -4.881 0.558038
1434 1 -22.5708 5.78249 22.7145 -3.80444 -1.64062 0.757219
1441 1 -18.0333 -15.1227 17.9369 0.304928 -0.513402 4.80245
1448 1 -16.4709 1.06188 3.59087 3.70876 3.94918 -5.92184
1462 1 -9.87773 -19.6564 8.34064 0.359777 0.63644 4.32867
1470 1 -4.13699 -11.8008 2.66534 -0.556341 -3.69674 -0.343128
2252 1 -22.4497 -12.2313 -0.0713755 0.495204 -5.95678 -7.24359
1486 1 -18.4749 -6.18644 17.5722 -1.26584 -0.59299 2.79906
1488 1 -17.6485 -16.5832 12.4673 2.69252 -4.32731 4.32544
1495 1 -22.0586 -9.81907 19.942 -1.53062 -2.03115 3.88
1498 1 -14.8738 5.7799 12.4015 -1.047 -1.28292 -0.250787
430 1 -22.749 -1.85165 23.4287 -10.2409 1.17812 2.04302
1513 1 -20.6815 0.711846 19.2614 -3.11768 -0.170624 1.24225
1515 1 -7.457 -22.5556 21.1149 0.117387 2.58433 1.33665
1239 1 -2.37568 -23.2946 5.13706 3.02891 1.32645 -2.9587
1521 1 -8.20494 -10.5124 15.9014 -1.40004 2.38853 3.10202
1523 1 -7.49669 4.33313 12.5067 -3.87203 3.82852 1.96191
2665 1 -24.1765 2.32027 1.7799 1.75569 -3.50972 -0.302512
1529 1 -7.62136 1.35087 12.1429 0.0484288 -1.64244 -5.14201
1534 1 -13.3738 -7.52361 10.3422 0.830445 -1.60844 0.195919
1542 1 -20.2722 -4.59817 18.8722 4.86527 4.60899 -7.13525
1545 1 -9.89318 -16.3314 13.6664 -2.25374 3.9212 -4.05916
1546 1 -15.3373 -14.0191 20.447 -3.75491 -0.00291902 1.00588
1560 1 -19.8963 -19.4483 20.1376 0.0388954 -4.0069 1.55722
1563 1 -2.06824 -4.44146 13.5414 -1.02678 -1.99534 -4.61885
1572 1 -1.99436 -18.8723 11.1983 2.6052 -5.48733 -3.03932
1573 1 -9.4608 -11.0856 18.2976 3.57185 -0.250081 1.22198
1581 1 -6.25204 -4.96708 10.9111 -1.31571 1.83392 0.0830353
1584 1 -4.83991 -5.06835 13.5281 3.08537 0.980814 -1.24408
1585 1 -9.54487 -12.4289 20.8451 3.77493 -3.09817 3.25564
1586 1 -17.7254 -20.9151 0.434685 -1.37014 3.52211 2.198
1599 1 -21.6771 -4.32451 8.96169 0.369963 3.9185 -0.605317
1612 1 -23.0275 -21.1471 14.766 -5.23996 0.730754 4.5595
1614 1 -15.0913 -13.8436 2.44332 -1.60226 2.28234 2.06584
1621 1 -20.6381 2.88829 12.4866 -0.947186 -2.82524 2.12084
1623 1 -7.6935 -17.0643 16.7065 2.99911 3.74699 4.31354
402 1 -1.08408 10.0386 18.5813 3.77302 3.43742 0.369083
419 1 -23.0757 3.39215 24.068 1.32515 -2.39256 1.60229
1644 1 -19.877 -0.747241 10.5613 5.61721 -0.641318 2.36095
1659 1 -4.92133 -23.531 6.22069 0.568754 6.71883 2.74399
1665 1 -5.87328 7.53577 18.0665 0.491183 -0.673845 1.1413
1667 1 -11.3267 -1.50445 8.53624 -1.61076 -3.56114 -0.286058
1671 1 -12.7936 9.60111 20.8799 -1.3468 -2.38127 0.612265
1690 1 -6.99913 -23.5373 11.7012 -2.26575 1.92736 -1.43456
1691 1 -16.1594 -14.4281 7.43618 0.572838 3.37677 -1.55092
1697 1 -11.2216 -22.771 5.17219 6.99602 -2.2872 -2.14222
1704 1 -8.20406 -11.6492 4.21078 -2.08587 4.19156 2.89764
1707 1 -10.3267 -8.91996 15.2449 1.22981 1.55031 -0.373745
1711 1 -4.90333 4.4971 2.49884 1.48417 -0.409151 -0.676736
1720 1 -4.27612 -22.6397 8.85633 1.67476 -3.59072 -4.65605
1729 1 -15.2062 6.5076 15.5148 -2.61332 -6.09009 0.163188
1733 1 -11.4776 -17.0502 9.23632 0.977636 3.99574 0.28593
1739 1 -7.84762 -21.9089 16.7854 -1.85346 -3.25225 -1.89724
1756 1 -15.8061 5.54325 8.81303 -4.84204 -1.10675 0.0970406
1763 1 -3.01892 3.11122 12.9405 1.84791 -1.16094 1.325
1766 1 -18.1589 1.07487 14.3997 4.54691 -3.33211 -5.89011
1770 1 -9.68188 -4.70191 20.7137 0.258826 2.33531 -2.45418
865 1 -0.459512 -21.666 10.9664 -0.571721 -6.71483 -0.120927
1788 1 -15.5659 -15.5708 16.274 2.72526 -2.95011 -1.73818
1792 1 -14.5936 9.2002 7.75727 -0.461504 2.8584 -4.816
1807 1 -18.0096 -10.8232 22.7055 -0.138319 3.91681 1.51798
1813 1 -17.3414 8.48726 19.813 3.62709 -0.36619 3.13071
1818 1 -21.2724 -9.60151 5.11357 0.297906 1.7679 4.07121
1819 1 -13.3966 -11.2007 17.0304 3.35351 2.70276 -0.630272
1824 1 -16.2887 -18.7712 7.77363 -2.75562 -3.51555 6.51613
1832 1 -22.3919 -13.3585 23.3218 -3.77416 -1.0645 -3.96904
1833 1 -11.1017 3.55973 18.1262 3.28838 -0.565585 0.43048
3582 1 -15.6447 -24.106 13.7754 -3.66421 -1.76267 -1.4845
1844 1 -6.59623 -3.06793 4.18063 7.32908 -1.1044 0.15585
1865 1 -8.87437 -4.64827 3.8518 3.70765 0.586293 2.53405
1868 1 -5.86927 2.97086 17.6976 -3.15328 -0.810706 -4.86526
1870 1 -18.5436 9.2327 14.4838 -0.0192984 1.30573 -0.808602
1877 1 -15.3988 -6.04411 7.30876 3.75771 3.70687 0.364436
1882 1 -8.89017 6.92092 17.122 -0.243842 -2.78392 1.48363
1889 1 -13.3984 2.5005 9.87344 -0.563552 1.1634 2.45619
3045 1 -2.78826 -2.74558 5.24452 -1.01471 1.7254 -1.70764
1895 1 -18.4508 -8.67213 19.3423 -2.92697 0.588483 -6.20509
1900 1 -10.4545 0.166386 3.7501 -1.91702 1.54186 4.02387
1904 1 -10.5922 -23.0276 15.9733 2.03373 -2.06052 -0.0654
2566 1 -23.8947 -12.0107 13.2494 3.69459 -4.21831 1.38365
1907 1 -21.9057 -11.2253 15.4268 6.60343 -2.01185 -2.59198
21 1 -24.0401 -1.46003 11.089 -3.39182 1.73145 -0.638382
1910 1 -6.3056 -11.0468 13.4087 -2.42571 -0.962277 -0.231506
2747 1 -2.62617 1.84054 15.6162 0.502971 -4.63474 4.45513
2522 1 -4.65989 8.83047 1.81307 1.02291 -1.15106 -2.90066
1945 1 -22.3094 -18.8875 21.9068 5.93787 -1.68215 5.77274
1951 1 -7.48465 -17.406 12.5651 -3.51479 1.15208 1.46201
1955 1 -12.554 -18.7179 21.254 -0.672578 -0.747696 -4.63425
1956 1 -2.66314 1.88744 8.05033 5.58666 -5.2196 -3.34383
1999 1 -0.610185 -8.24166 21.1963 -0.0380784 1.24609 3.02637
1969 1 -6.0988 -7.7502 10.9265 4.08064 -3.73924 -0.583988
1972 1 -3.18691 -7.67247 8.1533 -2.21614 0.960192 -3.57661
1982 1 -20.9384 -3.03431 21.6155 -1.7034 -2.6134 -2.43733
1987 1 -21.7278 3.14399 9.73434 0.0173852 -8.88543 1.23959
1989 1 -11.0094 -15.2624 11.4071 5.78545 1.46134 -1.71593
1991 1 -23.3231 -23.2884 21.6851 1.20446 1.57427 1.26783
1912 1 -13.8997 3.86931 0.953064 0.0388231 -1.71042 4.19014
3803 1 -18.6526 -4.75004 23.0845 4.7279 -2.76022 -1.28018
994 1 -24.4998 -16.4964 17.9486 -8.32469 -0.8654 -6.30225
3263 1 -24.2435 3.39042 19.3288 2.39524 -3.98574 4.83304
2014 1 -8.18508 -8.86992 12.3815 -6.63738 -0.626678 1.71215
2018 1 -14.3926 1.02945 5.57605 -4.46928 -2.71477 0.769931
2023 1 -19.8697 -11.5249 6.75757 4.90741 7.46324 -0.943088
2032 1 -9.18888 5.68613 6.5394 -3.86972 1.07075 -0.443578
2037 1 -17.7491 8.04833 10.8147 0.39635 0.0411123 -2.1002
2041 1 -13.5682 -13.2054 22.4647 -5.26514 -3.54766 -1.10012
2047 1 -6.69583 -12.7037 6.40097 -2.48467 -2.57557 1.8632
2064 1 -13.146 -18.4507 11.2843 -2.03774 3.17464 2.54024
3711 1 -13.7446 9.85349 14.6024 -1.29218 -2.11872 -2.42355
2071 1 -20.6214 -14.016 21.0661 -0.670215 1.39684 0.628246
2072 1 -19.1565 7.75511 22.0623 -2.75089 -0.305412 -4.87862
2075 1 -6.43385 -15.556 22.3776 -2.41655 3.2854 1.53461
2077 1 -17.7838 -4.82339 3.4828 -2.87881 3.89201 -0.93418
2086 1 -10.8234 -15.1906 7.18217 -1.9045 1.33799 -1.62804
2091 1 -10.5237 7.25569 12.6564 -2.17349 4.20746 -1.1871
2095 1 -19.944 -8.64217 2.78417 -6.7538 5.12307 -3.53544
2097 1 -5.56532 6.68757 9.74245 1.86693 -0.264762 -2.53805
2100 1 -1.81683 -4.39903 21.8128 -2.82243 -4.05025 -0.771109
2101 1 -20.7115 -9.1898 17.3836 -0.942466 -1.90712 -0.743641
2104 1 -22.508 -5.68335 22.1284 -2.59318 -2.31918 3.38124
2108 1 -12.1316 9.91283 3.0457 2.49684 0.699345 1.46711
2109 1 -3.76854 9.35863 19.1618 1.87348 -2.49894 -1.54775
2112 1 -12.1775 5.16299 13.75 -0.614376 -3.95454 -0.830507
2113 1 -17.2604 -2.73982 21.6123 -0.712071 0.0591906 -1.68031
3103 1 -4.62912 -13.116 22.8519 4.53019 0.901612 0.503676
1730 1 -3.12712 -8.4743 22.4829 -0.902636 -1.51893 6.06097
2133 1 -13.0689 -13.4988 7.47948 -3.42899 1.17198 -5.83155
2136 1 -5.14541 -20.0637 5.13833 0.405032 -5.22782 -1.63679
3925 1 -22.815 4.82313 2.31731 2.24555 0.38641 0.920174
2142 1 -17.98 -9.71263 16.4549 1.20814 -1.92481 0.0785047
2160 1 -19.6679 -0.667045 21.5893 3.19474 -2.9944 0.841226
1409 1 -1.97331 5.79817 22.207 -2.64969 3.1134 -1.98995
2171 1 -5.05292 3.93011 5.43638 -0.223595 -0.252773 1.59665
2181 1 -16.9701 -20.3979 20.2479 -1.82765 -3.09995 0.791117
2182 1 -2.0408 1.11072 10.8525 3.76306 0.886378 0.291423
2188 1 -13.739 7.12595 10.0095 1.01376 1.02484 5.78507
1608 1 -24.0245 4.46555 8.37188 -3.5924 1.57342 1.77043
2200 1 -3.15293 -23.6141 0.837582 -2.32745 2.02803 0.36729
2218 1 -16.9156 -6.57116 21.6751 3.73068 2.24615 -0.478394
2219 1 -12.0877 -23.2559 13.5975 -1.31399 2.13994 4.15379
2239 1 -15.2774 -10.572 22.3376 -2.75874 -2.15627 -1.60247
2242 1 -11.3618 -15.5071 18.2115 -4.50784 0.839034 5.79846
1536 1 -6.01734 0.771543 23.8147 0.473778 -1.82418 0.796864
2259 1 -21.4712 -8.52558 22.6027 1.70999 0.445824 0.224521
2265 1 -2.67325 1.44988 19.753 1.36028 -7.6211 0.525007
2266 1 -21.4207 6.9942 13.3726 -0.887562 2.32434 -4.66908
2273 1 -21.0047 -21.3626 16.6051 -6.62334 -0.738759 -0.569702
2274 1 -6.52812 -0.825607 19.6764 -2.50247 5.26646 -1.028
1998 1 -13.203 10.9088 0.635168 -0.223883 -2.47307 1.823
2277 1 -14.5315 3.30839 22.1906 0.647507 -2.16717 -6.20938
2279 1 -11.7822 2.18939 5.71068 -1.36947 1.55931 -0.452166
1840 1 -19.493 -12.8888 0.518292 3.89252 0.222196 -2.81838
2312 1 -19.5454 -22.0347 6.8038 -0.49055 1.85632 0.707528
2314 1 -17.7281 5.15281 11.0518 -3.92413 5.20923 0.928092
2316 1 -16.893 -11.9712 1.68333 -2.39464 2.68646 -5.82995
2331 1 -16.021 -18.3509 10.6146 1.34909 -6.33686 6.98465
2346 1 -3.03613 -20.083 8.77335 -1.31356 -2.03957 -1.57401
2355 1 -7.54661 -1.27943 1.86532 -0.334825 -2.71795 -2.48286
2357 1 -1.27055 0.00886056 1.18489 2.658 0.359122 -3.10365
3390 1 -24.3218 -23.7147 14.3978 -0.511439 2.87533 2.26421
1213 1 -24.2146 -14.8012 21.3279 1.23204 6.83667 -4.10573
1511 1 -21.9543 -6.49376 17.2642 1.61783 -1.60457 -2.93098
2387 1 -12.7849 -4.67094 10.5059 2.03353 1.67953 1.48005
2391 1 -6.9712 -2.70011 7.02366 -2.25508 -1.74102 5.2615
2397 1 -15.7063 -8.5622 19.9214 -0.632458 1.51734 0.614411
2398 1 -9.57138 -2.17747 14.6366 1.47943 -5.3202 3.44061
2399 1 -12.2215 -10.2711 10.5158 0.389719 1.6856 -2.26443
2407 1 -12.2422 -13.3254 14.2454 -1.77938 0.361306 -0.770655
2422 1 -14.6347 2.6034 17.9642 1.21329 -4.60734 -1.01865
2430 1 -15.1932 -8.29398 16.9769 1.53662 0.857438 1.9041
2436 1 -6.54324 10.0469 17.0535 1.68625 6.2 -3.79814
2437 1 -15.4625 -4.00944 9.50762 1.61454 -1.16467 0.0787967
2446 1 -2.02851 -6.67523 15.3763 4.97591 4.20681 -2.28974
1156 1 -17.4651 -13.4513 23.4991 -4.67994 -4.06037 -1.33786
2453 1 -1.60023 8.96377 12.3177 0.0414029 -2.18541 -0.787965
2457 1 -4.86964 1.21851 11.1266 -3.08248 1.71974 1.49517
3634 1 -2.73967 4.47044 8.97731 -0.947455 -0.860892 1.12623
2472 1 -19.7673 -0.950282 13.3302 2.70144 -0.0927374 -0.638171
3924 1 -10.4171 -6.34618 11.1712 -1.88874 -3.80883 -2.50586
2479 1 -21.1185 -4.52483 1.21158 -0.394352 -1.34839 -1.63606
1857 1 -1.00328 -20.2538 2.15763 2.43141 -3.6157 -1.61118
2486 1 -3.69241 -18.3857 6.84396 2.15847 -2.83506 2.25616
2498 1 -6.20132 8.22617 5.80414 1.47361 4.57726 1.82319
2499 1 -23.3054 -13.9472 8.13774 0.215006 5.51752 -0.19002
2502 1 -5.74109 -11.0185 8.4901 -0.069256 2.17254 -2.82407
2509 1 -3.85304 -7.69812 2.83771 -4.1055 1.96678 0.289457
2512 1 -10.9771 9.97855 13.3607 5.21456 0.546752 -4.91471
2517 1 -11.2156 -13.0386 17.0002 3.28397 -0.646568 -2.53749
2708 1 -13.003 0.543885 21.8234 1.59922 -4.19903 2.31617
2532 1 -12.1404 -16.0264 0.594483 -0.106207 -4.05495 -6.33124
2974 1 -23.7444 0.292823 19.7229 0.0633558 -6.06292 -0.156494
2546 1 -14.7808 2.93029 12.3492 -4.14046 -2.28134 0.305503
2547 1 -13.5827 -3.31836 4.99648 0.0339767 -0.0879323 -3.1684
2552 1 -2.05047 -11.7098 8.78633 -5.59542 1.45483 2.51754
2556 1 -9.24358 -13.3994 10.4134 8.77851 1.63356 0.766854
2559 1 -16.8193 7.41974 6.98681 0.275387 2.03317 4.19952
2561 1 -9.426 -2.23136 10.4785 1.41147 4.55332 0.542416
2579 1 -9.95399 8.00736 2.73751 -1.40024 -1.93765 -0.0150334
3920 1 -11.009 9.92138 17.1484 3.98173 -2.95735 2.11789
2591 1 -4.9784 -22.7663 13.6617 -3.82235 -0.371245 -5.05351
1967 1 -15.303 -24.0475 16.6395 0.88196 4.18225 -0.465398
2599 1 -5.48528 2.45962 7.83962 2.07728 -5.22204 2.84042
3354 1 -14.4758 8.4925 0.154913 -2.35077 5.58801 0.909048
2612 1 -14.9115 -20.2535 17.1401 -1.47184 6.44005 -0.300695
2613 1 -21.5573 4.77739 16.9595 4.58345 1.25276 1.82138
2615 1 -2.98689 3.75612 17.8363 -2.16733 1.37201 0.298215
2968 1 -0.575886 -13.6862 0.991299 -0.862296 3.70762 2.36276
2625 1 -6.07233 -6.25874 23.3208 -0.0730095 2.60318 1.55889
2626 1 -4.53926 4.10127 22.176 0.498216 -3.83055 -0.766464
2629 1 -21.9026 -2.64033 5.60883 3.71965 2.73787 2.87646
2630 1 -12.343 -8.43792 17.2667 -2.79042 -3.71051 4.34204
2636 1 -14.7418 -19.3467 14.6437 -4.44827 -4.4062 -1.04705
2642 1 -5.65181 -17.6701 3.58447 -1.62159 -2.1218 0.683886
2647 1 -10.6694 4.33262 4.28584 2.14618 -0.323119 -1.35649
2650 1 -5.38675 9.06766 13.3143 -0.418776 -0.426097 -0.917588
2651 1 -16.9749 -17.5636 15.0094 3.75126 4.14562 1.12188
2655 1 -3.6585 -9.6546 0.678259 7.31885 1.48397 -1.75279
2657 1 -9.75605 -5.92778 6.44744 1.34868 4.08626 0.260759
2658 1 -5.28627 0.691431 15.65 4.37568 6.4085 -4.45157
2662 1 -21.9584 -22.8296 10.0996 1.38267 0.940861 -0.157039
2663 1 -8.64081 10.7527 22.2283 -2.68146 -1.90416 -0.851635
1225 1 -0.749038 -18.9781 19.4324 -0.736201 -4.17061 -0.890677
1631 1 -23.8118 -19.9549 8.43123 2.45578 -2.53348 -1.59349
2682 1 -21.9903 0.80736 14.1536 -4.066 -2.19529 0.96495
2685 1 -1.54192 -7.47663 4.50592 1.17368 3.42092 -2.43658
2376 1 -15.0453 0.813278 23.9528 0.143107 3.05535 2.65031
2694 1 -5.25246 -13.4332 20.0685 -0.308701 -5.04852 1.1387
2700 1 -6.78675 -18.8539 1.06284 -1.91961 0.218438 0.766753
2705 1 -1.74432 -5.35789 6.64083 -0.343123 -8.68702 -2.58645
2707 1 -10.0023 -13.8239 0.754312 1.48756 0.44631 0.207379
553 1 -10.5764 5.48849 1.83523 5.34739 -3.25711 -0.87372
2715 1 -9.9009 9.95049 19.753 -3.13883 0.117304 1.75168
2724 1 -6.49657 5.70805 7.02852 3.51611 -2.8402 -2.7119
2730 1 -5.37263 -16.5585 10.426 -5.14448 -2.01006 -2.16844
2684 1 -22.1691 -10.7562 2.43341 -1.87521 2.11816 0.177592
2738 1 -7.58669 7.00839 13.6828 -1.15111 3.85443 -0.939641
2739 1 -13.2145 -7.68665 20.5776 -1.80276 -1.0408 0.278026
2741 1 -7.07447 7.41967 2.77305 5.11162 -4.9513 7.34548
1661 1 -22.2597 -3.33613 16.3818 2.11231 -4.25824 2.04074
2749 1 -13.0442 -8.73211 23.3704 -0.523638 0.335603 -5.47786
518 1 -24.0477 -21.4898 1.37469 -3.041 -3.4794 -3.7162
2759 1 -17.9735 -16.4143 7.9946 0.655624 -2.12664 3.84632
2761 1 -7.06599 -15.388 18.9065 1.31589 -6.8092 2.57502
2762 1 -9.97668 10.1097 8.18441 -3.3925 -0.537232 2.81348
2763 1 -7.04685 -13.1275 16.9857 2.59511 1.76584 -0.712347
2775 1 -4.13838 -19.0551 14.484 1.50845 3.55832 3.14469
2792 1 -6.25804 -5.72039 2.58691 2.5808 -2.20452 7.09707
2141 1 -21.9022 -24.5945 0.22982 6.92814 -4.96685 -3.24393
207 1 -7.032 7.66875 23.0995 -0.194243 3.87296 -3.35667
2822 1 -15.1414 -3.78366 2.66519 2.82376 0.380577 -0.723351
2830 1 -22.1629 7.75379 1.35434 0.36735 -0.344962 3.16661
2833 1 -22.5877 1.55865 5.09846 -1.86236 -5.46913 3.11581
2834 1 -10.5113 -16.8874 22.0683 -5.92451 -2.61012 1.88321
2846 1 -21.5821 0.947171 2.32978 3.55565 -2.11645 8.60644
264 1 -24.2823 1.51488 16.983 4.61595 -1.11509 -2.34158
2860 1 -22.7328 8.04632 19.0203 6.77729 -3.89412 -0.792818
2869 1 -19.7 -17.7943 17.6718 3.02875 -1.41205 -1.47347
2873 1 -11.0417 -2.68137 4.12903 5.65633 0.619626 0.872562
2880 1 -1.77765 -0.818231 13.0607 -0.883868 -0.327942 -1.46985
2882 1 -19.9876 -16.8771 21.4487 4.89958 -1.16806 0.186798
3017 1 -12.9722 5.517 23.2766 -2.378 0.00975456 -4.88527
2894 1 -7.65502 4.62328 15.8549 -0.340191 1.48191 6.04253
2896 1 -13.3013 4.45102 19.8721 1.27194 0.697375 -4.8607
2899 1 -3.51417 -20.207 17.0498 -3.29074 1.59401 4.18302
2903 1 -13.123 -13.7391 4.49368 -1.64179 -1.14036 2.97326
2910 1 -14.084 7.12985 19.572 3.11564 -5.64711 2.61303
2917 1 -9.00685 8.66588 5.61192 -1.13919 -1.98249 2.95867
2923 1 -11.9609 -0.725082 17.9694 1.25744 -0.847194 2.91313
2954 1 -13.6566 -1.29229 7.08262 -4.466 1.42051 2.78895
2592 1 -1.32636 -16.9198 7.71825 -1.15794 -2.89365 2.19927
1968 1 -22.209 10.8331 12.5861 2.39223 -0.010053 -0.999484
2969 1 -5.4421 -1.76887 17.1184 1.2635 -2.83809 -2.20737
2981 1 -13.1824 8.16874 16.9532 0.0282904 -4.79043 -3.36147
2982 1 -12.6997 -5.82938 5.88772 -1.66018 4.21306 3.63203
3785 1 -3.13316 -21.9907 23.41 -0.832015 -2.27446 3.63419
2985 1 -13.2046 -13.1163 11.3677 -0.660042 2.47542 1.82565
2997 1 -6.07869 -16.949 7.36439 4.51347 0.253911 -3.57464
589 1 -0.940548 4.40486 1.41098 4.6464 -6.08893 2.10921
3009 1 -14.8034 -22.5661 8.80017 0.961556 1.38914 3.74244
1048 1 -1.49814 -0.111848 17.4425 -0.752406 -3.25699 -2.02965
59 1 -19.8527 10.1011 18.6207 -2.23524 4.58648 1.30277
3019 1 -19.9938 -20.8017 10.9321 -0.938404 -1.41976 -0.840072
3020 1 -12.6938 -10.8648 7.6891 0.225587 -4.26521 2.1595
3033 1 -12.8442 4.89752 5.82145 0.547542 1.95702 -2.12074
3037 1 -0.828417 -9.94787 5.76607 1.30368 0.120445 -2.49811
4000 1 -17.6187 9.77635 23.5264 -1.17628 0.376217 -0.538159
3074 1 -8.60736 -8.37432 5.97096 0.462364 -3.40543 0.612183
3081 1 -19.7599 6.93588 6.49902 -0.383712 -3.1162 -3.852
3971 1 -6.22872 -3.0464 21.4579 2.8529 0.521569 -4.78097
3084 1 -15.7313 -23.851 6.47212 1.99311 2.644 2.16714
1208 1 -24.5225 -8.13401 8.77245 -1.01101 1.91201 1.98783
3091 1 -3.50133 1.37438 22.6958 0.441454 -1.84599 -3.417
3092 1 -9.00834 -7.54056 20.8315 -0.587762 1.88121 -0.0342099
3098 1 -9.37784 -18.6805 4.44749 1.57267 -1.95524 -0.140887
244 1 -21.771 10.4047 23.9844 -2.84147 6.15195 -4.43743
3104 1 -19.9871 -7.73588 6.9878 4.10858 -2.10035 1.24526
3933 1 -2.60451 -10.6357 18.8022 -5.30313 -0.574596 -2.25861
3119 1 -7.94571 -9.13802 2.54149 0.399062 1.43025 -3.99339
3907 1 -22.3089 0.05675 9.18531 -1.13406 -1.55888 1.25355
3129 1 -2.58355 -13.1949 11.3477 6.7212 -1.80428 -5.02794
3136 1 -16.9942 -21.9001 5.07711 -2.50475 4.49864 2.86179
2688 1 -16.7875 -4.20625 -0.0184287 -3.53013 7.85956 -7.87531
3155 1 -5.77716 -13.1369 0.745849 1.97789 -3.24481 2.92964
3164 1 -19.7223 4.88846 23.4861 -3.31349 -0.294761 -2.74968
3168 1 -17.0334 -21.6656 17.7292 -0.74582 -2.00371 7.50254
3172 1 -7.64074 1.16439 6.36665 -1.6616 2.30213 -4.4959
3943 1 -20.2962 -20.1457 1.72979 -2.96154 2.34327 -4.63258
469 1 -22.6617 -14.638 12.3926 -4.49357 1.17818 -3.00038
3187 1 -19.7428 -15.6712 1.77293 2.31468 1.42047 -2.82806
3194 1 -17.5097 -7.42372 2.01998 4.88426 -1.63111 0.157918
3195 1 -17.1105 -0.0841072 1.05997 1.82787 -4.10549 0.270784
3197 1 -3.05256 9.30626 5.32114 1.78747 1.91066 -1.16006
3201 1 -15.5997 -3.63545 19.3777 -3.04853 -1.98449 3.70199
3204 1 -15.2012 -10.6851 9.43127 0.700454 6.96834 -2.28982
3220 1 -4.41436 -11.7452 16.4418 -4.64003 -2.87986 -3.58173
3222 1 -14.665 -19.2399 0.287058 2.269 -1.37876 0.790758
1393 1 -1.41447 -4.66728 3.28352 1.61028 3.01498 -4.03595
3225 1 -9.64316 -6.55777 14.1196 4.37304 2.48486 -2.28963
3237 1 -1.9551 -14.9356 20.8754 1.07221 -0.96415 1.86884
3239 1 -13.675 -17.5424 7.39248 -1.33005 -4.5132 2.28078
3257 1 -11.2585 7.30974 21.938 1.25353 1.64792 -1.66719
3258 1 -19.7344 -6.86608 20.9758 5.08825 0.838778 -1.37636
1271 1 -0.440268 3.72105 16.036 2.73006 6.64495 1.64175
3277 1 -2.91906 -16.4982 2.87745 -0.460593 -0.615798 1.34156
3281 1 -6.71756 -14.1952 11.281 -0.231591 1.75285 -0.485616
3283 1 -4.54468 -0.70996 13.1228 2.52273 -4.69933 -0.192226
3287 1 -3.57355 -15.3755 16.1008 0.869686 0.808792 -0.474425
3289 1 -17.5784 -22.1744 10.2607 6.99392 5.53619 2.06436
3296 1 -16.3381 -13.0727 15.6412 -1.95005 -1.71674 3.38806
3302 1 -19.42 -11.3096 20.2492 -4.01478 -0.657003 1.09754
859 1 -13.8098 -9.0065 0.861079 0.137145 -2.71439 1.37913
3312 1 -23.3853 5.93416 15.2271 -6.89544 -5.33446 -3.04929
3318 1 -12.3432 1.54103 16.3162 -2.40004 1.08541 -2.19818
3321 1 -11.1841 -19.3983 18.7702 3.21625 -3.27419 2.3191
3332 1 -3.81311 8.1777 21.6757 -1.42744 4.36115 3.67254
2010 1 -6.9402 3.29197 23.2118 8.94474 4.48675 -3.66997
3348 1 -9.49749 -19.5613 1.77409 1.63515 1.64344 2.09032
3350 1 -3.86079 -8.67328 14.4583 2.1989 2.19637 1.99601
3351 1 -20.9228 -12.41 17.9514 0.102522 -2.92161 0.510052
3353 1 -22.2637 5.12006 19.9559 1.3389 0.730013 0.752962
3360 1 -8.18357 -19.7054 18.1834 3.19745 1.28335 -2.31662
3371 1 -10.3839 2.92036 12.5091 2.55961 1.99097 -1.22054
3376 1 -16.1149 8.30861 13.2311 -1.33943 6.25057 1.21213
3983 1 -20.6417 7.54534 10.4081 0.621157 -1.26631 2.68343
3387 1 -18.5623 -2.82821 1.55785 -6.68176 -7.53275 0.972376
3388 1 -19.6917 -6.27442 14.873 0.215603 -1.80445 2.0799
3391 1 -8.27119 -14.2846 3.17758 1.25659 -1.39101 1.87509
3394 1 -11.361 -1.66025 12.4543 2.06669 0.517422 -2.41925
3397 1 -5.38802 1.57652 20.4481 -5.76734 3.49865 -0.845235
746 1 -14.9416 -6.71881 23.616 0.254022 -0.952737 -2.42654
3409 1 -2.92625 -17.3324 18.0913 -3.35333 1.17513 2.7497
3410 1 -19.9892 -9.22727 14.3146 -0.939247 0.205007 -5.0376
3411 1 -6.79445 -5.52387 20.7001 0.0624732 4.69099 -0.494475
3417 1 -20.4852 -11.3551 10.039 0.513786 -1.9369 -2.09504
3419 1 -9.90651 -11.1677 1.76575 1.49372 6.01802 1.77379
3420 1 -17.4342 9.87893 8.63854 -2.0893 0.596737 0.133039
3423 1 -11.309 2.38888 2.04314 -7.07989 -0.581152 -1.2265
1942 1 -1.92569 9.52813 1.60854 -0.0183581 -2.18638 1.41365
3426 1 -20.4174 -5.98812 3.76169 -2.10952 -3.07817 2.57184
3430 1 -14.1075 -15.9319 18.6924 -2.57281 2.22342 4.37368
3432 1 -1.53236 9.38929 9.42376 0.0811235 -2.25592 2.79228
3436 1 -4.03624 9.59959 15.6204 -2.96647 -2.02968 -3.41116
3438 1 -17.2976 10.3098 3.42364 -3.21964 0.0554492 0.931482
3442 1 -6.08181 0.150415 4.322 -1.21513 0.0387107 4.08958
3448 1 -19.0948 3.59361 15.9294 0.548693 1.97817 1.89647
3461 1 -14.1116 -23.5159 19.3448 -1.97119 -0.83992 -1.17773
3464 1 -18.6766 -21.1208 13.6608 4.74329 -3.36214 5.71457
3468 1 -7.06291 -8.73799 22.5646 -1.12174 0.604287 -2.98684
1432 1 -9.55684 8.76114 23.8837 -5.64043 3.99788 0.162126
3105 1 -23.6807 -6.91511 19.8886 3.1111 0.713147 3.36786
3490 1 -17.1616 3.79801 4.90857 0.0214257 -0.394863 3.32546
1562 1 -1.0854 -5.54359 0.318512 2.30444 -5.518 -1.20516
3497 1 -15.4633 10.1111 18.2672 -1.41467 4.76547 -5.05419
3510 1 -14.3126 3.4716 15.1405 4.80909 -3.29015 2.70202
3512 1 -20.2051 3.46991 2.22797 0.94405 -3.13166 2.97466
3519 1 -4.09732 5.94697 16.3911 0.574645 1.16077 1.64177
3520 1 -4.53202 -16.2881 20.3431 -4.22403 1.99439 -0.125144
3523 1 -13.5176 -20.298 7.89478 1.00289 0.0111552 -1.77675
3529 1 -21.3194 9.41929 21.0757 0.0130751 2.55338 1.25472
3549 1 -14.3092 8.98334 4.89922 6.96681 0.646757 1.01049
3556 1 -9.63778 -14.9996 20.073 2.28315 0.0475419 3.68887
3566 1 -9.95359 -15.9167 4.679 -6.61409 -1.50421 -2.24751
2537 1 -2.20458 -23.2121 12.6844 -2.03177 4.53626 2.30689
1020 1 -19.2646 -24.0863 8.96398 -2.17354 -0.39173 -0.831115
515 1 -1.97503 7.7764 16.6841 -2.55339 -6.4317 4.16638
3595 1 -2.61782 -14.1057 7.30281 2.44133 4.4913 2.13911
3603 1 -5.6085 -0.580281 8.82559 -0.307694 -5.44654 1.48681
3607 1 -18.7827 5.80406 19.676 3.73617 -0.228028 -0.060922
3616 1 -11.6505 -11.089 22.1524 1.12335 -0.15232 -1.12215
3629 1 -3.15624 1.60222 4.47015 1.52054 0.929856 2.4777
3632 1 -13.5239 -15.8287 14.2289 -0.575048 1.67776 1.01481
959 1 -14.0486 -17.7819 23.4634 3.33379 4.02162 -2.14396
3642 1 -3.44639 -14.0317 4.45891 0.891659 1.21632 1.0571
3651 1 -10.9177 7.84215 9.91236 3.13478 2.42988 -3.16514
3656 1 -10.1669 -21.8172 20.4769 -1.97958 -3.05007 1.39504
3668 1 -13.0421 -2.43952 19.7695 -0.544755 1.59944 -7.85184
3979 1 -9.27783 -23.0707 3.14211 0.0297076 1.15882 3.8355
3673 1 -4.6693 -23.1775 21.2825 -1.72575 -0.840058 -0.114638
3678 1 -18.2887 6.49541 15.6929 0.485508 -2.59996 1.22963
3681 1 -8.11422 0.467128 14.641 -2.42708 1.66686 -0.595515
944 1 -15.3597 -2.03813 23.7734 0.903344 -3.49274 -1.52713
2295 1 -12.2595 10.3298 23.6731 1.81186 5.88015 3.0852
3698 1 -21.4005 1.96726 16.7521 1.07433 -0.480402 -2.15767
3699 1 -8.62556 -4.09069 12.5058 0.165335 -1.45194 -2.90581
3710 1 -5.88239 -8.89569 16.3012 -1.97283 1.59023 -4.03836
3714 1 -10.1137 0.77571 21.6302 -3.74135 1.76698 -7.13858
3718 1 -17.9523 6.77844 1.00113 -2.00461 0.959433 4.20502
3738 1 -6.75472 -6.21069 15.0172 -6.22361 -1.88197 -1.88055
1421 1 -23.8379 -9.51229 6.4638 -5.59526 -1.81274 -0.830982
3751 1 -3.50667 -1.73455 0.812176 -1.06049 0.890715 2.32252
3754 1 -11.7926 5.58271 8.34743 4.39139 2.98337 2.35777
3767 1 -11.2283 -21.7556 1.6737 1.62533 2.977 0.656929
3769 1 -21.123 -18.492 8.12272 4.97163 2.78354 -1.81652
3770 1 -7.52629 -5.04775 8.44854 -0.2784 6.39117 1.81036
3779 1 -10.251 1.17984 7.97863 4.02759 0.632635 0.943858
3781 1 -4.31614 -4.14029 7.36747 -5.22459 -0.608514 -1.57978
3792 1 -9.97046 -8.89017 9.9635 -6.44867 1.97406 -4.13235
3797 1 -14.1664 -15.3827 9.21622 8.0231 -6.97781 -1.04488
3810 1 -17.6285 -2.80112 13.5226 0.0915151 -0.795619 1.81998
2643 1 -1.9259 -13.583 23.3287 3.3946 -0.545564 -1.29254
3816 1 -14.3474 -9.71045 3.6951 1.77333 0.836174 3.01368
505 1 -0.937569 8.30883 22.8597 -1.24355 0.539792 -2.33214
3843 1 -1.62791 -18.1201 13.8723 4.10942 -2.06653 9.66387
3844 1 -21.3242 -13.8746 6.20674 -3.30964 3.0023 -3.42624
3737 1 -1.69866 6.96556 2.78592 -2.09528 -4.73584 -4.02264
3861 1 -17.8107 -14.6746 21.0769 1.56716 0.981374 -1.18561
3863 1 -13.4806 -3.412 12.8508 0.132552 2.38405 -2.15738
857 1 -23.1369 -6.51503 10.3905 2.62865 -2.2249 -2.44091
3869 1 -8.40554 4.54625 9.23495 -1.93268 -0.0398366 2.01689
3873 1 -4.9911 5.27416 13.756 -6.39888 0.595322 3.74653
999 1 -20.4574 9.29549 7.94341 1.38094 2.17841 -0.670841
2815 1 -23.4455 9.36718 7.52245 -3.32011 2.56534 -2.69274
3903 1 -16.7965 -14.3425 4.8348 -2.39036 3.11256 -4.63161
3404 1 -16.705 -9.5928 -0.00766436 -0.342334 -3.1745 -2.70318
753 1 -16.7406 -17.656 23.938 -0.64339 1.0145 4.58791
465 1 -1.35941 -12.0822 3.61104 -0.561038 -0.34089 -1.8795
1267 1 -23.9349 -14.6098 3.27511 3.06559 -0.699744 -2.51539
3912 1 -6.33392 -10.0724 0.153997 -1.65043 -0.84964 -2.0196
3160 1 -12.0878 -24.0929 23.3428 2.80812 5.81463 2.66079
2812 1 -8.71116 -0.683795 23.6822 0.183754 -1.08299 2.35374
667 1 -21.1111 -20.4628 24.0414 -2.19131 -1.25749 -2.00795
2635 1 -1.21822 10.5248 21.3449 3.46305 10.5491 -0.972252
3147 1 -1.85184 -18.0742 0.395443 1.86448 2.40303 -3.25305
1582 1 -12.7358 6.46402 0.227632 -2.28787 -2.74152 -0.614338
32 1 -9.47157 12.2783 -21.0017 4.13518 1.88242 -4.89089
36 1 -12.9207 19.9062 -18.4011 -1.25732 -0.578835 5.70924
45 1 -10.2634 13.1613 -3.53401 3.75816 -0.43341 10.0096
1034 1 -12.853 13.0769 -8.98398 1.37651 -0.401427 -2.63591
67 1 -14.5977 21.446 -11.2748 -0.461015 -0.992905 2.67915
1180 1 -10.2401 45.2981 -11.9326 -0.752945 -1.54648 -0.172787
70 1 -15.71 14.13 -15.1826 2.04697 -0.286326 3.23937
1927 1 -8.02992 46.6091 -21.1924 -2.28038 1.96393 4.78636
78 1 -18.8591 13.1926 -8.52329 2.46676 -1.229 -2.15956
80 1 -13.0349 13.1618 -14.0053 -1.22197 0.0938632 1.25065
83 1 -21.6555 12.0628 -0.867684 -3.72751 0.186376 -5.58018
88 1 -10.9031 23.3476 -18.3532 -1.25428 4.30711 -3.29432
109 1 -13.2679 15.9973 -14.2218 1.11973 -1.59717 1.72904
130 1 -9.14503 17.7129 -18.17 -1.37307 3.37758 -0.693556
154 1 -8.52805 20.0952 -7.36795 0.969746 2.28135 -0.940063
172 1 -20.2968 20.5314 -19.7862 -1.09918 -1.70173 1.05796
176 1 -5.51185 23.2264 -2.39451 -3.11205 -1.7785 -1.47645
209 1 -6.15083 17.0271 -14.8925 -0.560258 -3.58072 -0.92517
2754 1 -14.3101 25.567 -0.624078 -0.807108 1.69424 0.42572
212 1 -17.6726 23.8826 -2.62612 1.41139 -0.828607 1.25768
4182 1 -1.78215 36.4213 -0.928502 -1.41364 1.83005 1.49995
245 1 -8.83695 24.5213 -9.7201 -3.48908 -1.04052 -3.04782
267 1 -11.8569 19.5359 -9.88073 2.8552 -4.14351 -3.94133
268 1 -20.8434 18.3838 -12.1993 -2.3253 -1.79061 1.49235
210 1 -19.007 12.5461 -1.46519 -4.52956 3.60552 -1.60026
301 1 -7.2264 21.4687 -20.4262 4.14295 -2.1659 2.49787
2983 1 -7.46145 13.4184 -22.6849 1.08471 2.96635 3.42389
374 1 -5.94383 18.7283 -10.8413 2.92696 -1.47432 -1.19206
2172 1 -0.981785 21.3109 -3.4825 4.66681 0.239896 -3.04825
4205 1 -3.32773 38.7853 -1.69487 -1.99534 -4.51675 -2.7948
3116 1 -11.8295 16.9782 -1.07642 0.681035 0.402977 -4.50978
439 1 -2.9363 23.4157 -6.54434 -1.81886 -3.63834 1.0944
440 1 -8.91601 13.8934 -14.1311 -1.1384 -0.470741 3.56407
489 1 -11.6699 22.3802 -10.8306 -1.48032 2.7471 -4.19939
2760 1 -0.706629 13.3958 -17.3972 0.691445 2.5214 3.98838
521 1 -9.92602 22.2837 -6.11908 5.40113 4.37624 -3.17676
526 1 -19.4951 14.5793 -4.61399 -2.14267 -2.68459 1.3774
527 1 -4.03107 13.097 -6.38142 1.9535 3.78323 5.31902
528 1 -16.1742 14.7153 -10.1609 -0.575252 -3.97698 3.95038
556 1 -10.8425 18.0643 -3.58941 -0.0595806 -0.419778 -0.131096
567 1 -22.1071 22.0285 -3.29206 -0.7093 1.21212 0.0832884
569 1 -7.68871 24.4531 -15.0102 -1.26971 -1.52561 -4.81983
612 1 -4.21096 12.9025 -13.6334 0.256461 -1.58158 -3.61748
617 1 -13.7159 22.5676 -18.6805 -0.447439 -1.8826 3.89395
621 1 -5.73818 15.2878 -12.7204 0.460118 0.869347 -0.947665
4198 1 -2.99421 41.0901 -8.55503 -3.56422 -5.56189 6.51623
1054 1 -15.968 23.1016 -0.463314 -1.54427 0.0643555 3.28899
682 1 -2.79306 15.7521 -6.02942 -3.87779 -2.62837 -1.9493
697 1 -21.5705 14.7376 -22.6698 1.76335 -1.23643 -0.309386
723 1 -22.03 12.5618 -4.87889 -0.679163 1.81099 -4.845
724 1 -9.24569 20.8003 -10.1284 -3.10389 1.08501 0.528278
728 1 -10.6604 17.32 -8.57963 0.421825 0.0379258 -3.16156
731 1 -11.3934 12.5898 -23.1106 1.23366 -0.238374 1.88783
757 1 -17.8492 12.3316 -5.21897 -5.31877 2.82302 1.76001
4221 1 -4.05971 43.7181 -9.00442 2.04776 -1.93478 -2.38581
766 1 -10.3076 17.4472 -15.6785 1.47697 0.806369 1.90549
3480 1 -24.1547 24.2448 -3.0054 3.66283 2.54966 3.73163
4170 1 -2.45608 36.7494 -5.52675 2.29337 0.203372 1.88236
792 1 -21.9625 15.1364 -6.10382 -2.98731 -4.87599 -0.362454
799 1 -10.5004 20.8622 -2.87407 -2.96265 -3.50308 2.02184
809 1 -6.0756 24.7319 -17.3632 -5.07339 -1.3104 -3.04879
813 1 -15.0859 22.3807 -16.411 -0.450473 3.80174 -0.609461
839 1 -23.1294 18.4396 -10.0563 1.64719 -0.866852 -3.88898
848 1 -3.65217 16.8113 -11.6142 0.819569 2.18758 -5.88145
851 1 -21.7441 14.7166 -14.2947 -2.53019 -0.866147 -1.29645
855 1 -17.158 21.6746 -21.1593 3.24595 1.40765 0.50613
4230 1 -1.65987 45.3517 -1.70216 -1.44324 -2.56365 1.61819
3880 1 -8.2527 18.5184 -22.8816 1.25915 -4.679 1.45851
903 1 -7.97411 23.8393 -19.2723 -2.00343 5.46579 5.88423
912 1 -16.6267 23.6408 -9.22056 -1.23624 0.151756 2.40685
934 1 -3.39474 20.8422 -21.6574 4.30292 -0.0254245 3.03126
955 1 -10.1099 20.5471 -18.77 6.43414 2.10067 -0.0508758
963 1 -16.6782 23.2589 -12.1452 5.39431 1.87303 -3.37056
968 1 -1.72495 23.3023 -15.0117 -5.7698 1.29574 2.50356
984 1 -16.4212 17.0649 -5.53573 1.87653 0.219571 -4.50427
228 1 -11.2511 20.5195 -0.268269 2.57114 -0.703917 -0.818498
1044 1 -4.97922 21.6264 -10.8134 -3.15532 -1.00623 -0.240169
508 1 -1.52028 19.6685 -9.38378 3.06717 -5.23737 -1.59219
1071 1 -18.8039 22.0752 -13.7407 -0.00751588 -0.0383868 5.52575
1074 1 -10.8637 12.7381 -15.7828 5.23394 -4.94487 0.409397
4218 1 -2.43555 45.8403 -5.47728 -1.53857 -7.80895 -0.211099
4088 1 -5.9837 39.0143 -0.878367 5.8049 1.42185 -2.32141
1095 1 -7.45367 22.158 -12.1568 -1.76881 2.52411 -3.46291
1122 1 -9.77161 23.5556 -1.60592 2.53134 -0.873935 3.8942
1124 1 -3.04241 14.9188 -16.7336 1.57361 1.15306 -5.03841
1130 1 -2.38708 15.0499 -13.7501 1.08345 2.57547 1.17651
1187 1 -13.2348 16.3117 -7.13591 3.40078 0.338989 2.51417
1210 1 -2.26352 17.1013 -3.52544 -1.56691 -1.29725 1.32031
1232 1 -18.1636 15.2831 -21.6531 2.90657 -2.80436 2.12638
1265 1 -8.31584 12.9384 -8.24416 5.18671 -3.9198 -1.53983
1277 1 -12.4557 22.1227 -4.66807 -1.95194 -0.723938 4.64073
1279 1 -19.7252 15.5536 -12.5744 1.60308 2.88939 -0.0386341
1292 1 -4.31893 18.8136 -3.37251 0.30955 4.65347 -1.20691
1311 1 -2.3054 19.1669 -12.1862 -1.64061 -2.74697 -2.19017
1327 1 -9.91428 20.6311 -21.6928 1.48262 -1.41449 -1.00747
1330 1 -8.13866 15.6717 -8.24523 3.22948 -1.46157 -0.192766
1335 1 -14.003 22.8784 -13.888 0.549133 0.783183 -1.72607
1368 1 -19.4672 19.7925 -0.633572 -0.100117 5.6308 1.58632
1400 1 -12.8236 14.9863 -22.7794 6.45955 0.857642 -5.1868
2634 1 -4.94916 11.8876 -22.4733 -1.67326 0.220528 1.08542
1420 1 -12.6036 19.2866 -22.2097 2.05281 5.12398 -6.00331
1440 1 -23.4491 13.9082 -2.56437 -3.77084 6.62328 -5.26868
1465 1 -21.444 22.6081 -14.1792 -1.96196 1.11967 3.15781
1476 1 -20.1418 13.3473 -20.8038 -2.10101 1.83155 5.65886
1481 1 -8.24678 15.8555 -1.35646 -4.89588 0.706081 1.59416
422 1 -3.34066 18.5321 -23.4011 -4.35225 -0.971063 4.10207
1507 1 -23.0746 19.0468 -7.07483 -1.27144 -3.76332 8.73586
3735 1 -7.5831 19.9375 -0.415726 0.726114 -2.38864 -1.92828
1537 1 -3.4885 23.2617 -17.308 1.17676 -0.603944 0.464173
1544 1 -4.45008 20.7268 -17.106 0.777746 0.00128695 1.89917
1553 1 -9.79057 20.2516 -15.5934 -2.11846 1.86932 1.58836
1565 1 -8.40786 15.4609 -11.4132 -0.832347 -6.77864 -0.325365
1579 1 -5.59021 14.5701 -4.18546 -3.76851 5.39736 -4.1657
1609 1 -22.2776 17.0341 -20.5074 -1.66259 -3.175 2.41223
1610 1 -12.6973 20.3592 -14.3632 -1.31196 2.55853 -3.88002
1637 1 -3.44168 21.343 -2.40473 -0.0592754 -1.93573 3.70668
1643 1 -7.1282 22.2992 -8.58781 -1.17943 5.50482 2.96145
2787 1 -15.4355 14.9292 -0.727008 2.61986 1.21617 -2.96246
2081 1 -22.1899 16.3964 -16.7386 2.35627 3.99628 -5.47959
1734 1 -8.47965 24.6894 -21.6917 1.53416 2.22992 -7.41557
1764 1 -15.0538 16.7664 -12.0146 -4.139 -1.4002 -2.72134
1803 1 -17.7385 16.9844 -9.69857 -2.34637 2.26092 1.01406
1817 1 -2.68235 16.7184 -19.2597 -4.26108 -0.0171765 -4.01238
4173 1 -4.24115 34.3956 -9.44109 -1.38601 -3.45403 2.37562
1899 1 -6.53108 19.4393 -5.20624 1.69039 -1.76559 0.974262
1933 1 -3.16291 19.6198 -19.2156 1.38336 1.44745 -1.8506
1947 1 -16.785 12.2611 -13.3266 -3.09905 -0.601895 -1.45463
2002 1 -21.7368 21.025 -9.32291 -1.6814 2.22316 2.35857
2007 1 -11.1059 14.3494 -12.0788 -2.61337 0.98869 -1.799
2987 1 -22.7437 45.8445 -8.63206 -1.01537 -6.22377 8.14792
2062 1 -18.4618 19.2674 -7.88979 -0.495439 -0.805322 1.92936
2076 1 -13.8257 23.0038 -8.7516 -1.17747 6.36791 -1.50893
2154 1 -11.0937 17.1666 -22.2979 -0.258728 1.50658 2.25347
2092 1 -19.6364 21.6207 -22.785 0.0929728 -1.05926 -2.27559
2093 1 -4.22437 12.3014 -0.423296 1.63459 -2.80874 1.86577
2945 1 -7.09688 11.8241 -10.7817 -3.69484 3.54047 -3.56873
2156 1 -20.6077 17.471 -6.8479 -1.49665 0.20326 0.862988
2166 1 -15.0824 19.6186 -16.3139 -2.70466 0.13908 -1.30337
4014 1 -9.58136 27.6965 -0.0725394 4.66236 4.47888 3.15143
2224 1 -15.7328 14.2895 -4.65863 0.920033 -2.67409 3.10831
2232 1 -23 22.7093 -16.5338 5.71732 -0.311725 1.11979
2249 1 -13.6543 12.8781 -16.9583 3.45305 -4.07525 5.84902
2258 1 -9.85952 16.0976 -20.2174 2.76718 -3.62101 0.764634
2275 1 -11.5258 24.0543 -13.4049 0.250061 0.596911 4.89384
2284 1 -21.8278 23.5241 -23.1531 -1.88822 -2.22811 -3.93283
2289 1 -2.82265 12.7137 -20.9457 0.16353 1.02528 1.65203
2303 1 -13.3578 18.9224 -12.3603 4.60787 2.41185 -1.8751
2313 1 -8.21578 12.0038 -18.5234 -3.86962 -1.22211 -2.48714
3780 1 -23.7915 18.1878 -18.4185 -2.18311 1.26439 0.42175
2382 1 -13.0151 17.344 -16.7626 1.51285 -0.301228 -2.64508
2401 1 -19.22 22.628 -4.4316 -3.72259 0.870829 4.18097
770 1 -5.7633 21.8389 -22.8175 -3.23955 -0.514425 -0.42633
2431 1 -20.7192 16.6196 -9.77983 2.33951 -0.745546 0.2868
1383 1 -6.82565 46.9893 -14.1179 -1.98191 -0.44004 -2.07381
2459 1 -18.3262 15.5744 -7.28476 1.38309 2.13726 2.66233
2461 1 -19.3146 17.4993 -4.15481 0.0159461 0.648128 0.947634
2471 1 -1.74639 23.0736 -21.8782 -1.52876 -3.15847 1.68802
2533 1 -15.0777 25.031 -3.3688 1.41101 1.42087 -4.44838
4181 1 -3.34786 34.2026 -2.05978 -2.54841 -1.56596 -7.16842
2837 1 -16.6851 11.566 -7.6132 3.86783 -6.57575 -2.4468
2570 1 -20.6208 15.2095 -18.573 6.15842 -0.714262 -3.06353
1880 1 -1.45514 23.2059 -19.0906 3.03616 4.91391 0.386562
3408 1 -16.7061 12.3764 -23.4886 -0.948473 1.29338 -7.733
2611 1 -22.8704 24.5621 -20.3918 -0.317408 0.286773 1.55412
2614 1 -10.498 13.9685 -18.6155 3.56649 6.70455 -2.66782
322 1 -13.1342 14.8525 -2.07759 -0.282405 -0.626978 3.97824
2623 1 -19.8618 17.1564 -23.2949 -1.45791 -1.04258 -3.39608
2624 1 -21.122 19.7986 -5.06949 3.2014 2.26995 -4.53212
2952 1 -13.0742 22.8738 -23.9019 0.944963 -2.96512 -0.812164
2649 1 -18.7713 20.2431 -11.5335 -1.54259 2.79864 0.698342
2699 1 -17.5167 14.8067 -2.51257 2.95242 -0.315313 -2.38111
2702 1 -6.61798 18.6056 -19.3785 1.0358 -3.52284 3.43618
2722 1 -10.8412 18.963 -6.37332 -0.324674 1.6546 0.38514
2750 1 -14.6207 22.8135 -21.2443 4.30665 4.94017 -4.18684
2752 1 -8.61986 18.4285 -11.5621 -3.15627 1.19984 2.00646
4193 1 -3.96129 38.7141 -4.39559 -2.84353 -2.69209 -3.14109
4112 1 -5.78432 44.1692 -0.846524 1.63534 -3.12516 5.59931
2772 1 -14.5661 18.1095 -20.3393 1.74864 3.75665 1.27225
4206 1 -2.06531 41.1358 -1.32193 -3.10232 -1.3148 0.026818
2804 1 -18.6713 13.1712 -11.3284 1.79104 -0.350746 4.13065
2806 1 -3.7105 18.9873 -14.8951 0.49248 3.73429 -1.50486
3041 1 -21.8146 24.2909 -1.13771 -0.993059 1.93585 4.60948
2836 1 -13.441 17.0065 -4.33615 -1.09472 -0.394087 0.765573
2866 1 -20.9234 22.2578 -6.72409 2.74282 2.5793 0.179051
2867 1 -17.1889 16.1363 -13.685 2.97122 -1.61544 -3.80833
2870 1 -12.8075 15.7962 -10.1754 2.81222 -0.552665 -1.90802
2878 1 -19.1774 19.421 -14.5918 -1.94361 1.2909 -1.42929
2881 1 -16.4499 13.7052 -19.8414 -5.74553 0.394184 0.842278
4013 1 -11.376 25.4085 -0.134902 -0.0678733 0.932744 0.861631
2904 1 -6.77086 13.3518 -0.974958 -2.41345 -2.75407 -2.49762
2907 1 -17.2352 22.8859 -6.53028 -1.79189 -3.39561 -2.64359
1489 1 -23.6973 15.636 -0.0833131 1.66477 2.97952 5.377
2956 1 -15.7394 20.9904 -2.3702 1.51121 2.85547 -3.31879
2959 1 -19.0597 17.8173 -20.3956 -1.53441 3.1863 -1.58148
4229 1 -3.5237 43.3999 -2.17986 -1.25274 -1.75048 -4.22281
2976 1 -21.7841 18.8274 -15.2033 -2.08325 3.43025 -2.54085
3721 1 -0.730601 17.4302 -7.30651 -2.60867 1.5281 0.562641
2986 1 -5.66328 17.5837 -21.9659 -2.53217 -2.45607 1.3406
4197 1 -4.65256 38.6417 -8.82398 2.73621 -4.98076 -0.210916
3021 1 -19.5817 25.7137 -1.52384 -5.02555 0.735252 -4.54336
3030 1 -16.1875 19.1028 -10.5104 -0.339119 1.05419 3.78674
3044 1 -7.12069 16.411 -5.67935 2.10446 3.67558 0.253948
4110 1 -9.85823 46.2326 -0.371183 2.37596 -4.84931 2.57593
3060 1 -23.4735 23.3312 -5.57836 0.759346 -1.77925 1.71902
3061 1 -10.0602 23.1588 -15.6756 1.48096 3.19744 -0.150162
3062 1 -8.22886 15.5716 -16.1799 0.278786 1.14334 1.1691
4217 1 -3.83632 43.366 -4.89868 0.979741 0.430905 0.535393
1516 1 -10.2066 22.998 -23.2957 3.03649 -6.58493 -0.59409
3115 1 -17.2541 18.0557 -15.7479 5.51067 3.81132 0.42632
3228 1 -10.1553 12.2515 -10.4493 4.69672 0.158173 0.0287578
644 1 -6.1878 11.9856 -3.63321 3.18997 -2.01324 -0.856199
3133 1 -1.14456 16.143 -10.2152 3.77572 6.4737 0.75297
3152 1 -14.6908 15.3868 -20.8162 0.176545 0.336714 -3.59741
3165 1 -6.08592 22.0214 -14.7856 -2.21349 -1.91873 5.71444
3171 1 -6.93559 15.2341 -20.6201 -5.74697 -0.440761 6.77674
4222 1 -2.56392 45.9069 -8.34256 -0.327608 -0.716052 -4.14862
3185 1 -16.8728 18.9111 -21.8334 0.0349278 0.478486 -2.66656
3188 1 -21.5975 14.0469 -8.71326 1.46925 0.734119 2.44535
3190 1 -22.1014 20.1971 -17.7378 5.61086 0.284735 1.03286
3218 1 -4.9487 21.4563 -6.7855 -3.54685 5.97503 1.72888
3226 1 -22.7364 21.802 -11.842 -5.38785 -4.87677 1.00802
3524 1 -0.644607 23.5839 -1.68131 1.79399 -0.28838 -6.22938
3689 1 -24.5397 14.6483 -16.0792 -1.49563 -2.07318 -1.11073
4038 1 -9.73581 32.2059 -0.57202 4.10094 -1.91028 1.76475
3256 1 -5.55969 16.2767 -9.23398 -2.96435 -2.40904 -0.286584
3299 1 -14.522 23.6413 -5.98077 2.80245 1.50244 -1.17706
3308 1 -18.3092 20.2069 -3.414 -2.16227 0.0667461 -7.51047
3330 1 -7.6418 19.6583 -13.8989 1.39689 2.37599 -0.754814
1518 1 -1.40578 11.6729 -23.0354 5.24846 1.2132 3.22324
3383 1 -21.3902 24.2391 -18.337 0.919436 -0.996145 1.11482
3393 1 -13.0908 15.0992 -18.5303 4.27944 -2.56318 -0.232964
2617 1 -4.81649 12.5574 -16.6137 0.298996 -1.35367 -3.55613
3435 1 -3.6479 21.8201 -13.4494 3.07431 0.675709 1.68786
3462 1 -13.0491 20.5902 -7.25265 1.69363 -1.62955 -1.40663
3540 1 -2.49126 12.028 -4.11794 -1.82528 -0.398396 3.81888
3499 1 -21.7789 19.4665 -22.3207 -0.0188659 3.1635 -3.30823
3501 1 -16.7498 20.0448 -5.88531 -0.474364 -0.457831 -3.75932
3502 1 -8.03347 23.6536 -4.02843 -0.45747 -1.66794 2.62534
3506 1 -23.0722 19.0781 -2.86747 1.94919 6.13608 -1.12169
3514 1 -4.16925 19.731 -8.69749 1.10986 -1.03094 5.91321
2074 1 -0.723717 11.6404 -13.3569 0.778365 3.41187 -0.968429
587 1 -20.5034 46.794 -9.90805 -1.63668 5.47324 -0.485675
226 1 -24.0466 16.2299 -13.3911 -0.439947 -2.98492 0.952412
3543 1 -15.2614 14.2074 -7.51876 2.66989 -0.163352 -0.745368
3544 1 -7.64044 20.9828 -3.01128 2.33529 0.816378 0.847963
3553 1 -9.04875 15.9617 -3.9719 1.03476 2.64665 -5.80903
3560 1 -17.377 13.8541 -17.2346 3.52355 1.67324 0.576986
3600 1 -18.9804 21.8285 -8.86613 2.8298 2.29244 1.20666
3611 1 -17.6341 22.9594 -15.992 -1.25262 -1.29951 1.17312
3612 1 -3.27488 14.3732 -2.382 0.498352 1.19915 0.464437
3620 1 -3.21479 14.4433 -8.83974 4.93426 -3.41324 1.81782
3655 1 -8.96694 24.5024 -12.3041 -4.88078 -1.81376 1.32458
3675 1 -14.9408 18.5861 -7.86067 3.63013 1.54436 4.49398
3717 1 -3.94039 15.1513 -21.4365 0.960738 3.97472 0.0359297
3427 1 -23.1269 12.3312 -16.6196 1.90202 -0.38515 1.92748
3653 1 -1.0614 16.9902 -0.780569 2.33738 1.63059 5.58084
3725 1 -14.3008 19.7419 -4.38881 -2.78535 -2.96744 1.63485
4016 1 -5.3104 25.6144 -0.950027 -0.930745 2.27787 3.00459
3747 1 -18.8158 22.6427 -18.7272 -3.15648 -3.04511 -0.136612
3752 1 -20.2531 13.5219 -16.4706 4.48501 -0.00730325 1.26051
3791 1 -10.7755 17.1997 -12.8791 2.6948 0.616335 4.0816
3805 1 -5.12995 16.8738 -17.639 1.06821 -0.855374 -7.8692
3807 1 -7.43591 20.858 -17.3892 -5.25905 -2.1829 -4.30506
3826 1 -1.42018 17.2516 -15.5633 0.856473 0.0641913 5.01107
3828 1 -18.3217 16.5661 -17.9148 -0.11348 -2.61425 0.556903
4169 1 -3.75825 34.3889 -4.96553 -0.698642 1.18498 -1.08685
3929 1 -1.07197 12.5931 -7.95087 -0.854953 3.28197 -1.30183
4194 1 -2.72647 40.9175 -5.79732 -3.54962 0.658585 -4.53738
3901 1 -14.3961 12.4409 -11.3527 -1.60216 -1.31452 -2.78798
3910 1 -4.7615 17.4465 -6.85784 -4.10126 -1.15588 0.0580497
4174 1 -2.79998 36.5411 -8.49108 -1.09849 2.23717 -2.42025
3940 1 -2.68157 22.9226 -9.74144 -2.71849 -6.40554 -4.66165
3956 1 -13.1591 12.8656 -3.78642 -0.511467 -3.96993 1.99616
3235 1 -4.1174 12.5162 -10.6977 3.397 2.48682 -1.12482
3984 1 -6.61977 14.2071 -17.9346 -1.83299 -4.81722 2.66854
4001 1 -12.064 24.8771 -3.18394 -1.3627 0.691381 -1.85247
4002 1 -10.4764 26.6662 -4.79825 -0.0292448 2.47758 -2.50755
4003 1 -7.80912 27.3844 -4.2288 -2.2396 -2.17034 1.83597
4004 1 -6.20047 25.3966 -5.35537 0.198206 0.115832 -0.899707
4005 1 -11.0659 23.91 -8.31224 1.76649 0.907065 -3.70547
4006 1 -11.0767 26.6519 -7.69639 0.668603 -2.48825 2.83136
4007 1 -8.33064 27.1837 -8.77924 -1.63606 -6.75484 -0.149082
4008 1 -6.38317 25.1263 -7.99433 -1.14469 0.693898 3.97747
2545 1 -12.36 12.6314 -20.4314 -1.67775 3.18849 -0.0248007
1083 1 -0.531156 20.4932 -18.4376 -0.865542 1.3209 -1.88992
4015 1 -7.34005 27.7204 -1.66682 3.09183 -4.41 -2.41406
1698 1 -9.29173 11.7419 -1.11715 -3.68825 -0.922937 -2.21684
4025 1 -11.6045 29.5091 -4.30813 1.01871 1.25453 -1.87859
4026 1 -10.6685 31.9469 -5.07394 -0.00519648 -0.893467 6.41101
4027 1 -7.82214 32.1076 -4.40083 -0.0584446 3.90356 2.14825
4028 1 -6.67446 29.671 -5.39462 -8.22039 0.915388 2.30219
4029 1 -12.2993 29.4688 -7.25303 -0.397215 1.63966 1.54141
4030 1 -11.0256 32.0058 -7.8783 3.01648 -0.221127 1.66888
4031 1 -8.42966 32.0956 -9.00551 3.39877 3.04573 4.70986
4032 1 -6.90922 29.9142 -8.17769 -1.69131 0.383 -1.51689
4037 1 -11.0548 29.7969 -1.19418 -3.26679 1.89565 1.73902
2061 1 -16.899 46.6896 -22.4135 -3.99696 1.07663 -3.54377
4039 1 -7.31185 32.1566 -1.87476 0.15366 0.954957 1.48402
3532 1 -6.48742 11.7767 -6.5226 1.70667 -2.21557 0.48864
4049 1 -12.0727 34.406 -4.07385 0.419643 7.1959 2.50477
4050 1 -10.6791 36.7147 -4.94619 0.347783 -2.49925 5.63445
4051 1 -7.88874 36.3575 -4.45532 0.6986 -0.998592 1.67536
4052 1 -6.63994 34.073 -5.78322 0.447466 -2.1219 -4.17979
4053 1 -11.441 34.4229 -9.20731 -0.878696 -0.56344 1.94264
4054 1 -10.7714 36.8375 -7.96683 -3.66899 12.1591 1.86947
4055 1 -8.20552 37.1806 -8.66109 0.677232 0.0699658 3.884
4056 1 -6.93363 34.4747 -8.42735 1.5526 3.06105 3.22525
4061 1 -10.9526 34.4879 -1.54044 -2.60608 -5.36544 -1.70414
861 1 -23.6105 19.2975 -12.9721 -0.856179 2.96848 3.59531
4063 1 -7.26875 36.7322 -1.81723 -3.75731 -3.30442 -1.81778
3124 1 -13.2087 11.9213 -6.37885 -1.81625 -0.655049 -1.22172
4073 1 -11.9302 39.1587 -4.58649 1.4019 1.1199 -0.199984
4074 1 -10.4933 41.4458 -4.82903 -0.305818 -3.20147 -1.79983
4075 1 -7.48798 41.4498 -4.08868 -0.915695 0.302132 -4.73481
4076 1 -6.59672 38.8076 -4.81642 -1.07118 -1.98965 -7.24406
4077 1 -11.9787 39.1998 -7.63677 -1.7077 0.847109 2.88299
4078 1 -10.7747 41.7601 -7.47594 -1.69377 -0.898453 2.83049
4079 1 -8.31379 41.1091 -8.57566 -2.20896 3.22182 -5.4361
4080 1 -6.96136 39.242 -7.61439 -5.58506 -1.12497 -0.572768
4085 1 -11.3327 39.3816 -1.77205 1.89473 2.83236 2.51917
2551 1 -6.96571 11.7555 -13.7047 -1.61697 -1.60584 1.69436
4087 1 -7.17779 41.5753 -1.24308 -2.17292 -0.0182849 -2.25405
2807 1 -22.1322 18.0644 -0.223182 -0.627716 -0.258418 -4.25447
4097 1 -10.4763 44.3788 -4.27299 -1.01794 1.28719 3.18087
4098 1 -10.9749 46.0954 -6.42971 -4.65717 0.659087 2.86655
4099 1 -7.70597 45.755 -4.44255 0.301373 -0.371209 -1.35224
4100 1 -6.5297 43.7236 -5.83569 4.01045 1.91503 3.53332
4101 1 -11.3516 44.373 -8.35362 1.69003 -2.87083 0.962972
4102 1 -8.71339 45.8636 -9.59779 -2.64715 2.39578 -1.72774
1919 1 -22.5463 12.0431 -13.0443 -2.37001 -0.172386 2.68102
4104 1 -6.84044 43.5408 -8.52624 0.109536 -2.134 2.27742
4109 1 -10.6591 43.9528 -1.59048 4.43701 -5.2399 -5.45735
2580 1 -23.2864 12.665 -21.6648 3.10875 -0.633734 -1.87039
4111 1 -7.49609 46.3211 -1.65251 1.9612 0.118296 -2.47064
3174 1 -23.5046 12.6886 -10.4205 -2.40184 1.85551 -1.67132
4121 1 -3.51187 25.558 -4.92451 -2.67176 1.7846 -1.92716
4122 1 -2.16725 27.8145 -5.8705 0.40824 2.48462 2.49965
4125 1 -3.71403 25.319 -8.65189 1.79716 -1.62222 -2.2074
4126 1 -2.39248 27.7821 -8.6032 1.62 4.75996 -4.13892
4133 1 -2.62762 25.5614 -2.26115 3.13869 -3.05506 3.34659
4134 1 -1.43325 27.9186 -1.59342 3.54929 -0.0263443 -2.50295
4145 1 -3.88177 30.1976 -5.04283 1.92872 -1.26916 -1.523
4146 1 -2.40684 32.2668 -6.17433 0.0915675 -2.91611 -1.37301
4149 1 -4.25888 29.9087 -9.34863 -2.35754 3.5725 -2.62225
4150 1 -2.7947 32.1589 -9.04971 0.851055 -3.28099 -1.10313
4157 1 -3.30405 30.075 -2.29819 -3.2932 2.19204 -4.49284
4158 1 -1.82981 32.1583 -1.39366 0.124341 2.52278 -2.34702
3661 1 -24.236 11.8498 -19.0694 -1.36874 -6.79319 -2.94744
4040 1 -5.82647 29.9757 -0.764821 0.144787 6.52291 -0.690104
673 1 -1.52032 16.859 -21.944 -0.803441 -2.58129 0.286227
2056 1 -6.00984 24.5924 -23.5078 0.930151 3.57486 -2.21631
3857 1 -12.7403 44.6348 -10.6747 -0.74851 1.321 1.1467
286 1 -5.86646 17.6265 -1.23269 -3.13534 -3.58023 2.83381
1161 1 -8.85443 46.2788 -18.558 -4.24255 -1.35288 -4.30748
604 1 -0.688441 26.3122 -23.5707 -0.910639 0.731441 6.15764
4064 1 -5.8835 34.496 -0.998727 -0.169581 -2.19992 -7.20242
4062 1 -9.93936 36.986 -0.745617 -3.52816 -1.52488 0.831363
104 1 -14.634 46.4422 -11.0879 -4.86859 0.334606 2.75911
4086 1 -9.96438 41.5015 -0.786512 -2.66713 0.586361 -0.515614
1291 1 -19.5745 16.734 -1.14132 2.62115 -3.80935 -2.6759
2848 1 -17.7149 46.914 -10.3537 2.31454 -3.85213 -2.63774
789 1 -13.6803 19.2906 -0.839595 -0.709413 3.24435 -2.5425
456 1 -5.48274 15.4268 -24.1315 0.516403 -5.29519 -6.91467
3131 1 -11.4706 13.466 -0.13096 -0.132659 -0.537326 -3.75689
4199 1 -0.69817 41.3255 -9.8743 -2.08265 -5.65077 -0.175965
296 1 -0.597425 14.174 -1.27292 -2.10594 -3.57963 1.80598
2768 1 -7.35112 22.7141 -0.0434488 0.0520699 -0.678619 1.51583
2321 1 -3.18843 24.4743 -24.0015 -3.08292 -3.52422 8.6507
1069 1 -23.9969 15.3351 -23.7549 -1.39767 2.06352 0.742764
2 1 -8.767 15.2058 3.20608 -2.87855 4.1845 -2.4463
19 1 -15.3231 22.5252 19.8493 -0.517327 2.57499 -4.51101
26 1 -1.59279 15.6153 10.494 -0.19571 -3.05572 4.80343
53 1 -2.44471 21.857 10.6275 3.09146 -3.84119 -1.53377
69 1 -9.73289 14.9285 9.52992 -0.979978 4.02642 5.99319
98 1 -3.17547 14.2138 12.2677 0.354911 3.67777 -2.3862
148 1 -19.0686 13.6201 13.3474 1.65931 4.02108 -3.25783
2129 1 -13.3969 45.8352 13.6801 -0.335725 -6.31387 5.03649
196 1 -17.4149 22.8519 3.92246 2.42167 -0.442936 -2.80994
4115 1 -5.53422 46.1765 10.5545 -2.29913 -1.78091 3.58119
219 1 -6.22906 24.0629 21.6709 1.97747 -1.61228 5.89053
230 1 -7.03264 13.8975 19.5896 -1.77333 -2.27959 -7.77441
233 1 -12.8875 17.2242 12.4514 -1.05964 -3.98014 -3.34285
234 1 -7.27646 18.6116 8.10029 5.62188 1.47903 -3.87695
237 1 -18.2119 23.428 1.21799 -0.430405 3.28904 3.58499
239 1 -21.1455 19.5617 18.3568 -1.18049 3.15236 -4.04206
285 1 -15.2078 20.7055 15.4496 -0.637613 1.16918 -1.60048
261 1 -2.84463 47.1518 10.3524 0.871826 -0.0394626 -2.33228
2980 1 -5.37085 11.7219 2.13559 3.70774 0.471985 2.9627
372 1 -8.90658 21.7568 8.10372 3.57589 4.01607 -5.15897
2307 1 -14.3746 12.358 23.035 -1.07198 -0.676832 -1.99894
4166 1 -0.9526 32.3816 5.85499 -0.0620686 -1.60901 -1.35434
425 1 -19.7799 13.2099 17.2609 -0.416191 -0.268434 1.672
453 1 -18.4346 13.6674 8.30219 -0.215585 2.56582 -1.73616
3840 1 -11.8095 45.5874 11.4447 6.55791 3.71323 -1.46692
514 1 -14.8403 19.4278 19.9978 -2.42313 -0.649763 2.04506
3000 1 -2.75478 12.1396 14.9951 -0.883231 5.5174 -3.77976
577 1 -10.2928 22.834 1.13295 0.639507 -0.818389 -2.45354
583 1 -21.5416 23.6342 13.061 -4.80139 0.712085 1.01043
1917 1 -23.5272 24.0872 17.5776 5.03093 0.0453991 -3.17915
588 1 -18.4279 23.2327 6.6061 -2.8345 -0.631711 -4.24686
590 1 -6.26591 18.8241 21.4678 -0.960442 -7.41105 -0.00931172
600 1 -21.406 24.2891 15.7254 1.2488 2.34779 -1.1632
630 1 -22.3108 24.512 10.3884 -2.05358 -1.61526 -6.23574
641 1 -15.2902 19.443 5.35769 0.977799 -2.48192 -0.12484
668 1 -11.4595 12.7036 16.6706 -6.51195 -0.0868477 0.262675
693 1 -9.1987 23.3314 3.93744 -0.528215 -5.74714 1.3695
729 1 -13.4545 15.0078 14.2333 -2.95812 -3.55335 -1.13994
734 1 -20.0722 23.6269 19.9918 2.34524 -8.20611 -0.582353
4114 1 -8.3759 46.0795 10.1339 -2.95774 2.47974 0.861414
754 1 -14.7892 25.134 15.4353 2.80449 1.73272 -0.188909
785 1 -2.71324 20.9693 20.418 7.37108 -0.559229 2.71395
786 1 -22.18 19.4235 22.9298 4.86352 -3.9052 -0.380066
791 1 -3.90787 22.4349 15.3363 -0.123493 -2.44375 -4.51822
743 1 -24.2518 19.5962 1.29257 8.78989 -3.6011 2.04349
886 1 -5.28733 22.9826 2.01289 -1.92509 -2.89883 0.650545
4138 1 -0.862455 27.643 8.12887 -0.451155 -1.48434 2.37109
913 1 -6.91742 23.1574 15.8769 -0.707083 3.70434 -1.31913
914 1 -22.1579 15.7755 10.3952 4.04093 -0.120777 3.15637
919 1 -9.5195 16.1899 12.428 -1.62463 3.55202 -2.66067
924 1 -8.59002 16.103 7.25295 3.97036 1.02919 0.0612441
932 1 -19.8281 15.6032 15.7151 -0.92238 3.39705 3.27366
941 1 -20.783 23.3125 8.43253 3.34888 4.58561 2.58706
947 1 -9.9476 16.3311 18.518 0.0401109 0.758113 1.33352
949 1 -3.17081 14.5871 22.4467 -3.40683 2.44997 0.77545
961 1 -8.27094 12.4039 1.63099 -0.600431 2.51285 -0.502295
965 1 -15.904 14.2804 7.07394 -0.560708 3.48098 0.219978
985 1 -17.3576 18.6356 12.1437 -0.715975 -3.31767 1.20584
1005 1 -15.394 17.3526 0.572115 -0.696339 -1.09819 -2.25016
1055 1 -8.54868 16.4705 16.1123 -0.819137 -3.31199 -2.35699
1056 1 -8.13055 19.1291 5.37207 1.54572 -2.85068 1.44564
1723 1 -23.5588 18.3227 3.87368 -1.17277 -0.158451 -1.66746
1270 1 -24.1614 15.6702 12.5557 -1.11329 2.36801 1.17664
1088 1 -22.3214 22.752 5.91104 2.07702 1.11139 1.83528
1110 1 -10.2115 24.1585 8.65501 2.00934 -2.93091 4.18815
1113 1 -19.7544 18.4199 22.4099 -1.64548 -0.46775 0.43101
1117 1 -7.49977 13.626 10.496 -2.25193 -0.445517 2.21918
1150 1 -14.4497 16.0088 8.75546 4.94083 -3.25265 2.38708
1152 1 -13.3812 14.0214 18.4737 1.9372 4.25471 -1.38251
1166 1 -16.5153 23.7666 17.397 1.37573 -0.691326 -3.79921
1226 1 -21.0763 14.6829 0.519183 0.465534 3.53172 1.4537
1175 1 -9.31366 12.8939 20.5996 -0.403174 0.0342563 -3.55005
1197 1 -19.1402 15.8422 21.1659 1.84339 0.470381 -3.61069
1204 1 -3.45457 22.4346 4.29388 -1.04028 -2.90579 0.555274
1220 1 -21.8408 21.2047 15.8889 3.14143 -1.17524 2.73288
2426 1 -1.64612 17.0224 18.5873 1.1089 6.41769 1.28083
1237 1 -19.1074 19.7637 15.9605 2.29488 -0.791333 -3.92013
1642 1 -1.22925 22.4497 6.27133 -1.99004 2.56024 -0.00567213
1285 1 -13.3075 22.713 15.3209 -3.78292 0.411515 -0.503258
371 1 -12.5386 46.7104 16.318 3.93535 -2.75031 2.68993
1325 1 -6.42692 14.2598 7.80962 -1.67561 -0.388524 4.41903
1340 1 -19.9382 17.333 11.5747 -0.727677 1.92647 1.28084
1355 1 -9.03625 21.4167 18.5034 -0.897587 0.547439 0.520891
1358 1 -8.80203 22.7039 22.5137 -2.59823 -0.432776 2.70711
1372 1 -11.8601 13.5862 2.97443 -1.0401 -2.53522 2.46753
1374 1 -19.2589 24.56 17.5438 -6.02823 -2.19393 1.12998
3180 1 -0.852623 15.054 3.41463 -0.95607 -0.31197 1.18313
1385 1 -17.0252 25.3261 13.4767 -1.07484 -3.19306 -4.30391
1391 1 -12.3278 19.7011 21.3795 -0.835332 4.62092 -2.90104
1456 1 -17.4518 15.7446 11.4494 -4.79162 4.6318 -0.442041
1458 1 -20.8033 12.1424 7.62816 -1.88298 3.44855 0.106231
1461 1 -13.5805 14.9843 22.6886 -0.922924 -0.125186 0.423988
1492 1 -11.9009 13.2284 10.8003 -0.679822 0.803209 1.91428
1500 1 -17.8716 17.5101 14.7681 1.64361 -0.663077 -3.07168
1091 1 -12.1689 14.1611 7.9376 3.21591 0.358083 -0.280526
1575 1 -19.4379 15.4901 4.26404 -1.66977 -0.511514 5.62667
1606 1 -21.7366 18.8881 6.92124 -2.80794 3.88381 3.70479
1622 1 -17.5001 21.9914 15.6036 4.03643 2.5568 1.09014
4210 1 -0.484254 41.8917 8.89314 5.70211 -4.86036 1.5603
1655 1 -2.6541 14.93 15.2802 0.991084 -0.53661 -11.4353
1656 1 -3.54538 12.9909 17.7818 -1.37372 -1.32787 -0.946527
1658 1 -17.9696 21.448 8.70872 0.355957 -3.18584 4.27862
1668 1 -12.54 18.2304 8.11541 -0.996734 1.12687 0.679417
1679 1 -11.0162 21.988 20.5701 -3.17989 1.4688 0.884779
1685 1 -19.2531 12.1097 23.3928 -1.37266 2.06259 -0.579785
1705 1 -2.07546 25.0537 19.4104 -1.70366 -2.18957 0.398766
1708 1 -9.13568 24.6093 15.2472 -2.39024 0.304877 -2.27952
2528 1 -9.73005 12.5247 6.96857 -0.267017 -3.13947 3.02952
1769 1 -23.7334 15.8477 16.2698 -0.634813 -1.75327 1.31728
1784 1 -9.02241 13.4775 13.1514 -1.10038 -1.12079 1.57332
3669 1 -0.80876 21.1374 3.44215 -1.74673 -0.175154 -1.98155
1869 1 -1.8959 23.7358 17.0594 4.09996 -1.66764 -0.532813
1873 1 -11.082 17.2567 10.2686 0.524195 0.442964 -0.0171683
1885 1 -9.48409 16.4513 23.4319 2.28822 -1.73845 -1.30744
1898 1 -20.8124 19.4915 13.3935 -1.38497 4.33188 -0.159196
1916 1 -6.70015 15.7642 4.92528 -4.44712 1.23049 2.98416
4142 1 -1.31497 28.2876 5.42323 0.820108 6.09185 0.585092
765 1 -23.9517 11.9382 9.03083 5.97648 5.6531 1.32174
1963 1 -2.31739 18.3886 1.43197 -3.18444 5.36098 -1.52551
178 1 -14.1499 12.1082 7.97751 1.42692 -5.04349 2.2396
2492 1 -23.142 15.3586 4.29192 6.40638 1.50501 -2.22986
2008 1 -10.7415 24.8466 13.0083 1.52665 -3.27239 -0.203495
2013 1 -14.7819 23.6521 4.33783 4.65216 -1.97734 -0.0729449
4186 1 -0.736306 36.9583 9.00337 -2.85364 -3.92007 -6.59458
2046 1 -8.70243 13.8726 17.2149 -1.76413 1.2324 2.04883
3293 1 -9.27156 13.4401 23.5934 -3.72096 -0.241104 -1.20202
2082 1 -7.72459 17.943 2.93989 1.33874 0.711088 2.8421
2119 1 -9.59541 18.8865 1.14344 2.3147 -6.04822 -4.90125
2157 1 -3.46115 16.4866 20.5074 4.13698 -1.21171 -4.8849
2158 1 -16.6798 12.6649 14.6892 -0.7844 -0.784804 0.0700534
2168 1 -19.1821 18.5301 3.71174 -3.02728 0.753401 0.736048
4233 1 -1.80679 44.2653 9.74006 -0.833283 2.75861 0.627356
4190 1 -1.22162 36.8999 6.11115 -1.32084 -1.00311 -2.88673
2231 1 -12.7655 23.1285 8.93011 -0.531301 -0.547521 -2.18685
2264 1 -4.30825 17.6513 4.20918 -1.42994 -0.538068 3.87228
2270 1 -5.39462 20.0851 5.178 2.38974 -0.618321 2.19373
4209 1 -1.79228 39.3421 10.1134 -4.08091 -0.284249 6.18829
2282 1 -6.17188 22.4842 8.17117 0.0736855 -2.55435 0.416161
2285 1 -21.4145 16.8189 2.50878 -1.40329 -3.3389 -0.952372
2305 1 -14.6653 19.57 12.7699 -0.733577 0.909897 -1.52695
4119 1 -6.36086 46.0839 5.43514 0.749143 0.909017 -2.40311
2315 1 -11.9656 12.7093 13.5504 -4.31769 -4.89299 -2.3148
2362 1 -21.1675 12.0544 15.0122 0.354324 4.77801 0.969948
2322 1 -5.24517 20.6392 19.2628 0.0903244 -0.417977 -4.94157
2334 1 -10.9299 17.5874 14.4786 1.82746 6.05323 -2.24749
2335 1 -3.47433 18.7275 21.9799 -1.8821 -0.695694 -2.09052
2349 1 -10.5959 22.5422 16.591 0.418851 4.42335 -0.53395
2379 1 -21.7934 12.8713 10.3253 -6.68729 -0.753824 -0.428827
2413 1 -6.50984 22.8868 4.57906 -2.56588 3.42479 -0.0333457
2897 1 -3.74856 16.0505 0.036942 -3.0398 4.37443 -3.21707
4202 1 -1.50337 41.266 1.59075 -3.3865 0.00524915 1.98363
2435 1 -15.5733 25.1395 11.2523 2.6886 0.722271 -4.19629
2439 1 -14.9135 20.0297 10.0436 0.932586 -2.39475 2.62219
2441 1 -21.7993 12.3795 18.8768 -1.89266 4.07568 -0.785865
2462 1 -13.1269 25.2503 2.29186 0.351431 -0.653411 -0.359348
2488 1 -8.50097 18.8038 19.6056 -1.07747 5.84576 -0.739626
2490 1 -13.0421 21.8711 18.2144 -0.838392 1.21512 -1.00151
2505 1 -10.893 17.5288 21.2599 5.64815 0.74935 -0.385918
2519 1 -23.155 21.2328 13.3608 0.275026 5.09336 -3.97478
72 1 -24.4514 13.8526 19.7904 -3.69711 -6.02679 1.43001
2581 1 -7.08359 15.7737 21.8514 4.6596 1.07048 1.70932
2586 1 -14.637 14.5985 11.377 1.37465 -2.85486 2.5669
2620 1 -10.837 17.5427 5.92372 1.39452 1.15409 -0.293392
2660 1 -13.0355 24.1341 11.4039 -3.38733 5.66552 -2.95134
2664 1 -15.9038 16.3982 22.5936 -0.411445 2.85105 0.288718
4189 1 -2.43199 34.6954 5.20335 1.28978 -0.967963 -0.989697
2710 1 -4.92931 15.5254 18.4616 2.62589 -0.602301 4.64159
2723 1 -6.8797 15.2654 13.9494 0.29643 -1.6063 0.329782
2742 1 -16.287 15.5122 4.44292 3.22166 0.497641 3.73406
2745 1 -12.6206 22.2505 2.73866 2.77566 -1.05344 -2.49066
2769 1 -16.2578 15.4136 15.4291 2.05163 -2.98047 -0.417131
2777 1 -14.6349 17.3653 3.247 -0.424703 2.9893 -4.23646
2778 1 -21.781 15.2307 20.029 1.64821 -2.51023 0.779762
2788 1 -21.7161 16.7296 14.0122 1.01689 2.50189 4.04794
2809 1 -12.4171 16.4992 16.8063 1.27074 3.65736 1.54843
1906 1 -20.7167 46.8787 11.3329 1.28823 3.47293 3.06382
2820 1 -15.685 22.8106 9.27354 -1.41823 5.18695 2.26145
2851 1 -6.84464 22.8628 18.9478 3.22008 -1.76547 1.3292
2853 1 -3.29012 23.5808 21.5128 -3.26375 -2.61394 1.27811
3150 1 -21.6369 11.8186 4.6314 1.63593 6.20291 0.574669
3931 1 -2.77858 11.5544 3.69095 -4.50449 -0.349858 1.13602
4178 1 -1.30229 36.9259 1.69099 3.65055 1.60046 -1.76077
2895 1 -18.965 19.5035 19.9058 0.176876 -1.76059 -3.41967
2905 1 -17.9474 22.0721 20.9207 -1.10363 -6.46665 1.18904
2921 1 -18.9114 20.9547 11.5968 -1.22977 -0.504191 -1.25303
2939 1 -11.3983 19.7346 3.30944 4.41456 -1.95126 -3.24461
2942 1 -22.7491 12.1061 21.5619 -0.723165 -2.88024 4.52728
2950 1 -19.2816 17.3999 6.42334 3.90064 0.409205 -1.90489
2971 1 -2.7565 19.2097 11.613 0.56179 2.62493 0.569074
2973 1 -11.5249 14.7183 20.5834 4.77334 2.01353 3.52867
1068 1 -5.52878 18.9815 1.655 -1.42988 -0.524407 2.93976
3530 1 -10.7262 14.7794 5.3283 1.73257 2.06974 -0.962917
3002 1 -21.6072 17.0069 17.685 0.366308 -0.716692 -4.83137
4225 1 -2.82262 43.4955 2.39438 -1.54285 -5.46704 4.85725
3619 1 -1.77855 20.2232 7.99115 0.670332 -2.26707 -3.11497
4185 1 -1.78914 34.5475 9.71881 -4.00356 2.07205 -0.811641
3042 1 -10.4482 20.4377 14.4689 -6.26495 -0.142198 -1.54741
3028 1 -14.6506 12.0227 20.1913 -4.77483 -0.237919 -4.49542
3076 1 -12.0948 20.5498 9.85529 3.88804 -0.565857 4.39117
3122 1 -13.2566 23.6512 21.6039 -2.26703 0.971208 -0.323172
395 1 -10.0375 46.6813 17.9892 0.461982 -1.00706 0.257491
3144 1 -3.42629 15.4532 2.84891 -0.354114 -2.83756 -4.90613
4234 1 -0.635324 46.5112 8.55125 -0.718601 -0.843292 -1.90286
4201 1 -2.84602 39.0467 2.6842 2.38564 2.86275 3.54172
3186 1 -4.75069 20.1099 8.06073 1.1013 0.981947 -0.795841
3193 1 -19.5243 25.8642 1.39857 0.297592 -1.38237 -1.98469
3211 1 -5.33894 19.429 14.0391 -1.12517 2.77665 2.41972
3214 1 -4.8366 16.8776 15.5421 1.01425 -2.00882 1.88526
3232 1 -21.5559 14.5154 6.39228 -0.880787 -4.15323 -2.543
3233 1 -4.23324 15.9018 8.57859 1.25145 -1.41438 6.23952
3245 1 -9.36274 19.5392 9.89833 0.86111 4.38817 4.8424
3286 1 -16.9145 20.3682 3.20185 -0.527618 2.59605 -4.86566
3290 1 -13.9282 19.2414 17.3207 2.01088 -1.40171 -2.86935
3292 1 -22.4368 21.7342 2.06177 -6.04455 -0.647858 -0.195093
410 1 -15.2891 12.6436 0.61608 -3.91572 -0.493521 -2.34371
3297 1 -18.1477 20.7819 23.1847 -1.91421 -1.73562 3.23857
3323 1 -3.48324 18.8108 17.2179 0.0843392 4.65886 3.70097
3325 1 -11.8715 16.7617 3.23197 -2.05054 0.612971 -2.35736
1094 1 -21.1458 14.114 22.7813 -1.60144 2.08484 1.30472
3356 1 -10.0709 21.1896 5.45315 3.03045 3.50867 3.3497
3358 1 -2.46255 19.7315 14.6035 -1.66962 1.88151 0.862217
3359 1 -6.09757 22.305 13.1583 -3.34118 -1.14802 -1.77081
3361 1 -5.21829 23.2076 10.8309 -3.48786 2.5874 0.850293
3382 1 -23.6882 13.2411 14.6767 -1.10569 -0.144216 2.90481
3428 1 -5.43233 12.8443 13.8857 -0.330504 -1.11448 2.60724
3444 1 -20.0081 13.0644 2.71241 -2.16509 -2.77215 0.507251
3454 1 -23.2403 21.4004 10.5118 5.62256 4.87188 0.304089
3455 1 -18.0505 13.6342 19.6046 -0.952742 -3.86061 5.3509
3459 1 -1.5394 20.7414 17.8022 1.16265 2.75418 -3.12889
4213 1 -2.71101 39.3774 5.44124 -0.0044395 0.0934186 -8.72332
350 1 -23.2385 17.0951 22.2301 -3.63138 -4.65493 -0.543582
3517 1 -6.62107 18.1043 17.412 -0.145897 -3.47631 0.0493664
4237 1 -2.18487 43.877 5.23869 -0.966959 3.59393 3.01676
1932 1 -3.11038 17.9102 6.78351 -1.21503 0.550451 1.62734
2864 1 -14.3971 12.2174 16.4402 6.32139 3.94271 -3.6496
3550 1 -16.4294 17.8474 9.4793 1.86966 -4.65173 -1.89973
3561 1 -21.4895 20.2626 4.3805 2.01243 4.67196 0.493019
3583 1 -17.2081 19.1301 7.16321 1.16118 -1.78136 1.82779
3597 1 -3.59408 13.623 7.11136 0.329606 -2.64738 -3.80968
2871 1 -16.1178 19.0782 23.6201 -1.53264 -1.28376 -0.270979
3627 1 -5.12751 18.1167 10.234 -1.79286 -0.515787 0.799011
2475 1 -19.032 12.2632 10.8037 0.560318 1.35143 -6.40371
3654 1 -18.8076 23.1207 13.4925 -3.88484 -3.8882 3.94605
3677 1 -7.92538 12.0297 15.3303 0.739852 3.03282 -1.73789
3709 1 -18.9482 16.2272 9.02636 6.83007 3.32616 4.94068
216 1 -18.1237 46.0954 6.82843 0.911572 -0.194762 0.500638
2811 1 -14.7749 13.3261 3.22612 -0.865254 1.43545 -1.38722
3744 1 -18.0181 18.1123 1.22393 -2.53069 -0.607578 -7.18174
3766 1 -12.6745 21.5455 12.7341 -0.480899 -0.0530077 -0.299786
3771 1 -16.9466 17.327 19.9707 -0.130289 1.31084 2.9462
337 1 -20.3554 22.3375 0.350475 3.8894 4.30328 -1.46519
3793 1 -14.7698 21.0566 1.35967 -0.752488 -1.53478 0.7107
3672 1 -14.6221 12.0579 12.7684 -2.07912 -0.969318 -1.21569
3846 1 -22.7875 22.9157 20.0325 0.197081 1.14529 3.65797
3852 1 -7.64856 20.2419 15.5846 1.60145 0.626425 2.73801
3889 1 -16.0082 15.1768 18.1773 5.26875 1.90294 -0.551965
3892 1 -14.4679 21.9889 6.65956 -1.99617 -1.81559 -4.10623
413 1 -23.0063 23.9891 3.35495 4.41227 -5.18394 5.02059
3946 1 -5.46149 15.441 11.3072 0.173498 4.05139 0.378989
3955 1 -8.38469 20.4914 12.5992 -0.517687 -7.03293 -3.49816
3966 1 -20.7833 20.5163 9.2779 1.01105 -2.42676 0.389636
3970 1 -7.33487 20.5569 23.6245 -0.344462 -2.54398 0.142523
3976 1 -4.82193 13.5241 4.4828 -2.1714 0.853342 -5.78917
3985 1 -12.5857 20.031 5.91783 0.0632855 -3.66916 1.9938
3988 1 -23.1085 20.2543 20.2555 3.73774 -2.58625 4.38914
3999 1 -7.0824 17.8718 12.6552 2.00799 -6.65288 8.56903
4009 1 -10.8411 25.7845 3.94214 1.73794 -0.913923 4.46876
4010 1 -9.19107 27.8331 2.68962 -3.50711 -2.65812 -1.6007
4011 1 -6.65242 27.3496 3.23861 2.73104 0.924306 -4.45999
4012 1 -4.76729 25.5957 1.8 7.52694 1.19152 -1.13044
4017 1 -8.98414 25.1901 10.8733 0.686496 0.686126 -4.74304
4018 1 -8.24717 27.8081 10.2276 -0.231241 -1.50254 1.72696
4019 1 -5.50182 28.0026 10.3399 -3.96672 4.28602 -5.61478
4020 1 -4.73802 25.5651 9.26285 0.0883459 -3.35883 6.28318
4021 1 -10.6055 25.9377 6.75926 0.139561 1.63039 -2.71845
4022 1 -8.69383 28.118 7.38137 -4.19558 3.24556 4.44322
4023 1 -6.25056 27.6251 5.99151 2.60562 0.14242 0.757977
4024 1 -5.76909 24.9094 6.54946 -6.52575 1.30966 0.0558886
4033 1 -10.4269 29.9265 3.48919 0.528337 -2.50355 0.861679
4034 1 -9.45631 32.2114 2.39751 1.05395 2.3379 -2.5329
4035 1 -6.69194 31.9959 3.08549 -2.01832 4.05478 1.75633
4036 1 -5.88971 29.7048 1.81301 -1.94446 -2.63629 -1.79543
4041 1 -9.81271 29.8965 11.0931 -0.670549 -0.810684 -0.438328
4042 1 -8.6149 31.9623 10.1529 0.931459 -1.19537 1.65251
4043 1 -5.90031 32.6068 10.7837 1.16476 -3.57626 2.98837
4044 1 -4.21438 30.4149 9.38541 -0.0605204 1.42743 2.97456
4045 1 -10.4785 30.2984 6.42367 3.65044 0.830985 4.41491
4046 1 -8.90941 32.2148 7.3557 -1.56631 2.57237 -3.262
4047 1 -6.34579 32.297 5.88302 -1.43769 6.92546 -5.51781
4048 1 -4.84303 30.0161 6.76414 -1.64488 -0.626374 -1.09374
4057 1 -10.4215 34.5587 3.64731 -6.46873 3.06026 0.190481
4058 1 -9.57404 36.8164 2.24798 -3.26661 1.02188 1.55269
4059 1 -6.89582 36.9664 3.20936 0.611592 4.30072 1.25096
4060 1 -5.92777 34.3882 2.0037 2.18455 -5.5455 1.91606
4065 1 -9.91088 34.2075 11.0154 -2.55291 2.52887 -2.63399
4066 1 -8.81369 36.5938 10.1316 7.05682 -0.798104 -4.39743
4067 1 -5.9899 36.6727 10.3033 1.85853 -1.16555 -6.38247
4068 1 -4.54107 34.436 9.36823 3.77806 0.564396 1.06875
4069 1 -9.8734 34.597 6.345 1.57998 0.805734 -0.642016
4070 1 -8.97303 36.9884 7.24691 -2.0848 2.68667 1.89565
4071 1 -6.62479 36.8122 6.01751 0.0132699 0.317745 5.93506
4072 1 -4.77385 34.6745 6.57609 4.0087 1.10518 1.80488
4081 1 -10.4504 39.4895 3.39592 3.31487 3.1391 -0.159086
4082 1 -9.66174 41.8841 2.02226 -0.697203 3.81568 0.0313688
4083 1 -6.87619 41.4726 2.87217 1.50629 -0.510731 0.0871277
4084 1 -5.43923 39.2802 1.88546 -4.22641 1.90269 -0.548799
4089 1 -9.75339 38.9536 10.9895 2.12154 -2.10511 1.58233
4090 1 -8.8067 41.2675 9.83776 1.93295 -3.57083 -0.695121
4091 1 -5.96368 41.4149 10.1628 1.35717 0.787103 3.74699
4092 1 -4.53902 38.9336 9.61884 2.16125 2.12995 -0.819307
4093 1 -10.1228 39.3936 6.2057 -2.27436 -4.44502 1.09183
4094 1 -8.6803 41.6098 7.05587 -2.77809 2.09432 -4.53896
4095 1 -6.43539 41.5778 5.6535 2.33067 0.302528 -0.338999
4096 1 -5.11106 39.1274 6.78532 3.69525 -3.70686 1.40871
4105 1 -10.7269 43.785 3.629 0.199703 -4.48406 3.89916
4106 1 -9.81369 46.2385 2.27854 2.57745 -4.01383 1.34821
4107 1 -7.00834 46.0725 2.83151 4.13868 -3.06074 1.03617
4108 1 -5.51352 43.7275 1.92364 1.77442 3.7867 -0.56107
4113 1 -10.1239 43.7217 10.3213 -3.29054 -4.19682 -2.26175
4214 1 -1.0577 41.5946 6.24488 4.53782 0.23612 -0.202327
4238 1 -0.908233 46.1105 5.85723 6.93873 1.0695 0.459288
4116 1 -4.69708 43.6211 9.17013 0.748132 -2.21025 -2.09087
4117 1 -10.4083 43.8339 6.61406 3.01781 -1.99243 0.740081
4118 1 -8.5369 45.8157 7.19943 -7.69329 1.36236 -0.0204611
3637 1 -3.48422 11.8391 23.1838 3.14812 6.94977 1.72245
4120 1 -4.84478 43.9725 6.30549 -3.27123 -0.925919 0.852895
4129 1 -2.69742 26.3109 3.55774 1.22817 -0.0276493 -2.12806
4130 1 -1.60001 27.8778 1.36155 -2.87668 2.06247 3.50956
4137 1 -2.2677 25.328 8.48195 -0.539542 -0.24334 -5.00078
4226 1 -1.7982 45.5956 1.01887 -0.347334 -4.22989 -6.40962
4141 1 -3.10034 24.8175 5.90328 -3.44424 3.82087 -2.15897
997 1 -23.798 21.9004 23.5675 -0.562894 3.72788 0.660152
4153 1 -2.99575 29.9839 2.55773 -0.0275005 -0.923005 -0.833008
4154 1 -1.77373 32.3161 1.4628 -4.20562 -2.5366 -2.81644
4161 1 -1.56209 30.0423 9.53039 -0.0681034 -2.53335 7.64199
3015 1 -3.61299 11.5437 9.35551 2.71413 4.43886 2.44635
4165 1 -2.65646 30.5621 5.08181 -3.85492 1.9396 0.137705
2701 1 -22.2763 26.2312 1.90765 -2.88121 -2.91923 1.12085
4177 1 -3.04376 34.6239 2.34361 1.75349 -0.411833 2.4777
1484 1 -6.77857 12.015 5.97812 4.09695 7.83253 3.76924
3928 1 -17.8864 14.8386 23.7325 5.04515 -3.3084 -0.262334
998 1 -1.65022 11.8076 11.3668 1.96194 -0.522298 0.197998
3831 1 -3.46408 21.1802 0.474034 -0.738734 -2.0693 0.0422477
3757 1 -0.721249 22.1061 0.646964 1.90131 1.78816 2.16161
867 1 -1.67625 13.3719 20.0505 -0.0259059 0.520511 -5.65303
2849 1 -21.6685 46.7849 14.1385 -1.10624 -3.92793 1.74109
3774 1 -10.0894 11.5095 3.97675 2.87215 -3.08325 1.62509
869 1 -1.45258 18.5072 4.11561 0.891089 -0.560994 -4.90893
3337 1 -16.129 12.4816 10.1488 0.260424 1.74667 -3.43089
2424 1 -23.1294 16.4064 7.93589 -3.00175 -4.1107 1.60143
1771 1 -0.508278 23.4732 9.55331 4.9938 -0.73702 0.569125
3815 1 -0.750542 19.0873 23.6035 -1.72717 -0.793367 3.50469
902 1 -10.0105 16.1392 0.915385 -2.31503 2.7451 -4.07465
911 1 -0.95089 15.759 23.6662 1.07376 3.59594 7.03025
4162 1 -0.552771 32.3652 8.51766 -0.301638 0.970768 2.23716
3527 1 -0.879794 13.7353 5.94971 4.38175 -8.73802 -0.831279
2691 1 -20.141 47.1336 19.4437 0.554649 -0.152853 1.17232
1864 1 -5.48436 11.5596 19.3835 -0.295628 -2.00224 1.17227
3581 1 -15.4574 11.677 5.23599 -1.38647 -0.434203 -5.40183
2011 1 -0.763898 12.4738 17.2886 -3.31226 3.36185 1.94068
2199 1 -17.9023 11.7001 1.09573 -0.142494 5.10032 5.74987
3334 1 -24.3995 21.4156 16.9717 -4.55416 -1.09901 -4.90272
3621 1 -9.74492 11.2917 10.993 3.41604 -3.38399 -3.51728
3056 1 -24.5286 12.751 11.9207 -0.923528 -0.976974 2.85314
3498 1 -18.3677 11.4609 6.2009 -3.61086 -2.7075 -0.382654
1128 1 -1.42556 11.9797 0.278502 -1.70614 -1.64549 -4.60914
2021 1 -5.6786 11.2835 11.4363 -0.389719 -5.51201 -3.47178
1075 1 -0.462314 11.3264 13.9338 1.01325 -0.074631 -3.66756
2458 1 -24.1641 25.1462 0.0111643 -1.77466 3.30237 1.36912
1377 1 -13.5719 20.1625 23.7328 -2.9992 4.38736 -2.19781
4 1 2.71427 -1.82101 -4.03255 -4.2589 1.05056 0.979204
12 1 20.0259 -6.32814 -23.1772 3.08351 -0.510929 4.94052
14 1 10.551 4.72524 -7.66316 -3.91161 -2.33188 -4.92285
30 1 22.608 -0.787419 -21.924 -2.83536 0.898063 0.571875
31 1 6.37866 -15.6686 -20.0105 1.06414 1.53172 -0.617029
33 1 1.64048 3.65237 -12.1614 -5.60411 -5.65492 -1.69257
3 1 5.1401 -8.34607 -22.478 -0.348389 -0.589961 -4.32258
41 1 6.81541 -5.47721 -12.0677 -3.60624 0.855504 -1.15252
48 1 7.66236 4.21407 -7.17755 0.360742 -1.52856 5.52226
52 1 15.4006 3.22158 -15.0871 1.6984 2.72102 -5.17446
58 1 2.57593 -19.2731 -4.33014 -6.3388 -1.63487 -0.310397
831 1 3.09432 -14.7053 -23.5517 1.32671 -1.92268 -0.515638
2351 1 17.0534 11.1772 -14.0464 -4.07467 -1.79229 -1.38991
2080 1 22.6854 -23.3593 -16.6766 -4.88175 -0.0670563 -0.0992637
3872 1 21.1056 -23.7906 -8.31545 4.67265 -3.11923 -3.10272
1026 1 1.6262 10.9109 -9.85015 -2.62715 -0.585303 -2.96234
95 1 5.71575 -2.14459 -11.4956 4.18544 -2.21403 -4.48425
99 1 15.2577 -22.3678 -6.27628 -1.97877 3.59873 -1.09965
101 1 0.128656 -19.963 -9.93498 3.12815 3.20014 0.229686
110 1 10.4341 -11.3844 -9.94581 -0.337302 1.61985 0.193696
111 1 19.5245 -4.06006 -13.2758 -4.13438 0.330836 -2.4691
116 1 4.5354 -17.2228 -17.821 7.54628 -5.36978 4.22112
118 1 3.45985 -17.5238 -11.92 0.665611 1.42751 -5.7067
657 1 2.80626 -2.43872 -13.351 -0.348236 -0.280111 -1.33925
229 1 12.0303 10.7221 -11.2967 3.66202 6.02831 -2.99702
131 1 2.75214 -7.18009 -21.1351 0.283015 -3.27431 5.08626
299 1 6.13565 -23.2688 -12.5103 0.569418 -2.93832 -1.41853
153 1 7.93045 -15.1727 -2.07964 -2.06961 -2.68287 0.549817
155 1 21.7903 -21.3688 -20.4037 3.88237 -2.44421 6.67752
157 1 12.8057 -14.7612 -12.8998 -2.03153 -0.403021 -1.83779
161 1 17.4073 1.50154 -14.2199 0.523921 0.0230143 0.695647
184 1 5.36687 -22.547 -21.3204 -1.74866 1.05635 -2.80924
2514 1 21.4747 10.1081 -21.9396 -4.4695 -1.19012 -3.00056
191 1 2.50819 -3.52763 -21.5384 -0.691201 -2.29702 2.91117
192 1 9.32324 6.41217 -3.35722 2.14075 -0.570847 -1.43167
195 1 9.10115 0.502296 -5.45028 -4.54848 -3.16746 1.9514
200 1 15.2422 7.12711 -16.6329 -1.40221 -0.578163 1.39644
3075 1 18.4545 8.07301 -23.9302 4.37921 -4.98104 0.278372
214 1 15.6318 -6.17872 -21.9797 1.56721 3.05115 1.69261
218 1 13.5301 5.10654 -3.43617 6.12339 -2.55341 2.62461
225 1 4.17307 -14.1623 -8.89646 4.57993 -5.32219 3.9713
4339 1 7.67513 -24.6477 -5.96879 4.62034 -0.484565 -1.99368
484 1 23.0725 -13.5883 -12.0753 3.36692 0.68483 -0.657422
254 1 7.44951 -12.1748 -10.1646 -3.41454 3.84825 3.57325
259 1 15.9368 -16.1372 -17.3235 1.73775 1.64108 1.486
260 1 14.6005 7.57119 -2.76263 3.87855 -4.15073 1.31076
265 1 12.7077 -17.4019 -5.75679 -3.36999 -3.43695 4.29336
3806 1 0.936025 2.11398 -3.55769 -0.876249 -1.56393 -5.82569
276 1 22.0351 6.224 -8.60684 -5.50578 2.41964 0.66703
277 1 13.434 -13.6141 -19.4688 -5.51422 0.693357 2.46179
287 1 4.38849 -8.81996 -9.53341 -2.33236 4.9483 -4.18335
297 1 20.1751 -8.34674 -6.57938 -3.25695 4.836 -1.83874
298 1 14.6687 -21.9007 -20.5605 2.31427 -1.44398 2.79205
1215 1 4.01916 10.4533 -6.61456 3.14813 2.19656 -0.246304
1306 1 5.4823 -20.7486 -0.647829 0.215528 -1.59925 2.09508
332 1 11.5326 -1.12339 -9.26077 1.09502 -0.124241 0.196975
333 1 9.74146 -8.22985 -14.3598 4.56876 -1.036 -0.125368
334 1 4.65904 -22.8035 -3.94001 -3.56445 -0.879557 -5.2143
344 1 8.65363 -14.593 -11.7327 0.83439 5.31404 0.494684
1012 1 -0.210815 4.04491 -1.61337 -3.52254 2.96997 -1.96155
369 1 12.2571 6.45595 -12.982 -6.83355 -2.40191 -3.21615
370 1 7.34751 -13.2659 -22.7178 -4.44433 -0.286174 -3.91173
378 1 16.8077 -14.7323 -3.17683 -0.59682 -1.41388 -4.45432
386 1 17.7108 -2.68695 -22.126 0.812153 -2.95431 -6.8336
401 1 21.0662 -16.4742 -5.71731 -2.47459 -0.617456 1.33016
1411 1 19.3403 1.32724 -23.0432 -2.00038 -5.61315 -2.26341
409 1 2.42644 -0.737821 -6.76414 3.9115 0.329967 -0.372745
329 1 1.16708 1.59008 -8.1123 2.10077 -1.64282 -2.23526
424 1 4.16912 -4.03826 -2.27763 2.21842 -2.38222 7.3067
431 1 11.6296 -6.82065 -16.3432 1.11829 3.02062 -4.71695
441 1 19.1063 2.53335 -3.56025 -2.26166 2.63808 4.09287
445 1 17.105 -10.1762 -9.75424 0.318187 2.49366 -4.88896
446 1 21.5858 -13.591 -6.08902 -3.26047 0.177299 -8.1581
449 1 14.0703 -2.2988 -0.80246 -0.613893 2.20441 -1.8095
853 1 13.1185 9.50355 -14.6034 0.128923 2.05792 -1.96325
459 1 2.08779 6.73314 -12.5921 5.84866 -6.62094 3.99905
1043 1 18.5343 10.5119 -7.73626 4.8864 5.45973 -5.99178
461 1 1.74036 1.74069 -21.1058 -1.1458 -0.290698 -3.54252
1395 1 1.17586 11.024 -6.86029 0.0317105 2.99402 -0.499226
474 1 3.99599 -4.89037 -12.1799 -1.00485 0.813524 -0.961191
3691 1 19.1494 -24.4817 -6.1707 -0.719281 1.50098 1.21871
2069 1 22.8691 -21.2729 -10.4684 -2.30037 -1.68408 -1.5956
485 1 20.5805 -22.1451 -17.8422 0.213188 0.76771 -1.74379
486 1 16.3817 3.53207 -3.07192 -3.9777 2.15791 4.08297
490 1 15.1677 -16.0645 -11.8355 -1.52772 3.07646 -1.45774
493 1 14.186 -1.06411 -13.7283 -6.44462 -1.01254 2.78875
496 1 4.82364 7.97128 -13.7475 0.149448 -1.01013 -2.38842
677 1 23.3747 -10.4645 -12.6376 0.254262 -0.691346 -2.08168
503 1 8.47178 1.5338 -13.6389 0.557708 -3.62176 3.23022
516 1 7.87242 -22.0786 -1.55304 -3.39861 -2.01811 -0.576791
534 1 19.0104 8.5535 -11.7318 2.56846 -2.64589 -1.27576
1695 1 18.3033 -23.7231 -11.6506 -0.878461 2.05433 0.27644
2473 1 14.6764 10.1588 -6.58893 -1.59291 3.45979 -2.53219
543 1 18.795 -17.1429 -17.5006 -2.80557 -4.12329 2.55822
547 1 16.1853 -16.7505 -21.4093 -2.74674 -1.09006 -2.62165
550 1 -0.171262 -22.4586 -14.398 -1.48404 1.34823 0.975848
551 1 10.6481 4.83022 -16.7295 5.81302 1.10367 -1.47435
2127 1 23.012 -9.83782 -23.5294 -5.12103 2.62025 1.86637
2065 1 15.4408 -18.7306 -23.5884 2.55698 1.8848 -3.70629
1791 1 2.46738 -6.34225 -18.4596 2.84319 -0.0916063 4.20735
562 1 6.91515 7.29564 -20.2541 1.91776 0.907874 0.326314
574 1 13.0503 -21.4767 -4.50875 1.55056 0.66253 1.7285
579 1 2.49574 -20.1346 -11.2995 -2.94072 -1.1006 4.60215
584 1 15.368 4.9267 -5.68987 -4.03515 -1.77719 0.875252
1154 1 1.23846 9.08262 -21.8047 1.49544 0.01698 -5.61971
606 1 1.61146 -0.958311 -22.4216 -1.56983 0.401445 -2.59936
608 1 4.30501 9.65075 -9.20391 0.717919 1.03965 -0.904103
613 1 12.0341 6.99811 -20.5308 -3.41067 0.17926 1.09282
620 1 21.7826 -11.9505 -8.36229 -1.39027 -3.32629 0.547554
124 1 23.6559 -19.9943 -14.5782 2.15388 -1.52333 2.8265
1607 1 11.8418 -24.2422 -14.5392 1.22448 -2.85416 -1.86485
647 1 4.75612 3.74396 -1.80934 0.978941 -3.28014 0.503029
648 1 20.4723 -15.9631 -21.895 -1.20422 1.52901 3.97071
1049 1 22.4799 -0.367359 -11.8352 -2.27233 -2.44229 0.815555
670 1 0.362338 -15.4609 -1.17663 3.45786 -0.694943 3.77083
2004 1 0.58652 -22.6403 -22.6448 -1.95458 -2.82563 6.35763
684 1 10.9745 -21.4236 -11.127 1.43731 3.39602 -0.0511303
695 1 7.68275 -10.9592 -7.59767 1.75741 -1.95488 -2.32589
698 1 21.8703 -11.7177 -3.71154 4.01805 0.293083 1.01305
732 1 13.6863 -24.5299 -7.57383 -0.70551 -4.00311 4.41862
708 1 10.9296 -4.85337 -20.1666 1.08301 -1.86991 2.734
714 1 18.0926 -7.48039 -10.0891 0.472261 0.78724 -0.449367
720 1 4.13387 -4.06186 -18.8818 -0.715917 -0.887137 -0.882445
136 1 1.14797 6.26287 -4.27066 0.544696 2.10183 2.6233
727 1 9.74135 -3.10676 -14.604 4.35114 -6.39428 1.38989
730 1 13.6745 -19.1523 -17.0911 0.119862 -1.52118 2.72756
2799 1 0.0271095 -15.5305 -7.13417 -0.823726 4.0706 -0.661414
744 1 8.45861 -10.5808 -12.7728 -0.95667 -0.576259 2.30156
750 1 18.5859 -4.56928 -10.5528 -0.412161 3.09705 -1.68649
755 1 11.7909 9.32209 -22.2419 -3.44169 0.89542 -0.980027
775 1 21.9528 -18.9457 -11.834 -3.87005 -5.37369 -1.42718
777 1 21.9687 -7.64111 -13.001 -4.42958 -2.94465 0.271933
778 1 2.64134 -16.4266 -19.7102 -0.271147 4.1517 5.47319
779 1 7.94715 2.69996 -9.43015 -3.05608 -0.815475 -1.0129
782 1 19.2016 -8.42088 -12.56 2.7883 -1.269 0.67031
803 1 19.2906 -10.708 -7.94054 -0.00677179 -3.77017 3.47621
804 1 7.65567 -19.1518 -11.3046 1.81757 -3.74746 -1.66744
812 1 5.13147 -13.0599 -11.6546 3.1054 1.40583 -4.84359
824 1 3.48683 -19.1455 -7.16382 -1.17925 5.85645 -3.18897
1186 1 6.8022 -7.45693 -0.721291 1.26073 -2.3512 0.843699
835 1 2.35077 7.11152 -20.0672 0.853041 1.4494 -1.16264
844 1 17.1119 -20.9823 -19.3918 -3.31141 2.09896 -2.54689
845 1 19.0186 9.75512 -2.5006 -3.54472 5.1663 -1.3424
846 1 9.11165 10.3101 -10.8473 -0.0137086 -0.698008 0.776156
849 1 21.2612 -14.4308 -9.8228 -0.425758 -2.25538 -0.240713
2964 1 0.264581 -20.394 -20.7794 -5.93999 -3.34905 2.05009
1728 1 22.8539 -5.79145 -20.0986 1.9195 -1.00556 0.0683983
2813 1 -0.155255 -9.1953 -19.1518 3.87985 -2.60096 -0.0174544
860 1 14.4297 -7.16723 -16.1374 -0.851275 -0.483174 -2.88319
871 1 6.18596 10.3683 -17.5561 -4.78897 4.31135 -0.785734
876 1 12.1027 -16.2712 -8.52479 4.036 4.84232 -0.892622
879 1 15.5502 6.875 -20.7386 2.14144 0.0693302 -2.70628
884 1 19.2388 -19.9725 -16.375 -0.637988 0.057277 -1.80735
892 1 5.01747 -12.085 -7.02301 3.84977 0.649137 3.1243
2469 1 12.5917 -23.0496 -22.693 0.146398 3.29506 1.969
915 1 17.0296 -5.37482 -14.146 -2.25888 -1.84248 -4.28749
2569 1 20.2062 -18.0521 -14.124 -1.43628 0.228305 1.35045
921 1 9.65873 -9.62609 -20.573 7.1489 -0.880734 -3.67824
931 1 17.0928 -1.50277 -8.4742 -1.47367 3.71596 -2.01195
1689 1 2.54471 -24.5719 -1.50983 -6.60975 -6.02409 0.0514282
940 1 21.0157 1.39816 -9.55936 4.67767 0.265199 -2.67547
952 1 11.3397 -14.1516 -10.3958 -1.04762 -0.112561 4.32801
954 1 15.9795 9.37943 -9.01167 -3.63163 0.955603 2.17832
964 1 12.0424 -15.7341 -20.8282 -1.34065 -0.820352 3.66027
967 1 18.6753 -3.02829 -16.2041 2.96343 0.442326 2.88694
981 1 7.59092 -0.846104 -3.1472 0.632155 -2.59537 2.2898
989 1 10.2253 1.4999 -8.0617 -2.60857 -1.05052 -0.356093
1418 1 16.1844 -5.5594 -0.169653 3.61589 -0.0948168 1.11042
3648 1 22.5518 -21.712 -1.2094 -1.00816 -3.31624 -1.37832
3587 1 22.946 -14.2714 -14.8719 -1.92049 4.22591 1.31324
2161 1 0.0267433 10.9196 -4.1683 -3.97672 -4.42058 1.35083
1021 1 19.5958 -18.0306 -3.40481 -0.473113 -1.21239 3.13351
1025 1 5.62363 4.9773 -20.7238 -4.6699 3.76795 -0.230475
700 1 2.04486 6.62784 -23.3523 2.35251 4.26727 -0.138506
1040 1 6.23627 -2.36842 -23.2621 -1.48688 -1.46452 1.26053
767 1 1.30617 -11.6599 -0.503397 -4.41812 2.05262 5.04229
1053 1 4.61847 8.42844 -18.9821 2.79654 4.9072 1.13197
1058 1 2.06087 -2.09399 -10.5453 8.12336 -4.66339 4.67728
1182 1 18.8744 7.86079 -0.206878 5.1364 0.694723 -2.2195
1061 1 7.93328 9.72245 -13.52 -0.210689 3.49049 0.357408
1066 1 13.1733 -4.15948 -22.034 0.338982 0.846361 0.887594
1072 1 14.1044 8.32821 -18.9204 7.20138 -1.95196 -1.91358
3918 1 10.8879 11.1062 -16.5696 -2.95199 -5.45259 1.97635
1059 1 4.06582 -24.0285 -14.7379 1.63875 -4.3104 -0.71974
1077 1 16.0514 -9.32224 -5.76402 1.68744 0.565728 1.29001
1087 1 10.3894 -0.0488566 -20.1018 0.965424 -4.07211 2.01171
1738 1 3.51731 10.3049 -23.1272 -2.81253 1.55473 -0.66036
1118 1 20.3739 -1.30034 -13.421 5.01686 -0.208123 -1.19457
1121 1 12.1908 -4.33873 -17.8266 -2.56767 -1.94997 5.64626
1123 1 15.2848 -4.74788 -3.90758 0.117767 1.37927 -1.23424
1131 1 19.1203 -5.91723 -3.69251 -6.87231 0.634231 -5.41105
1140 1 15.722 -8.04527 -18.6884 7.47364 2.43436 -3.83439
1143 1 1.889 -6.84145 -15.5385 4.63976 -1.45432 -3.32904
1144 1 14.3125 4.32183 -12.803 0.0394961 4.29505 0.129312
77 1 12.5558 -23.7132 -0.980316 1.58348 4.44448 3.97506
1157 1 3.65415 3.16101 -8.08055 6.01197 -3.95715 -5.28327
2236 1 23.3445 3.41097 -15.8503 2.56083 0.471828 -4.50174
1936 1 19.8205 -21.3515 -24.1697 3.69018 5.7632 -4.31047
1177 1 10.5576 2.67541 -18.6562 3.04199 1.54277 -4.02543
1179 1 9.62846 -6.66638 -10.3191 -3.9117 -4.63253 -2.45067
1183 1 5.54937 -7.15143 -15.8591 1.09866 2.13951 -2.09122
1190 1 14.7908 -1.498 -21.413 -0.487708 -3.243 -4.53554
1195 1 13.4383 -13.0109 -15.0801 0.159713 4.81197 -0.712045
1206 1 20.7658 -19.0316 -22.128 3.2639 -0.456843 -4.68145
1207 1 15.8067 -2.47136 -17.0431 0.229285 4.74417 -1.22408
1212 1 19.4214 5.47755 -12.5204 -2.62867 3.15849 -2.9767
1214 1 11.3213 2.59049 -1.64651 6.4056 -3.08842 1.27225
2496 1 3.22987 2.59948 -23.7694 -0.250916 -7.32495 -2.11309
1216 1 15.3287 -8.21621 -8.80388 -0.622692 -2.00487 -4.16578
1218 1 15.4417 -3.17447 -10.161 -1.29958 -1.25853 2.79764
2616 1 23.6637 -2.83922 -10.6052 1.2532 1.54833 -1.15064
1238 1 7.81681 0.150315 -11.0532 2.96598 -3.47484 -0.838679
1242 1 9.22763 -20.2593 -15.0857 2.22526 0.0128293 1.16926
1256 1 3.94487 -20.0399 -17.6373 3.02592 2.88726 -0.702895
1260 1 3.75964 -7.60842 -13.5485 -4.02344 -1.69122 -2.18887
1261 1 15.3264 -12.3351 -8.85864 -1.1336 3.91706 4.03192
1262 1 10.9768 -15.107 -5.20888 1.92567 -2.40683 1.14211
1278 1 15.809 -9.07665 -22.5465 -2.61605 3.74972 -0.250512
1280 1 0.478218 -3.82429 -4.61284 -0.805068 1.18226 -1.47833
1282 1 10.3089 -21.3171 -3.14182 -3.80475 1.06827 3.28093
1283 1 4.29148 -20.9775 -9.31862 -3.2092 -0.621899 1.60448
1288 1 4.70607 -1.48636 -15.3754 -0.609922 4.66018 0.33598
683 1 1.07072 11.0301 -19.7383 3.16348 0.386157 -2.49926
1294 1 12.8543 -13.0299 -5.78322 -1.16471 -0.722959 0.0950163
2713 1 23.2752 1.37063 -7.48636 4.7706 0.126619 -1.61473
1298 1 2.74058 -6.29761 -2.63105 -1.82498 -0.89888 2.00384
1300 1 3.33795 0.604169 -2.89304 -1.74813 -0.626758 4.40673
1304 1 4.00981 1.54276 -5.73947 -0.740017 3.61971 -3.61815
3481 1 3.33533 -22.4397 -23.3555 -1.0022 -0.683922 -0.0679785
1316 1 18.6246 -7.54584 -15.2283 2.74787 2.04417 -0.994128
1320 1 19.667 -6.35404 -8.25374 0.997122 -0.80374 0.620289
1321 1 10.2704 -22.6527 -7.41052 -1.98009 -4.59443 -3.77606
1322 1 1.67495 -13.1228 -7.8539 1.3299 0.998994 -0.101018
2814 1 22.122 -3.95089 -3.92599 1.38405 1.29524 -1.24283
1334 1 13.1086 -10.2336 -9.49865 -2.96965 -3.19921 2.01125
1338 1 2.58679 4.99227 -0.640197 -0.53825 1.2923 0.641246
1453 1 0.00282722 -21.3999 -7.38409 -2.64606 -2.00701 6.60477
1346 1 16.9246 -1.41381 -14.3844 -0.694397 -2.3876 -2.48552
834 1 0.512851 10.3737 -1.20433 -1.53218 -5.29873 -0.369734
1364 1 13.6121 -12.224 -11.4443 -4.09617 -4.32416 -1.69707
1365 1 7.43242 -5.91732 -21.0319 -1.23587 -0.240174 -1.01232
1369 1 21.7706 2.47426 -5.13186 -3.56422 3.11902 1.02564
3934 1 21.4837 3.55007 -13.5343 4.36612 -0.874256 0.882646
134 1 18.6949 -8.77503 -23.9615 1.31442 1.10113 -1.10715
1727 1 23.0113 -2.80556 -19.8577 2.60516 1.38262 0.655369
3053 1 19.9687 -20.9322 -1.08081 -1.04003 1.98302 -0.801809
1329 1 22.7868 -13.5328 -1.14677 1.44447 4.80801 -3.88545
94 1 23.1266 2.44187 -11.3393 2.1995 -2.78571 1.04643
672 1 22.5551 6.3201 -11.7033 2.73254 -0.177295 0.0563301
1427 1 18.1035 -12.6219 -1.62168 -4.07319 2.91288 -2.00454
1446 1 2.12178 -7.49688 -10.9477 2.08654 -2.40739 -2.58214
1447 1 20.5908 -4.07252 -19.543 0.588218 1.95925 5.22357
1454 1 8.21219 -11.6727 -1.09337 1.87688 -3.75448 -4.69689
2832 1 22.6264 -18.9678 -5.73633 5.97685 2.0326 -2.90312
1473 1 13.7934 -20.1419 -14.3659 -1.4696 -1.86916 -5.72234
917 1 23.0985 4.06939 -20.6354 1.24407 -0.130824 -0.485548
1483 1 10.1581 -21.4569 -18.7824 -1.89737 0.698957 0.00600533
1491 1 13.4422 9.7175 -3.92922 2.07465 4.16973 -0.169172
1497 1 13.2083 -8.61196 -20.2127 -4.58677 -2.12386 1.3856
3835 1 20.2411 -24.1445 -3.38787 -0.132337 -8.50329 -0.420307
1508 1 18.8335 -11.7451 -4.32588 -0.0852756 -0.497465 -2.08297
188 1 6.88536 -24.2273 -3.32552 -3.64153 1.64019 1.24353
1520 1 10.8836 3.06835 -14.4704 3.83276 6.59907 -2.35107
1527 1 2.01768 1.00027 -10.8715 -0.983249 1.23289 -0.205091
1532 1 18.7854 -5.84557 -17.6068 -2.79053 -1.08285 -2.74858
1539 1 1.5693 7.93416 -15.3611 2.27751 -3.09743 3.61302
1541 1 6.65785 -19.5463 -8.74452 2.39008 -1.66997 2.60584
1547 1 13.1525 0.398195 -1.27689 -2.46778 -2.02278 -2.44087
996 1 20.6961 10.5578 -17.5795 2.45286 -7.53011 -0.34847
3618 1 0.366633 -10.2907 -9.62216 -0.564699 -2.92203 -2.38189
1551 1 11.3335 0.431282 -3.7603 1.00451 1.75888 -3.4378
1552 1 18.6982 8.884 -18.7846 -2.05711 3.20415 -4.75377
1556 1 19.6359 -17.331 -8.0437 1.47078 2.4689 -1.72607
1557 1 8.16325 -22.2934 -16.7252 -1.85574 -0.19937 2.65134
1605 1 0.999181 -0.0285565 -13.4316 -0.0697733 -0.113831 -3.04253
1389 1 22.2218 -3.48685 -1.04706 -2.71674 3.45039 -5.6003
1567 1 1.46089 -9.93283 -21.114 1.31361 -0.346676 0.0172168
1578 1 16.4831 2.48955 -11.5162 -6.53164 -2.99093 -3.21401
1583 1 10.2609 -1.82841 -2.70419 1.14927 -2.50764 -4.68525
1587 1 19.7186 -2.71936 -8.19066 -0.690752 5.95464 -3.88918
1590 1 20.3028 7.80306 -14.4203 -1.91027 -0.794696 -1.14801
1594 1 9.59619 6.66334 -0.504302 0.717264 0.82481 -1.0467
1600 1 15.9719 -15.5022 -14.4938 0.38791 0.277971 2.97784
1603 1 6.87155 -8.0111 -13.4465 -4.11516 -0.0205734 -5.22007
1604 1 20.501 -13.8779 -16.4989 0.406983 -0.592749 1.04496
3849 1 15.9053 11.0751 -23.4003 3.98815 2.12435 0.491423
3303 1 22.3563 -22.3491 -13.8013 2.08376 -0.726817 -4.22402
1616 1 16.092 -12.1433 -15.8686 -0.748457 1.81295 -4.05174
1620 1 13.1149 -10.1532 -6.59614 0.391572 -1.27292 4.72726
3937 1 14.1011 -17.426 -19.5042 3.68213 3.78701 2.20181
1635 1 6.23894 -16.6378 -11.3552 -2.4586 5.1987 1.06005
1638 1 14.4422 -3.68234 -19.3685 -1.17185 -0.911223 2.51695
1650 1 11.1443 -3.34664 -11.2902 -3.35183 -2.75209 -2.694
3031 1 22.8631 -9.43662 -20.5767 3.38658 -1.51131 5.06656
1652 1 12.7362 4.53588 -18.8453 2.70134 -3.66535 1.73884
1657 1 16.4961 9.90172 -11.7075 -1.02846 -5.29422 -0.139211
1660 1 2.3379 -12.2212 -22.7426 0.680634 7.10691 -2.58571
1664 1 3.33349 -10.4545 -16.0386 -0.955602 -6.7472 -0.619142
1666 1 16.7053 -5.05902 -19.5997 -0.168997 -3.0618 1.56913
1669 1 14.9179 -22.1156 -12.2024 3.9446 -2.70292 0.849634
1674 1 5.50875 -2.99361 -7.23351 -0.674027 -0.133243 -1.0852
1687 1 19.0382 -16.3992 -10.8477 0.340386 0.787353 -2.79093
1970 1 22.9312 -6.49257 -1.46457 -2.88014 0.116593 0.398932
1410 1 -0.0286497 -17.358 -16.4649 -1.01075 -6.75496 -0.0231568
1700 1 13.8846 -3.62523 -12.453 0.86564 5.40983 1.26763
1703 1 4.84265 5.6412 -12.0492 0.832277 -3.49244 -1.09222
1706 1 8.49069 10.7366 -20.7506 1.78802 -3.50122 0.0422847
1714 1 4.8911 0.780625 -11.0346 -2.4689 0.32298 1.41393
3921 1 18.4188 7.08918 -16.5925 -0.882499 3.55449 -0.789323
1717 1 10.2541 -16.4709 -0.724763 -4.18315 -1.76558 -1.73281
1718 1 6.83271 -20.8167 -13.5735 -2.28911 3.14136 0.982202
1976 1 19.3509 -10.607 -22.1154 -2.55677 1.11921 1.91735
1731 1 22.4558 5.36537 -4.10393 0.811689 2.28112 1.30438
3066 1 22.4034 -0.340088 -0.680218 -2.93297 -0.297823 0.809763
1747 1 4.97392 -17.0544 -8.68298 0.480184 -6.11799 5.0401
1748 1 17.1905 -0.951891 -3.63982 -4.85587 -4.28401 -2.87475
451 1 22.8345 -12.2761 -18.1833 -0.223124 3.52592 -1.72912
1757 1 16.8178 -12.1289 -6.5165 -1.43168 -4.65898 2.11621
1761 1 21.6792 -18.5229 -19.4557 -3.75062 -5.97631 3.65705
1765 1 4.27436 -15.7839 -3.96584 1.2633 3.14867 4.70829
1779 1 6.50783 5.19527 -3.7038 -0.183008 -0.356219 3.32703
1780 1 6.88051 7.97167 -4.22181 -0.81424 0.435795 3.05977
1783 1 18.1348 6.25813 -5.82009 -1.28573 -0.606918 2.37218
1229 1 18.3368 -15.4614 -0.541831 2.09407 2.74449 0.305897
1790 1 8.24588 4.3317 -12.9047 1.81464 0.636471 2.85411
471 1 23.6938 -8.49378 -10.36 2.47595 2.31268 -1.51036
3319 1 0.318289 2.39294 -16.8517 -2.33794 -3.66085 4.97856
1794 1 17.0899 4.6466 -19.9205 2.00425 -1.85818 5.69389
1795 1 15.5413 -0.210647 -10.961 3.32507 3.04598 -1.43587
1798 1 19.072 -6.52752 -20.589 2.08634 1.50815 -0.7653
1805 1 11.6715 6.58666 -5.41523 -1.10821 1.85679 0.304658
3504 1 16.5687 -0.348227 -0.649696 0.0972787 4.10438 0.213833
1814 1 11.7075 3.32394 -11.758 -6.18782 1.84578 1.89983
1822 1 16.4071 -3.23389 -1.85453 0.0781211 0.710359 -1.34681
1825 1 8.58438 -9.98429 -5.07388 3.79525 -3.37617 1.52423
1827 1 15.5365 -21.8775 -3.17968 -0.418444 -2.36693 -2.40598
1831 1 12.1623 -16.1135 -2.91673 1.37442 -3.33371 -4.59348
1834 1 6.67774 -8.43269 -19.9339 2.88185 -3.57805 -0.0847613
1841 1 6.75104 -22.913 -9.66412 -2.99713 1.84882 -2.09788
1843 1 6.28319 -3.19715 -20.2311 1.98003 2.14372 -3.94927
1848 1 7.10294 8.07827 -15.764 -0.197487 -0.311831 4.41852
2192 1 0.420108 2.00684 -23.9402 4.35848 2.56823 -5.55461
1850 1 16.3238 -19.9109 -7.66922 -2.07207 2.4194 -3.14586
1171 1 23.3254 -3.10158 -6.38041 3.47305 -0.410808 -1.93228
1856 1 9.01262 -2.675 -19.5811 1.99375 3.00821 0.252969
1858 1 2.53583 -16.0316 -16.0119 1.02644 4.80573 -5.13547
1859 1 8.63848 -15.1215 -15.3715 3.2528 -1.98623 -3.05537
1867 1 4.98154 -8.22608 -2.85137 -3.56958 5.14209 -1.06967
560 1 22.4018 -22.4265 -4.20251 -1.99516 4.71586 2.99875
3904 1 10.5441 -7.24923 -7.51598 -2.32778 -1.75801 -0.529808
1902 1 20.3095 0.413232 -20.493 5.13667 1.99902 1.21128
1129 1 0.104897 -9.14921 -23.4971 1.89286 2.77836 1.38625
1911 1 21.5369 -0.790696 -7.20044 -0.741681 -2.7344 -3.13762
1915 1 19.764 -21.5457 -14.0374 -0.347038 3.49624 2.19326
1923 1 12.6648 0.361008 -11.6619 0.217968 4.12486 -0.795037
3917 1 2.59183 -4.95746 -9.80222 0.576332 -0.689522 2.67115
1926 1 13.1346 -2.19968 -5.5182 -3.78377 0.123943 -0.513428
1934 1 1.63538 -10.8211 -3.22144 -0.344276 -5.92869 5.51459
1946 1 10.8341 10.1225 -6.5661 -1.61027 0.325194 -0.815444
1948 1 13.1445 1.42317 -15.0821 -1.57472 -3.20426 8.7859
1952 1 6.04076 -14.6773 -13.6505 -4.93598 1.02945 -5.39572
1953 1 15.2751 -19.1282 -2.15545 -2.07192 -3.58689 -2.38899
1875 1 22.338 -4.77149 -13.7199 4.36611 2.33923 -2.73084
1961 1 15.163 -12.3335 -3.94718 -3.50233 0.0729914 -3.76956
405 1 2.96375 -23.9835 -5.90815 1.09036 2.67933 -0.048952
1647 1 16.4323 10.5032 -18.821 2.45239 -0.37579 0.735491
1975 1 10.2124 -16.2734 -17.7074 4.14081 -5.5059 1.74264
2213 1 19.3208 11.0909 -5.11329 -8.80978 1.12586 -3.83153
1983 1 18.0938 -4.6397 -6.43127 1.61452 3.23262 0.526514
81 1 0.536836 -9.55829 -16.4386 -1.90833 0.962508 -3.7245
1990 1 18.7076 -14.3746 -5.60829 0.0198445 -3.48204 -5.47867
2000 1 3.08419 4.5398 -21.5018 3.76904 2.65208 -0.819565
2003 1 12.2511 -5.50547 -9.31018 1.92251 -2.05623 -4.29628
2132 1 11.4128 -20.6451 -23.3574 -2.02099 0.0369607 2.07947
2006 1 10.3245 -10.0902 -7.62591 3.22275 2.32117 -3.11186
2020 1 10.1117 -12.9497 -13.8558 0.839666 5.05012 0.986159
3112 1 0.0560489 -12.7879 -20.6478 4.5857 2.95133 -2.00653
2029 1 16.4018 -7.31824 -2.77763 -0.512027 -0.159803 -2.30917
2030 1 9.44843 -18.6945 -22.8038 2.10084 -2.78908 -0.974808
2190 1 1.20307 4.55703 -9.36223 -2.82771 -2.63679 -3.63219
2045 1 7.66683 -17.8658 -15.2914 1.26614 1.40627 2.7437
2054 1 13.6998 4.00186 -0.670078 -1.10249 -0.680124 1.01814
2058 1 21.2144 10.553 -14.9449 -4.62867 0.765872 1.93673
3951 1 5.70906 3.84231 -14.1803 -5.05736 -1.65936 3.75236
1693 1 21.3492 7.76162 -23.7425 0.301475 2.64815 0.0995852
557 1 9.40405 -23.4649 -9.82641 -2.90072 3.91411 -3.54911
2079 1 9.72232 -12.8932 -16.6359 1.69191 2.46786 -2.3862
2083 1 20.4076 8.45152 -9.12708 -3.7504 2.00863 4.82803
2102 1 6.93008 7.27273 -7.04669 3.9807 -1.06 0.700211
2103 1 9.3662 -17.3716 -12.9306 0.946454 4.0682 -1.65167
2105 1 13.979 8.65914 -12.0976 -2.77019 -1.48131 6.37752
2115 1 16.9805 -14.1947 -10.2074 -2.67682 2.80205 -0.618109
2122 1 13.8562 7.23163 -9.49348 -3.18173 -2.47681 -2.37206
2123 1 21.1198 -7.97936 -18.9861 -1.61015 1.85339 0.669566
2124 1 20.7595 -1.28314 -18.0055 0.355245 3.10344 1.14429
2126 1 11.237 -6.27788 -3.34766 -1.16941 -0.151819 -0.807683
92 1 15.5349 -23.1334 -0.600609 4.76485 -2.82561 0.657937
2131 1 19.9653 -6.39689 -0.888868 2.21904 -7.8557 1.46373
3833 1 18.3744 0.560616 -10.2258 2.20177 -0.249316 -1.10531
2143 1 18.7003 2.77171 -16.3833 -3.81163 -6.64975 -1.33009
2149 1 19.4042 -3.02167 -4.32473 -0.0263204 1.76839 2.21993
2151 1 7.41372 7.19051 -12.2727 0.551306 -3.71599 -0.0510163
3990 1 10.9659 4.11835 -22.7383 -6.06512 -1.15014 1.02233
2162 1 21.6261 9.68247 -5.70034 -3.88646 0.831181 1.21289
2164 1 16.3669 3.03626 -7.55742 0.552334 0.99041 -1.00981
2169 1 10.0191 -7.22208 -22.1086 -0.720429 -1.31593 0.774282
2173 1 20.3023 1.26692 -14.5499 -3.9369 0.336415 1.24402
2174 1 4.24176 8.80861 -3.07779 -3.2259 2.82406 1.5243
2178 1 17.2507 -15.6014 -7.68091 -0.861386 -0.482511 -1.89613
2180 1 13.3601 -7.6204 -10.9633 2.20371 3.23618 4.28813
2186 1 4.27016 -8.5182 -18.0338 3.35925 3.79981 -7.3525
2193 1 18.8071 -15.6516 -15.0394 1.34876 -3.09092 -0.517317
2201 1 13.4309 -11.4803 -21.0177 1.00203 -0.370572 -6.1977
2202 1 16.6677 -19.3705 -17.3204 -5.91105 2.90899 -0.726775
2203 1 6.54268 -1.93687 -0.690058 -0.0611846 -3.03962 -4.56805
2204 1 4.33545 -0.414976 -0.265653 -3.77624 -4.43042 1.548
2210 1 19.6177 -18.0715 -0.58471 0.405733 -0.721962 -3.62188
1962 1 0.743975 -12.6634 -5.14869 -0.66095 1.01485 1.96083
2216 1 2.40462 2.03729 -14.685 -2.26693 0.251641 -5.18892
2225 1 1.2979 -18.0815 -21.6708 -2.55865 -2.47664 1.08887
2227 1 8.18742 3.12884 -4.53659 -3.32561 0.0473192 -0.780647
1126 1 0.235499 -11.9437 -14.7389 -0.583456 -0.582996 -4.77798
1477 1 19.5246 0.162013 -1.65791 -1.83156 -3.01033 -1.97045
2253 1 6.76038 -18.2217 -4.09309 -3.33931 0.262771 -0.121714
2255 1 2.79422 0.224163 -16.8253 -2.03743 -1.46997 1.55268
2261 1 14.2695 -4.03095 -7.69551 -1.06245 -3.34565 -0.738072
2262 1 18.0736 -22.7373 -2.37514 -1.23328 1.1886 -1.2887
2263 1 1.58428 -14.9464 -3.64724 4.52831 1.74995 -1.03512
2268 1 13.547 0.66044 -5.57984 3.68547 -0.763433 -3.46641
2269 1 17.2281 8.96516 -21.5076 2.89462 0.373511 0.493027
3248 1 8.40536 1.20112 -1.26064 3.86027 4.45958 -2.68141
2280 1 10.965 -10.9813 -1.49042 -0.500867 3.45271 1.5578
2288 1 22.7266 -9.10097 -7.39537 -2.43802 9.5076 1.94972
2297 1 9.49084 5.62775 -20.4413 -1.11886 2.61317 0.646367
2299 1 9.44917 -12.9049 -3.4261 2.03783 2.62174 3.79078
2302 1 15.234 10.2994 -16.1947 -1.32411 -2.22397 -2.08217
2308 1 5.07641 3.48934 -18.4391 -0.297462 0.439868 -1.00718
2318 1 21.9481 -7.03315 -4.44525 -0.820468 -0.767808 -4.31561
2320 1 21.1782 2.89478 -19.0485 3.51128 -3.11289 4.05507
2323 1 5.51744 -2.6329 -4.52714 -2.83211 -3.09814 -0.929891
2324 1 4.36608 -20.1744 -14.845 -2.6269 1.02202 3.97349
2325 1 13.6987 -23.5652 -16.4604 4.11636 3.90402 -3.10171
2326 1 20.4381 -11.0951 -13.1516 -3.07751 2.58015 -2.32572
2327 1 11.4498 0.0984073 -17.3861 3.64613 -2.19656 -2.47013
2333 1 11.4101 -21.6367 -13.8217 1.49109 0.0344047 1.8773
2336 1 16.1129 -13.5507 -18.5501 0.0463934 0.970604 -0.877062
2659 1 17.1323 -4.93847 -23.959 2.54437 3.9323 1.82418
2339 1 8.0974 10.5258 -4.12432 4.52385 -1.34335 -7.83118
2341 1 5.34047 -19.7774 -20.1197 0.455034 -1.04823 0.78108
2350 1 10.0207 7.32077 -11.2671 -1.90795 3.39278 -3.47774
2919 1 23.3726 -14.9882 -4.04687 -3.10151 4.66686 0.0363583
2354 1 17.9882 -19.2675 -21.389 -0.735204 0.391486 -1.24868
2356 1 13.9913 -23.9734 -10.5106 -3.92036 -0.539011 -0.355357
2358 1 2.99789 -10.103 -13.1469 2.165 -3.4855 -1.89544
2363 1 16.4883 -10.6073 -0.334652 -0.631063 1.64512 4.10854
2365 1 22.598 -9.26316 -2.42941 -1.03605 1.15806 0.952449
3716 1 7.05968 5.49564 -0.651715 -1.3436 -1.62706 -1.72024
2381 1 12.5487 -8.75875 -2.92478 0.309208 -0.512642 0.21025
2797 1 17.1826 -12.3508 -22.492 3.38669 -2.68532 3.29888
3900 1 12.24 -17.6975 -13.408 -2.26112 -8.51788 2.28034
2410 1 7.67743 -21.3806 -22.4486 -0.297525 2.53292 2.89739
2414 1 12.6964 -7.47374 -5.70201 -1.56778 -3.60851 4.3057
2418 1 12.8739 3.24949 -6.4114 3.63607 2.64477 1.30237
2419 1 22.4547 5.16217 -17.8694 -2.29518 3.87987 -2.06037
2440 1 6.88149 -3.13459 -13.9926 -2.0217 0.767946 1.37116
625 1 1.25047 -8.37256 -6.4446 -2.74605 1.29561 0.377076
2448 1 2.80332 -13.1238 -13.2838 0.10724 -3.02663 4.83827
3635 1 0.0291921 -15.7544 -20.6402 -6.90831 0.188324 2.02559
2466 1 3.03366 3.97513 -4.48172 0.212693 7.05078 -1.50132
3967 1 2.22649 -6.22702 -5.22376 -3.12125 3.69069 -2.19599
2470 1 12.7358 -21.7449 -8.92805 5.23264 -2.98957 1.31351
898 1 16.9152 0.000130106 -23.5583 -3.27358 1.91574 5.10347
2477 1 10.6509 9.20197 -0.94899 -7.95576 -0.428979 -1.30665
2482 1 8.89491 -5.22782 -1.40566 0.0416321 -3.54235 3.11044
2484 1 1.94447 -16.5931 -9.25309 -0.709922 -2.39472 1.97883
2491 1 11.5974 -23.9129 -3.56328 -3.41381 -0.5276 1.90696
2495 1 14.4216 -14.6656 -7.47394 2.21699 -0.731409 -2.72553
1424 1 21.4595 11.1374 -8.46384 1.60218 -2.64064 1.37345
2507 1 8.98796 -1.29314 -16.8102 -1.49353 -0.546192 -0.261934
1894 1 0.532396 -17.4669 -4.74618 -2.75023 0.725297 2.93973
2530 1 5.48461 -12.583 -15.874 -0.817778 -0.382285 -1.08505
3997 1 19.8684 -22.0775 -10.0223 -0.513475 0.135576 -3.42935
2548 1 15.5442 -6.3659 -6.4683 2.79855 -2.9894 3.86476
2557 1 17.1366 -22.7649 -13.8026 -0.0345618 3.63031 2.97404
2563 1 20.1855 -3.69507 -22.322 -3.30309 -0.516903 1.06551
2568 1 18.3715 -9.04522 -19.7913 -1.06168 -4.91241 -3.53469
2420 1 -0.10431 -7.22391 -9.14573 -0.367808 -0.523405 -2.02377
2573 1 17.8767 -21.9961 -5.07 -1.37362 -2.85554 3.47224
2588 1 14.5967 0.168935 -17.2273 -2.92134 -1.11567 4.66946
2590 1 13.11 2.33974 -9.25785 -1.71011 -4.71652 0.415955
2598 1 19.8694 -0.0766317 -4.81291 1.8877 -1.73236 -2.66408
3369 1 -0.331104 -1.5228 -9.40848 4.71424 3.9461 -4.12636
3802 1 4.48694 -0.221771 -23.6925 0.743768 5.55346 1.27581
2608 1 13.2696 -19.3482 -21.5239 -0.133861 1.49197 -2.02508
2610 1 0.97568 5.28025 -16.8174 -1.08718 -5.323 -0.916958
3960 1 19.2083 -11.9692 -10.6832 3.32701 1.51488 4.41641
2628 1 13.0404 -7.22919 -22.6814 0.867175 1.40954 0.926704
2632 1 18.108 -2.71511 -19.1635 0.343514 1.58998 4.42575
2637 1 12.0768 -14.3592 -16.914 0.617984 0.410383 -2.03907
2638 1 14.2394 7.26683 -6.55219 2.05116 3.2891 0.124121
1517 1 23.2444 -15.5946 -7.80665 4.61627 1.92584 0.143866
2644 1 19.2479 -19.8862 -11.922 3.03702 2.18796 -3.65639
2654 1 19.727 -9.12132 -1.4362 1.82377 9.08831 -3.64908
2338 1 0.400501 -3.81166 -19.6094 -3.69789 -0.612735 0.301476
2675 1 18.0227 5.04922 -9.99776 -6.98205 -4.47375 -1.78039
2678 1 2.48812 -21.7751 -13.4554 1.85033 2.60533 -0.193711
2680 1 8.1847 -3.67431 -7.04171 -3.80525 -3.90149 -1.68142
2686 1 5.11076 -22.5601 -16.7847 -1.60259 -1.86686 -0.116956
2687 1 20.9565 -15.4178 -12.8261 -1.38255 1.55356 -0.0964004
2692 1 5.29421 3.44994 -10.1823 6.09088 -1.54941 3.90435
2697 1 5.95382 1.49536 -3.56874 3.57208 0.70768 -0.195589
2703 1 15.9102 -5.74479 -11.3689 -1.30815 1.38142 -5.2628
2536 1 23.1993 -19.2995 -23.9689 2.31978 -0.810434 8.01932
2039 1 10.1194 -22.4585 -21.2511 1.19917 1.90047 4.04832
2743 1 0.772369 -18.4985 -7.57931 -5.63537 1.909 2.29696
2746 1 6.87324 -12.4236 -4.71229 -4.0977 2.07202 -2.34988
2765 1 7.60813 -17.7198 -18.2324 0.474179 -0.452705 -0.745248
2774 1 21.9179 1.03759 -16.8699 0.233919 -2.96988 -0.905699
2776 1 11.1746 7.54673 -8.40925 5.71337 5.10206 1.90879
2783 1 12.3085 -10.8388 -13.6621 -3.49875 0.265554 -1.99102
2785 1 21.8405 -2.45727 -15.5248 -1.41795 0.110636 -4.76618
2789 1 9.09089 -6.08096 -5.29956 2.53881 -2.30984 1.67871
3264 1 9.05854 8.16461 -22.1201 -3.424 2.90002 1.69464
2803 1 21.567 -5.06401 -16.813 -1.30258 1.8397 -0.0586467
3333 1 6.54116 -6.23859 -23.8802 -1.42319 -3.69166 -0.513477
1309 1 1.16304 -12.8245 -10.4869 6.02694 4.59771 5.10688
1985 1 1.55228 -24.6192 -10.3769 -1.68055 0.934156 2.88277
2817 1 6.08092 -15.6289 -22.6531 3.55291 0.455358 0.036838
2821 1 16.8541 -9.99772 -12.5351 0.338387 2.16919 -1.1058
2826 1 7.86184 -19.043 -1.28703 -4.59884 -2.16319 -2.31233
2828 1 1.97748 -2.61137 -17.6233 2.88291 3.67477 -0.708852
2831 1 15.6651 6.81502 -13.6848 0.281484 -1.27098 5.17871
2948 1 0.971186 -19.7953 -1.30629 -0.342637 1.14042 -1.30136
2841 1 16.7468 -17.588 -4.04708 3.75608 0.456381 6.54235
2843 1 14.8467 3.46917 -21.3126 -5.97535 -0.311881 3.4431
2845 1 18.7273 3.6495 -21.9927 4.24836 1.03703 3.04949
2850 1 3.6177 6.10097 -8.71567 -3.60191 -2.16601 2.53181
3295 1 3.09261 -21.6915 -1.6129 3.83896 -2.2858 3.21377
2854 1 5.74163 -7.31469 -7.61876 3.0038 1.04597 -3.25079
935 1 23.2684 -10.8797 -0.127323 -1.45137 1.112 -1.22217
2858 1 10.2604 -3.04091 -22.5669 3.29969 0.609763 -1.2631
2862 1 12.3035 -2.37397 -15.862 0.259082 -2.05176 1.16701
2863 1 21.9081 -18.6318 -16.5345 -3.6597 5.56006 4.78266
1227 1 1.18416 -8.55722 -1.47983 0.694037 -0.857445 -3.49242
2875 1 22.0468 -4.54488 -8.62952 -0.114038 -0.760516 2.82009
2876 1 20.5882 -23.3224 -22.3595 -1.55637 -3.95203 -1.45007
1295 1 13.4782 8.29886 -0.191304 1.27166 1.18737 -1.84857
2911 1 0.520055 4.69599 -19.6563 1.71797 2.7017 -3.2938
2912 1 9.26654 -15.9829 -7.50642 4.83449 2.21192 1.29691
2913 1 17.253 7.65675 -3.45245 -1.68062 -1.85052 -0.632625
2918 1 20.9158 6.78925 -5.96539 5.41343 0.974583 4.91413
3139 1 5.41614 10.9409 -13.2507 3.03534 1.75503 4.96473
2999 1 10.7701 -19.5508 -1.00196 -1.47586 -1.94351 -4.90161
2934 1 7.79013 3.81209 -22.2963 -1.81228 -2.91153 1.37461
2392 1 9.31936 -24.6874 -15.8098 -0.475254 -1.68957 -0.0561815
2947 1 17.6819 -14.5469 -21.1092 -7.03997 0.245293 -0.300879
2951 1 10.2419 -18.8482 -10.2442 2.58254 -3.18459 3.40149
2958 1 10.0052 -5.52899 -13.0193 -0.501428 -3.09328 2.54981
3322 1 14.6686 -11.6094 -23.9086 -0.142855 0.251462 -2.92048
2965 1 17.9362 -1.9473 -11.8244 3.3138 -1.71065 -0.119781
2970 1 18.5865 -12.8992 -14.3608 -4.01723 -1.95804 -0.636223
3101 1 23.6463 -14.9595 -18.3406 3.22988 2.97191 2.10249
2977 1 4.45277 -10.9878 -4.30263 -2.31387 -2.19959 -2.03619
2988 1 1.29954 -22.0047 -4.97795 4.26481 1.82194 -4.04993
1754 1 22.7638 9.22088 -19.2708 -0.316723 -1.41505 5.91144
3005 1 4.83865 5.25019 -6.16534 -0.398035 -0.016399 1.43969
3006 1 20.5668 6.98441 -19.7935 1.41567 2.0337 1.03237
3012 1 1.55948 -23.8424 -18.7003 -0.0140854 -5.65248 4.24123
3016 1 19.3039 -13.1625 -19.0216 5.60843 0.153146 0.105228
3032 1 18.4138 -8.81719 -4.18831 -1.04097 -0.268206 -2.05192
3043 1 7.54 -11.0976 -17.1747 0.170862 -0.128645 -0.34623
3046 1 16.4178 -9.26627 -15.9681 -3.15839 1.62339 -3.4164
2364 1 1.95408 -2.45171 -1.07546 -5.05448 -2.71213 5.33748
3065 1 5.69739 -10.2632 -11.6862 -1.46888 5.1081 5.04275
3069 1 6.81094 -7.75216 -5.12773 -2.7528 1.78053 -5.41902
3335 1 22.5965 0.131814 -3.71151 1.2802 0.40719 -1.55026
3079 1 12.5296 -3.57377 -3.0371 -1.54399 2.33662 0.251288
3083 1 7.24054 -14.9071 -9.15937 1.08089 0.0908524 -2.57484
3090 1 15.9488 -2.6349 -5.75487 -1.86284 0.937119 1.9836
905 1 22.8565 -6.95696 -22.675 -1.77305 -5.46041 1.6254
3100 1 15.9984 -10.8846 -19.9608 2.64736 -1.42673 0.829732
3106 1 2.74071 -10.3748 -7.8532 1.46453 0.617656 -2.40198
3108 1 7.95447 -15.6947 -4.95975 1.82693 -3.07825 0.372423
3111 1 8.22553 -19.5445 -20.1767 -3.538 0.135306 0.15735
3935 1 8.6572 -13.9546 -19.2066 -1.70373 1.6844 2.64398
3113 1 10.909 -10.3485 -16.1646 3.41817 0.792104 -3.06814
3114 1 4.14382 7.17058 -16.3661 0.644266 1.49301 3.46472
3117 1 15.2029 -9.78553 -2.74299 0.938334 -4.93242 -2.92362
3126 1 1.66626 8.14029 -8.28787 2.90745 -3.32598 -0.402776
3128 1 1.39328 10.6107 -15.1905 -2.28067 1.40662 2.00902
3134 1 21.6037 6.77966 -1.55848 -2.24399 0.726251 -0.0191125
3137 1 5.44141 -4.11374 -16.3212 0.699447 -1.15432 0.686006
3975 1 4.02688 1.07193 -19.2626 -0.927526 -2.71303 -1.43865
2271 1 22.4073 -17.938 -9.10765 -5.82482 0.961597 -1.27787
3141 1 11.3033 -3.30094 -7.56481 0.788637 5.52311 -0.998834
3149 1 11.2518 8.64595 -17.8901 -0.719479 -2.17918 1.73304
1209 1 4.42313 -4.34943 -23.5045 3.80476 0.553272 3.32752
3158 1 19.1772 -20.1941 -7.83877 2.6129 2.15256 4.38918
3159 1 19.0195 3.533 -6.22085 1.91325 0.202089 0.452833
3167 1 20.8834 -15.7442 -18.9282 -1.38819 3.23116 -0.475448
3169 1 13.0146 -21.7095 -18.3567 0.689184 4.85583 2.59572
3175 1 20.5946 4.21247 -2.02275 1.13019 5.85608 0.631871
199 1 23.192 -5.73451 -11.1698 -1.55356 0.619238 -6.5108
3191 1 7.28345 -5.58995 -9.07822 -0.0433809 1.07406 -1.60036
3870 1 14.955 -20.0084 -10.1601 1.08159 -1.39233 -0.491137
3198 1 7.68871 2.69158 -17.8781 0.094357 0.132199 -1.37689
3685 1 6.33913 -4.64101 -0.382744 -7.30625 -1.93215 4.88738
3234 1 12.6279 -6.17522 -13.4363 -8.87039 -2.46132 1.08652
3242 1 21.4183 -10.9685 -15.9908 0.337487 -1.3254 2.5643
3250 1 15.3103 4.40277 -17.6132 -5.74577 3.81597 -0.607318
3254 1 20.3312 4.02751 -8.67176 0.640612 -1.18522 0.752946
3954 1 3.794 4.26454 -16.0656 -2.09564 2.21695 -1.01249
3265 1 8.23751 -4.31269 -17.1665 0.0385582 0.882847 2.94162
3278 1 1.05396 -5.73976 -22.9844 -2.45999 -1.04188 3.98687
3282 1 5.06089 0.893113 -13.87 -1.5131 3.99456 -4.12713
3288 1 0.32335 8.02121 -18.2419 -3.02734 -1.9859 -2.31638
3298 1 7.93023 -8.31955 -16.5052 2.67925 1.52845 2.4392
342 1 -0.227548 -15.2691 -10.9815 -0.653263 3.54573 1.44192
3949 1 2.65442 -13.2644 -16.4097 -1.91059 0.845591 -0.83266
3305 1 3.15386 7.6821 -5.81915 1.72208 2.20582 -5.64081
3311 1 9.57064 4.58627 -10.3242 -4.63497 -1.0603 1.56664
3315 1 21.2553 -11.9429 -20.578 1.50974 -1.71872 4.85629
3316 1 3.83695 -5.3958 -7.33808 1.46397 3.13005 3.43267
850 1 16.9042 -21.3945 -23.0886 1.60544 0.32677 -1.00889
3320 1 5.90595 7.27373 -9.77991 -2.98284 0.780692 2.276
3887 1 3.60094 -10.8964 -19.4737 -0.502417 -0.309211 2.39408
3324 1 13.0532 -17.946 -10.6992 3.16517 -2.95092 3.81404
3327 1 7.30181 -21.963 -7.03384 -4.47516 -1.58939 0.708402
3328 1 1.72816 -15.5315 -13.2775 -0.992737 -0.870967 -1.15743
3329 1 12.3394 7.04671 -15.7063 1.56719 -4.14642 -1.95576
2641 1 22.9727 6.11568 -14.5326 1.05705 -0.872936 4.71201
3340 1 17.4162 0.114251 -20.266 -3.02937 -1.67474 -3.84825
3363 1 14.5111 -4.43683 -15.2042 2.53944 0.922385 -6.26652
3367 1 1.38494 -20.8184 -18.3519 1.51898 1.08396 -4.3707
3372 1 8.69492 -0.87353 -8.26834 2.57614 -0.0538 -5.66346
3374 1 21.927 -13.5908 -22.8659 -0.989998 5.89123 -1.16048
3384 1 16.7764 -19.8464 -14.4611 -5.18877 -0.320143 2.24354
3386 1 10.8481 -11.4877 -22.0904 -0.528908 4.63545 0.797177
3400 1 15.6261 -24.1142 -22.2547 0.636888 -0.975709 -0.603126
3402 1 10.7583 -18.1065 -20.1227 -0.0193848 1.18552 2.47322
3407 1 10.183 -0.734409 -12.6562 -0.121312 -0.278108 -1.10601
3412 1 8.32332 -3.03423 -10.4956 5.12058 0.116443 1.2593
3416 1 20.3117 -20.4352 -5.20094 5.36947 -3.07746 2.23197
3422 1 5.35553 -13.5704 -2.70425 -0.626285 0.434689 -4.26975
3441 1 5.74376 -14.9656 -6.3459 3.3754 -1.43646 0.429255
3451 1 5.42873 -13.2426 -18.8124 -2.15667 -3.08424 -2.67118
3453 1 13.6746 10.9211 -20.2252 4.36881 2.34866 -2.86661
3458 1 13.5847 5.56529 -22.7059 -3.39101 -2.17501 -2.80283
3463 1 21.0556 5.10486 -22.3658 4.73564 -1.71888 0.738174
1342 1 1.5009 -24.3234 -15.9962 -1.72752 3.56147 -0.00597662
3485 1 1.92744 7.71608 -1.77007 1.4153 4.88741 3.59911
3487 1 10.9812 -9.15174 -11.7588 0.622617 0.374006 -5.67822
3489 1 18.4816 0.819275 -7.2397 -3.7233 0.507433 -1.0082
3868 1 6.48056 8.59168 -1.04738 -0.110071 2.2366 -4.27282
3507 1 8.53512 9.29551 -8.21465 -0.582039 0.0485231 3.62067
3860 1 13.5892 -16.4002 -15.8638 1.5195 0.365048 1.75892
3535 1 10.8516 -19.1965 -17.2341 -0.937317 -2.81988 -7.2891
3541 1 11.9569 -0.550404 -22.6447 3.37475 -1.45876 3.69567
3547 1 9.06054 -18.6797 -7.81644 2.99991 -2.78657 -4.67184
3548 1 7.25651 -11.4409 -20.2608 -3.13712 -4.04528 -1.10808
3551 1 12.0878 2.06995 -21.0186 -1.15867 -2.85689 -2.17927
3557 1 8.89437 6.98619 -18.0213 -3.19088 1.97277 0.774429
3563 1 2.37889 -22.8066 -8.50811 0.0367808 -3.27734 -4.03818
3992 1 21.6831 9.23632 -2.84842 3.13906 1.33737 -1.43769
3565 1 15.5358 -17.691 -6.49873 3.14495 1.61026 -4.68024
3573 1 19.4188 -2.93805 -1.398 1.37229 -4.30518 -4.40915
3586 1 15.0325 0.499176 -8.02182 2.94373 5.48216 1.47525
3914 1 11.3153 -10.8953 -4.48874 -2.21118 0.0852419 -0.57378
3590 1 10.95 4.0041 -4.19937 7.8094 -3.46966 -0.161205
3593 1 14.5482 -8.79158 -13.5333 -1.04926 -1.1712 -2.58072
3606 1 2.62477 9.81745 -12.5723 3.88608 -1.9942 8.46878
398 1 23.185 -22.5019 -6.902 -1.50558 4.11599 0.929036
3617 1 14.5123 0.840534 -20.0291 0.6813 -1.30973 -0.210781
1505 1 18.3439 -24.2737 -21.198 1.71376 -6.97401 1.18033
3630 1 5.5909 -10.8147 -1.36196 -1.67069 -1.3352 -1.11547
3633 1 10.6667 8.99261 -4.05125 2.46525 2.30805 1.5719
460 1 5.91498 8.41272 -22.7991 1.39538 -0.714001 1.33374
3636 1 4.95174 -17.1104 -14.6215 -0.300469 -0.691338 4.1937
3640 1 16.8542 -18.4913 -11.7468 1.71613 5.36359 -0.298668
3646 1 16.6839 1.90299 -18.2469 -2.23853 -1.71614 -1.05891
1549 1 1.34125 -3.85529 -15.181 -2.79177 2.80019 1.30783
3650 1 8.77841 -6.69924 -18.7028 -2.96239 -5.19644 -2.24038
3659 1 19.2831 4.95609 -18.184 0.937304 0.721817 -1.23124
3443 1 23.0864 3.48652 -0.802051 0.773815 0.801905 -0.932667
3884 1 11.6276 -20.0243 -6.79915 -1.94561 -0.357636 0.76809
3665 1 10.939 -8.62452 -18.4063 3.18308 -0.201866 -2.08096
3957 1 18.3687 -23.3332 -18.6251 -2.41586 2.31757 -7.12843
3670 1 14.9953 4.37333 -9.83325 2.51805 -1.22325 0.826421
3679 1 8.80284 -19.9222 -5.21795 2.27607 -1.68144 -7.08924
3982 1 8.21423 -3.58264 -3.96546 2.58325 5.69558 2.07132
3692 1 8.08928 1.77184 -20.5093 0.397381 -1.2042 -1.9469
3696 1 7.07356 0.526716 -15.9774 -1.02357 -1.00474 2.29242
3707 1 17.6857 5.12913 -14.6824 -0.905266 0.782745 2.69175
2992 1 21.1045 10.3313 -12.1255 -0.00996709 -0.519094 -2.77411
3723 1 7.96695 5.06222 -15.8428 2.72132 1.32817 -3.72565
3727 1 5.0167 -11.2546 -22.099 -0.406002 2.57608 -0.983834
3731 1 4.27104 -17.9408 -21.9464 1.99314 -1.66469 -0.783257
3733 1 2.94418 -14.0375 -1.01026 1.80538 0.537715 5.70641
3740 1 5.84925 -0.526672 -20.9078 1.57938 8.27082 -4.60695
3746 1 5.29372 -20.5937 -5.31081 -1.52616 0.483431 0.645069
1425 1 0.13036 7.27956 -10.5379 2.21754 -0.135888 0.179134
3755 1 17.867 7.15554 -8.31776 -0.443709 5.102 4.54239
3758 1 21.3857 -8.14262 -16.1134 0.581712 -1.66263 3.80221
3761 1 18.5422 -10.856 -17.3639 1.67472 -1.54091 -4.0228
3772 1 14.0637 -14.3089 -1.7067 2.78348 6.63504 -2.05112
3775 1 4.14559 -1.39253 -8.88023 -1.0128 -3.63854 -5.4568
3777 1 12.1505 -6.67899 -0.644691 0.519067 1.53092 -2.01768
3782 1 2.43462 -13.4976 -19.2691 1.60381 -5.89452 -5.09313
3790 1 4.50869 -18.1912 -2.27756 -2.42468 -2.14728 1.69127
3375 1 20.4347 -11.7781 -0.224753 3.34341 -1.65471 0.0938895
3800 1 15.2071 1.01258 -3.26101 3.75769 -0.0934933 4.45413
3856 1 12.8156 -18.8443 -3.05276 3.3145 0.684514 1.43706
353 1 16.4531 -23.9199 -16.321 -2.32622 -1.27167 -0.0588616
3808 1 9.9829 -14.0391 -22.0656 -3.0924 0.537535 -1.19048
3809 1 4.30589 -24.0827 -19.1031 4.52694 -0.608778 -1.54904
3813 1 18.0626 5.41463 -1.47603 1.46767 2.93142 1.13146
2852 1 1.5799 -5.20191 -0.212532 1.10571 4.88483 1.15538
3830 1 16.0368 -12.8708 -12.908 -0.0570471 -1.14862 2.26999
2874 1 -0.00553436 -9.62261 -12.7829 -0.708882 2.61049 4.07256
2035 1 13.9109 -15.8937 -22.9664 1.10975 -0.608895 0.775081
2028 1 -0.111799 -0.437954 -17.8209 -0.0867428 2.08095 -1.21948
361 1 23.6831 -19.7455 -3.18463 6.37723 -1.83031 0.164978
3674 1 -0.0992493 -2.30314 -6.72775 1.27769 0.0278395 -3.99044
1502 1 23.4446 -6.16893 -6.78592 -1.47383 0.611195 -4.79448
1015 1 -0.247318 4.96188 -24.0904 -1.68841 -6.07459 -1.77841
1941 1 -0.220351 -23.2854 -11.6903 -2.99036 -0.486044 2.04246
1376 1 6.76192 10.8163 -6.69274 -3.34694 1.4093 -4.64137
1611 1 5.92581 11.2661 -2.3188 -2.59236 3.03369 -0.594639
2516 1 3.99533 11.1806 -19.3844 3.37106 -1.62906 1.65964
2900 1 16.3317 3.04856 -23.7311 -5.20391 -4.27494 -3.51796
2406 1 23.7331 8.76699 -12.2835 4.60739 -0.586147 -1.49636
2257 1 -0.156374 5.19252 -6.88511 -1.94705 -0.814701 2.33212
411 1 -0.288195 -4.4201 -8.93375 1.54246 3.03806 1.06191
597 1 23.6155 -23.7867 -11.7626 0.189696 0.593084 -5.53954
3301 1 23.6497 8.52697 -7.46065 1.28321 4.39339 5.97492
498 1 22.188 1.27501 -24.099 -3.84626 -0.738767 -0.801116
3666 1 0.911253 -16.5017 -24.0298 3.8393 -0.257998 2.22647
995 1 9.32011 3.67222 8.02594e-05 -2.21338 -1.98178 1.33629
1185 1 12.1221 6.43732 22.6519 0.498796 -0.724503 0.712184
3533 1 17.6032 10.2177 4.74399 -6.66088 -2.52955 3.35345
249 1 -0.100337 -19.4401 8.73717 2.89327 0.0907 -3.69434
11 1 6.47043 -11.4979 17.5558 -0.0980775 3.4185 -0.0145502
17 1 16.416 -9.12829 16.3485 -0.615916 -1.99921 -2.27813
20 1 21.711 2.81338 20.8191 -1.49708 6.12643 6.38158
35 1 18.9952 2.42342 11.0528 2.19506 -4.04257 -0.558753
10 1 0.551303 -7.75774 15.3597 0.700932 0.798069 -0.760356
50 1 16.0232 -19.0124 13.4478 -4.22486 -5.04451 0.208213
65 1 19.195 -1.16814 6.27107 -1.15263 -1.29608 3.61905
82 1 6.53677 -23.2638 4.59573 -2.12539 -1.02936 -1.3829
86 1 14.1245 6.44555 18.6417 -0.45595 6.26282 0.772226
90 1 8.90669 -5.00118 7.68714 0.945267 0.881065 -6.37139
102 1 3.39586 4.01349 4.70384 0.674603 4.82701 -4.12193
106 1 15.3331 4.26939 8.80001 0.578135 0.929204 1.60085
107 1 19.87 -3.26209 19.5821 1.63847 -2.87131 -1.23626
2868 1 2.07049 -22.0644 22.0637 -3.30989 -5.20723 -3.53081
120 1 2.91585 -1.5352 18.1748 -1.21823 6.4287 4.35934
2337 1 8.57377 9.22044 0.911036 2.04139 5.1524 5.09627
127 1 10.1601 2.32904 11.7682 -4.63939 -3.16254 -1.08146
129 1 16.7638 -10.1135 3.3499 -0.515339 -3.05465 1.34623
140 1 3.32806 -5.17949 22.0328 4.15606 2.14096 2.13454
141 1 10.0068 -16.5169 3.8126 -5.18183 -0.545255 4.06577
142 1 13.2281 1.55217 21.7826 -1.80062 1.70042 -0.989696
145 1 17.0521 6.90143 18.8084 1.09398 1.6814 0.808824
150 1 21.6201 10.3919 18.3113 -7.38576 1.4229 -0.139486
151 1 20.546 0.30643 22.0368 -0.0477892 0.520266 5.41266
156 1 13.7241 9.16536 19.8012 2.82622 3.9247 -2.08136
158 1 9.6066 6.48268 2.3672 -1.42078 -2.67651 2.14071
163 1 2.5592 -0.0987531 15.6682 1.59055 -1.39073 1.65142
164 1 20.6735 8.98066 12.0379 -3.2547 -0.296331 3.96719
193 1 7.61559 1.55594 5.49037 0.480351 -5.77645 1.91906
205 1 20.5104 -6.49127 10.3901 -4.29135 4.21709 -2.37005
208 1 1.68644 -5.4964 16.8714 -1.89248 3.61903 2.08658
211 1 15.1037 0.928559 5.96282 4.14583 0.11366 -6.52598
236 1 17.3097 -9.14873 8.38991 0.0586908 -2.9468 -2.1773
2884 1 10.417 -8.4399 22.8911 -0.0116038 1.91374 -2.58831
240 1 9.09019 2.83432 15.1525 1.21198 2.4987 -1.25314
246 1 8.83321 3.19001 21.2536 0.163635 3.07002 -1.81939
316 1 23.3309 -5.94663 2.66072 -3.3027 4.77577 0.299648
1332 1 13.2874 -23.4098 23.0662 -0.487312 -4.13413 -3.81821
272 1 13.8934 -17.4414 12.0352 -5.34302 -3.98914 0.119326
274 1 12.2065 -11.8918 9.47052 1.78329 -5.6168 1.59335
278 1 19.1612 9.20642 16.5197 0.15694 0.449049 3.08615
3584 1 5.79245 3.98292 23.8634 -1.52589 4.46491 2.81597
292 1 15.7325 8.81408 3.13348 -3.57919 -2.02772 -8.84803
293 1 15.9162 1.24013 14.4128 -0.480139 -0.494515 -4.00373
3865 1 1.67612 -24.0454 16.0214 -1.25039 -1.33958 -5.75808
300 1 15.6908 -2.61903 16.4569 1.69655 3.0696 -6.58969
305 1 3.31051 -19.3548 19.9305 2.06597 0.327499 0.323408
309 1 6.45684 -19.4785 17.1997 -6.13626 -2.97957 -2.39921
311 1 12.8229 -9.69769 2.74943 -2.78841 1.58295 2.665
1925 1 21.4738 -24.6552 18.8548 -0.342441 -1.28039 -1.63425
318 1 20.5312 -18.116 19.038 0.505901 -0.686479 -1.30467
3342 1 0.795962 3.27635 3.26196 1.82059 -2.43366 -2.52175
331 1 12.1332 7.7618 3.50144 2.60763 1.83936 -2.63281
335 1 22.1023 -22.5388 4.58008 -3.25466 0.706411 -2.99117
338 1 4.76471 -7.32109 17.4345 3.37059 2.29523 2.6531
346 1 16.6693 3.44121 4.9739 1.03605 1.68172 3.34855
347 1 21.7931 -6.58055 7.87487 -1.45305 0.234235 -2.13111
352 1 14.9458 1.77553 0.699922 6.73496 -4.95859 -2.54541
358 1 20.6445 -13.2347 13.0831 4.14423 -3.48359 -1.81365
368 1 3.80085 -6.23943 10.7488 0.466717 1.07533 -5.88802
377 1 15.8936 -0.204322 12.0378 0.937818 1.44532 6.84147
1151 1 22.1297 -24.4599 21.6865 1.41905 -0.481199 2.19791
387 1 4.8287 -20.4001 2.39307 -2.97195 -2.27714 4.87765
390 1 12.4976 7.78011 7.78579 -4.78668 2.01242 1.7524
391 1 18.5125 2.24054 18.0306 4.33874 0.188826 -3.6477
392 1 19.0714 -9.92487 17.4213 -1.80797 1.55303 0.289333
3932 1 23.0771 5.29236 12.8834 -4.49683 -6.88098 4.9222
397 1 1.14042 -20.5185 18.2325 -2.10434 0.741886 -5.94571
3314 1 0.804513 -3.45517 10.2604 4.59879 -0.600723 -4.58536
407 1 4.0042 -10.3477 16.6284 -0.691142 3.46002 -1.87973
2953 1 16.6562 4.16006 0.419369 -3.59079 0.464546 7.81391
432 1 7.20305 -3.48596 11.0993 -1.121 -2.50539 2.44596
442 1 5.11947 3.66467 15.7385 0.497389 1.3136 0.40241
450 1 14.1991 -20.642 7.24599 0.252523 1.04709 0.255304
455 1 14.2562 -13.7466 13.8541 0.27264 1.79424 -2.01196
1924 1 22.1891 -17.1398 0.225483 2.36862 1.3498 1.82795
483 1 3.91211 -16.7254 0.174366 3.13141 -3.71826 -0.18335
479 1 17.3115 -17.28 15.3929 3.76986 -0.324795 -0.335705
480 1 0.591653 -9.68931 10.3584 1.3251 -0.0687613 -1.61543
3346 1 9.08265 -24.0313 0.0919573 -0.582592 -0.840232 3.74009
494 1 6.3667 3.98981 5.33109 -3.57469 -3.84571 3.38693
502 1 14.8921 -13.6124 18.6007 -2.78321 4.60802 5.26584
510 1 8.1749 -14.9242 15.7973 4.82481 -2.53069 -6.9833
511 1 8.00674 -13.116 5.26131 2.65177 2.50768 -2.7551
512 1 2.23948 -4.18713 19.4734 2.72887 -0.0480276 3.29761
1394 1 2.46642 7.27021 1.1803 -5.36477 0.76558 1.66507
522 1 4.78936 -16.9114 8.50103 0.753015 -3.13966 1.87859
793 1 23.4587 -9.93747 2.55598 1.97579 4.54972 2.90786
535 1 4.58696 11.0704 10.0776 1.32747 6.37833 -0.0259477
1800 1 -0.0659525 3.12277 9.8799 -0.302806 -0.126599 1.49853
537 1 10.3487 -5.33826 3.38865 3.12885 5.89807 3.77307
2861 1 12.6023 10.745 21.7414 -0.156694 -0.668809 -2.76335
548 1 10.4395 2.57553 17.5581 -0.463278 2.11527 -3.15264
561 1 6.99548 -20.9953 19.2876 -0.28568 -3.14637 -2.5299
563 1 5.29875 -21.1586 8.17175 1.08069 -0.184878 2.68001
565 1 14.856 -21.3497 21.9117 0.213711 -1.77709 -1.87733
568 1 6.82254 -7.14149 8.14914 -2.31437 3.04667 -5.40839
3054 1 21.4602 -2.16846 23.8071 2.16096 -0.276285 -1.94081
572 1 11.1055 -23.2997 3.63928 5.38101 -0.100296 -0.437783
573 1 18.7783 -5.26835 5.76821 -2.83966 0.0851754 0.542527
576 1 21.0966 1.28795 18.3327 -3.8627 0.713676 1.65009
591 1 20.0142 -20.1654 12.5071 1.05376 -1.55339 1.4896
598 1 15.4558 -13.628 5.0845 4.34359 4.40057 -0.836859
599 1 11.0047 -13.9451 15.8144 4.77599 0.295299 1.32616
601 1 1.28052 -1.52305 20.5949 -5.09583 2.40321 1.69075
609 1 10.8734 -20.9248 22.2261 4.56915 1.08946 4.34739
610 1 19.3407 -5.55818 14.5041 0.220195 -5.33854 1.26308
615 1 10.8018 -0.24316 17.7272 2.92423 0.486248 -4.12356
616 1 15.2631 -4.04712 20.7493 -2.8328 -0.683557 -3.03753
618 1 14.307 6.58998 9.8044 -2.3182 1.24591 -3.27268
619 1 16.2886 1.92516 10.1369 1.93958 2.61466 -1.92468
623 1 22.0514 -13.6673 4.86627 -0.0242424 -3.43726 -0.751247
640 1 2.45057 1.12205 5.23718 0.378904 1.90645 -1.9385
643 1 11.0841 -18.9575 7.13763 1.91927 3.5642 1.57944
649 1 11.8334 -16.4545 21.0576 3.78436 1.39675 0.39252
659 1 8.46927 -0.772177 19.3543 -3.83099 -1.02375 0.882583
660 1 9.47718 4.60733 8.71214 1.67283 1.83136 0.850801
662 1 2.60524 -6.53349 8.27172 0.0776843 2.04657 0.706043
669 1 8.14316 -16.0081 13.0802 -1.7562 1.24865 3.09212
676 1 7.52239 4.21339 17.3867 5.61175 -1.39531 -0.576553
685 1 21.0305 0.843061 7.54288 5.30378 -0.93028 -3.40272
2110 1 2.08655 10.0495 1.29484 -5.35054 1.15262 -1.77777
694 1 7.18346 -16.9874 3.13389 -0.154402 1.99039 -2.16597
701 1 17.3209 0.611677 7.78575 -5.27024 -0.0687286 -2.25137
706 1 4.75969 1.82017 19.5803 -1.18566 -0.613136 -0.495737
712 1 4.33877 -9.56369 13.7065 -4.91365 -3.31162 2.50704
713 1 2.59047 6.61529 3.87281 0.128729 -2.1875 2.806
719 1 16.2777 -7.1828 10.4503 1.17425 -2.76991 -2.66659
735 1 16.1367 9.45171 7.24037 1.53893 1.85817 2.52713
737 1 21.0364 -16.4123 5.59305 2.10211 -2.30683 -1.6854
747 1 10.5574 -10.7024 4.30296 -1.82325 -4.01846 2.7046
752 1 21.1189 -19.3299 5.57462 2.86652 0.117323 -2.47689
760 1 0.559396 5.02038 13.6164 2.33123 6.06007 -5.96222
763 1 18.0358 6.74674 9.63522 8.10542 -0.831305 1.48093
764 1 21.2627 4.64031 7.50889 -2.57794 0.530942 6.7804
1188 1 2.79129 2.92479 1.38955 1.29288 1.06085 -7.38623
771 1 10.408 -14.4884 12.1832 0.194971 2.13125 0.204619
772 1 5.78884 7.79261 6.78738 5.39726 -0.739802 1.26955
773 1 11.013 -19.5611 11.4897 0.974198 -3.6927 -2.63263
1076 1 22.2291 4.07761 23.6019 4.77685 -2.80619 -1.48059
783 1 5.49827 -16.5691 21.6406 0.326217 0.715061 -4.51356
790 1 4.60467 1.20617 14.4311 2.79432 -5.29983 -3.04988
2639 1 0.454059 -7.76305 18.3917 -3.26061 2.33648 2.03985
795 1 20.0926 -8.55421 21.2168 -4.11688 -0.611773 3.95777
816 1 20.0309 -21.9721 18.8821 -4.44406 -4.846 0.0662288
817 1 8.82672 -12.0654 15.658 -1.30372 0.431347 4.35051
822 1 22.6954 -15.6336 15.6662 0.83718 -0.125269 4.32149
823 1 7.92886 -10.105 3.25643 -0.313404 4.05566 4.69824
2450 1 6.29422 11.1082 21.5452 1.62748 1.12016 -1.24888
836 1 7.39931 -14.1262 21.7638 4.94207 4.6874 -1.05078
838 1 21.8068 -20.2385 2.91946 0.0654854 3.29239 4.28084
840 1 4.53509 -17.3852 15.0396 1.99328 -1.11883 4.61889
841 1 21.3362 2.67137 9.50764 4.54332 1.02216 0.932904
843 1 20.6579 -7.82106 18.3449 -0.263444 -2.01237 -2.7584
858 1 17.9955 -12.9936 14.4237 3.42229 0.572703 0.180858
863 1 16.8333 -15.79 6.86567 0.777364 -3.3059 1.85055
3153 1 14.9938 5.99403 22.9168 -0.842952 3.56349 0.278751
866 1 13.525 -3.12004 18.627 2.92918 0.179206 -1.71656
1378 1 8.41901 -9.18413 0.543871 5.94377 -2.06236 1.58751
877 1 2.48981 -17.2511 18.0294 8.01978 -2.55339 0.0746256
887 1 9.43926 -22.4013 18.8154 -1.84419 -1.66741 0.211223
890 1 13.9894 -19.7066 15.6062 2.84717 -2.27303 0.283986
893 1 21.2452 -4.08925 1.93564 1.24431 -0.504684 -0.925642
895 1 2.31614 -22.5787 4.17874 -1.02842 5.54197 -2.63322
896 1 11.0745 -4.59324 18.3088 -1.7658 3.41107 1.10308
899 1 15.081 -19.952 18.1998 4.623 4.21456 -0.542392
901 1 2.40412 -18.1148 9.95124 -4.24803 2.36879 1.47368
1105 1 20.9729 2.04602 0.209813 0.450212 -0.810227 1.24902
909 1 16.2968 -21.3212 11.6184 -3.04748 -0.993369 2.6518
3039 1 16.5223 -24.3609 20.2032 3.14897 4.34275 -0.511815
926 1 1.80698 -16.1696 8.01116 0.19767 -8.56778 -1.46685
928 1 8.9299 -17.6368 10.8226 0.389984 3.138 1.55058
938 1 19.223 8.68222 6.64486 2.00883 -2.36633 -1.78743
943 1 18.6686 -4.39658 0.956767 2.73675 0.632478 2.62466
945 1 4.35985 -21.2613 16.3849 -4.62143 2.7798 -0.0507708
953 1 17.1406 -2.03427 1.90539 -0.706356 3.09649 -0.761908
969 1 15.3384 -21.5769 1.58898 -1.20285 5.01771 3.64348
971 1 15.9885 -6.5272 22.1217 -3.07486 0.883031 2.62835
977 1 3.04809 -24.2271 13.6259 -1.01242 -0.832269 1.87978
990 1 13.2133 -7.65012 13.2049 0.594106 -5.03693 -4.39715
2677 1 -0.293634 -22.2983 0.0857719 -1.10802 5.58299 1.76915
1003 1 12.609 -14.5572 10.1938 1.08057 5.48199 -0.261647
1007 1 13.22 -0.156741 19.284 3.02058 1.7344 -0.596066
1008 1 5.65249 -3.27298 13.5702 1.77224 -2.1706 2.0605
1009 1 9.31881 -16.7126 6.65451 2.10804 -0.641937 -2.72443
1013 1 4.4732 -17.6862 2.85701 -2.8367 2.74023 -3.79686
1023 1 11.597 -1.97268 6.22153 0.855489 2.2317 -1.42376
1032 1 11.3651 7.12059 19.892 -3.71364 0.675058 3.02423
1036 1 5.22487 -12.9089 20.0916 1.86455 -1.73289 -1.28599
3192 1 22.305 10.98 0.0735706 0.43289 -0.086762 1.00713
2927 1 13.0387 6.07351 1.46899 -3.17505 -4.53795 -1.16296
1051 1 4.81356 0.139251 10.1668 -3.49035 3.00832 1.05429
1064 1 14.389 -16.4948 5.46046 -1.80204 0.632497 2.26583
1078 1 10.5427 -8.51038 12.5034 5.41476 -8.8699 -0.701025
1081 1 7.35722 -8.59812 16.8356 -2.33297 -5.51397 2.27775
1093 1 21.4988 8.33705 4.74343 3.60264 -4.52653 -6.4745
1099 1 16.3468 10.1055 15.7975 2.2838 2.83325 -1.55824
1100 1 11.5763 -7.65098 20.3344 -6.01997 -1.8623 2.39853
1101 1 5.6145 -15.4186 11.0662 -0.281572 2.63211 -3.61633
1102 1 15.4453 -15.1176 16.1788 -2.0948 -4.06269 1.56457
3798 1 6.08071 1.9927 0.125654 -1.11248 -2.29766 -1.31409
1107 1 3.65853 -14.3364 1.69055 -0.00283218 0.457423 2.18787
1111 1 13.5094 -8.34973 9.5296 -4.18167 1.2362 1.78962
1119 1 8.33549 -8.44024 5.86973 -1.45071 -6.55247 -0.690363
1132 1 21.7927 -5.42681 19.7774 -1.1294 0.330797 -2.05527
1134 1 14.3725 -22.7933 19.3309 -5.38877 3.13267 4.04463
39 1 1.87102 7.62408 22.2315 -2.60905 -0.0545611 0.851026
1137 1 5.42222 3.4928 2.59376 3.2491 2.45574 0.216808
1149 1 -0.342297 -14.337 9.36621 0.941009 11.5064 -1.54259
3132 1 2.51076 11.0713 4.31356 -0.297402 2.22188 4.75542
1155 1 7.25158 -18.4388 14.2797 -5.70253 -1.81503 -2.46462
1159 1 21.2365 -3.85659 15.9343 -1.82583 -0.864099 -0.132633
1162 1 9.69506 9.1147 3.86419 -1.21696 -1.06208 -1.15886
1169 1 13.0493 -6.65147 15.9887 -3.1318 -1.69148 2.34319
1173 1 7.65763 -18.5162 20.5049 -2.20719 -0.644172 -0.417453
2607 1 11.0718 0.323347 22.9819 0.464437 0.854436 4.117
2856 1 15.3701 -16.0685 0.0661041 0.361683 -2.13134 -1.53651
302 1 -0.388172 7.27935 0.294946 1.40509 -1.71442 0.772486
3822 1 10.2144 7.33216 9.48203 0.87191 2.12636 0.519705
1193 1 9.78681 -5.75896 13.0026 -3.87123 2.97712 -0.682854
1198 1 19.5763 -22.9912 11.4355 -2.94834 5.21054 0.828674
1200 1 12.72 -10.1025 11.7708 1.86664 -1.06459 -2.04106
1201 1 23.056 -19.1173 19.3657 2.26886 -0.672155 -3.72576
571 1 -0.23867 -10.9532 20.585 1.69181 1.10538 1.24077
2933 1 23.5881 -5.19472 12.7521 -1.73475 -0.808378 4.89183
3996 1 5.05627 -14.9753 4.27148 3.66903 -2.47357 0.618604
1217 1 15.1307 -14.4426 2.40312 0.877906 0.562612 3.12556
3365 1 -0.342327 -11.3629 12.4051 0.140112 2.35523 -0.274892
1224 1 16.9464 -7.4422 13.4993 -1.95205 0.0562432 0.0710294
3179 1 0.73769 0.719884 18.5444 -2.56555 -7.1562 -0.966
1135 1 6.53474 -2.3896 20.9079 3.75099 -2.21028 2.17981
1248 1 7.55129 6.39184 19.3349 -2.32262 -2.79741 1.21751
1250 1 7.30139 1.85874 19.0731 2.11126 -3.30946 -1.52345
1251 1 21.6886 -1.0127 19.9549 -2.92109 -4.78308 -3.19809
1252 1 18.1391 -18.1252 1.81674 -6.32455 6.60299 1.10207
1259 1 19.4035 -10.1107 6.60364 -1.18666 -6.51735 -2.02598
1266 1 14.6986 -8.41469 4.49184 -1.94851 8.74419 3.80932
2679 1 8.43266 -0.506194 0.990086 2.03465 -4.87269 -4.25113
1269 1 7.38129 -6.36325 18.4938 -3.55981 0.666697 3.2585
1472 1 23.0359 4.36189 16.783 -0.632523 -0.342533 0.677017
1273 1 20.4898 5.9582 22.1223 1.02082 -0.987944 3.87703
1275 1 4.67944 4.96992 10.4995 1.61707 4.45595 -5.23812
1281 1 14.8959 -10.8076 18.1446 1.51619 -1.26649 -2.96484
1284 1 6.70454 -12.7031 2.76705 1.39127 -1.37133 0.303596
1287 1 10.453 -17.3696 17.7651 0.451927 -5.89238 1.43915
1290 1 1.05636 7.26157 7.24975 -0.180726 -4.4888 1.73739
1323 1 15.0922 -9.72931 13.5423 0.445751 -6.58555 -1.78022
2366 1 11.0465 3.9607 2.46779 -2.12964 2.89927 0.267394
776 1 8.31666 0.372856 22.2232 -1.08047 -1.81159 -0.2172
1337 1 7.77514 -22.8631 9.32232 -7.15078 -1.37989 -2.09227
1339 1 1.43833 -15.5641 20.1319 -2.19763 -0.0924907 -2.21809
1341 1 3.86062 9.71598 13.9365 1.42194 -1.1745 2.27556
1344 1 18.7919 -8.35531 3.03955 -3.84477 2.02427 0.0178762
1349 1 2.23097 -13.0722 8.0545 3.12923 3.77692 -0.681376
1351 1 17.642 -18.3486 18.2092 -0.231921 0.166483 0.759481
1360 1 18.7232 -13.5094 7.49249 -4.40738 -4.23626 -0.319199
3680 1 11.4237 3.41233 22.8651 1.39119 3.4268 -3.2648
1370 1 3.6202 -14.6148 22.0075 1.37494 0.987348 1.28453
1375 1 17.5781 -5.94545 3.2246 -0.366773 -2.49147 3.8731
545 1 23.0691 -20.0882 13.1185 -3.75803 -1.88146 -2.73222
1382 1 16.2083 -13.9532 8.9863 -3.93332 1.25399 1.59479
1388 1 17.6034 -0.50948 18.7439 3.6248 1.80262 1.85918
1390 1 7.48904 -0.409835 11.4473 2.99877 -3.07716 5.63967
1392 1 21.4001 4.63762 3.53658 0.29109 4.25143 -0.043109
3728 1 16.1994 -9.51061 22.8127 0.342265 -1.61284 0.0547386
1401 1 23.6259 -20.7119 21.7312 -0.31502 1.69988 1.12663
1403 1 14.3295 -23.8922 16.6345 1.28292 -2.41868 -0.827554
1404 1 21.1052 -11.5901 8.42546 -4.49737 -0.708763 1.1315
1417 1 13.1579 5.77196 12.0414 8.48724 0.0572528 0.134418
1682 1 6.21554 10.5946 1.72819 -1.22498 3.27989 -1.29967
1426 1 7.15155 -19.6664 4.11529 1.44313 1.92634 1.78205
1443 1 19.8968 -14.3984 17.7855 -2.83324 0.230445 -1.20564
1445 1 13.0232 -19.2161 9.60128 -3.54744 3.43718 -0.475721
1449 1 9.15247 -2.77002 2.5678 3.81457 1.36129 3.78076
1463 1 6.54576 -0.731658 14.1167 -0.283069 -1.88821 -0.0364549
1464 1 3.98504 -18.3107 5.82795 -0.289749 0.233734 2.61946
2718 1 9.69921 -15.0343 23.5629 0.160558 5.06709 -2.34847
874 1 10.9091 1.28538 1.19511 2.69583 7.34214 3.05202
1479 1 10.8929 -9.50714 8.63399 3.84702 -4.92416 -1.35638
1366 1 20.8467 -14.746 0.531337 -1.91502 -0.579466 4.54143
1499 1 16.1258 2.08213 21.8411 6.0493 0.655672 6.22071
3425 1 23.3397 -9.55134 18.6022 4.13875 2.44883 2.94616
1524 1 0.0984626 -18.9983 5.77442 -1.56935 -0.139759 3.56789
1531 1 7.24118 -9.4042 11.1442 2.95907 1.48639 -6.65015
1535 1 2.05643 -7.74837 12.6589 1.33207 -1.30297 3.26701
1543 1 1.00999 0.0659055 13.4036 2.65301 4.56649 -5.24499
1566 1 2.80313 -8.97557 7.42305 2.4965 -1.15214 -4.26312
1574 1 18.5035 -17.1053 4.52254 -3.15549 0.565171 1.32443
1577 1 15.0148 -23.1984 6.20793 4.78975 0.905675 4.38219
1592 1 18.3337 7.50758 13.1503 1.67776 4.80573 -1.72147
1597 1 17.5432 -23.8805 5.40339 -0.662763 7.2563 5.92295
531 1 23.438 -9.22499 13.0741 -0.66621 0.125767 -0.0842868
1793 1 17.9967 5.21899 23.6889 -1.55316 -2.19728 -0.942463
1626 1 15.0522 0.155352 17.1914 0.248826 2.61399 3.29883
1628 1 19.0055 3.63997 1.8452 0.285709 -0.452586 -0.690786
1630 1 10.9414 -9.90777 18.8556 0.495034 -3.4485 -9.27887
1636 1 20.4471 -10.9268 11.2013 3.69201 -5.23562 -5.73194
1641 1 20.4876 -12.8478 20.3134 1.08 4.3933 -2.45634
1653 1 13.8166 -23.0202 3.62662 -0.884177 3.19704 -0.344905
1654 1 5.07006 -17.9229 12.0609 -0.988677 -3.2965 -1.50491
1672 1 3.65638 9.80402 22.3496 5.53753 -3.38272 -1.20938
1673 1 1.55678 -17.8303 3.82836 2.81277 1.70409 6.45285
1675 1 1.39795 9.57247 15.4177 -2.73375 2.8919 2.79079
488 1 -0.0876944 -13.5455 18.8476 0.466164 2.32589 -0.135989
3753 1 8.55555 -2.32171 23.2335 2.53992 2.27826 -0.618102
1686 1 13.3094 -9.78716 22.0327 -0.047358 -0.174551 -3.68803
238 1 16.9324 -2.42578 22.6478 -0.166833 -5.67651 0.0888047
1696 1 11.8737 -1.81678 3.33378 0.191814 1.26244 5.08764
1699 1 13.0328 0.705318 15.0285 0.0772489 3.94323 -2.12591
1702 1 1.88777 -22.008 12.2375 -1.89786 -2.86456 2.69867
2096 1 10.6122 -4.36427 0.553987 -2.24656 3.29818 4.22651
1721 1 7.26788 2.57695 11.5249 -2.00407 0.0989933 -2.69377
2150 1 17.7783 -7.90242 0.41404 3.40198 -0.450994 0.104452
1732 1 14.3497 -12.2521 7.47168 5.55778 -2.80033 -0.571204
1736 1 17.7339 4.99921 11.8626 -2.06398 -2.30598 -0.687263
3939 1 22.9101 -2.5479 13.6507 0.189304 2.74872 0.773373
1743 1 19.5451 -16.2794 7.8505 0.19405 1.40444 5.26833
1749 1 21.1729 9.64831 14.679 0.93432 0.725532 -3.90391
1751 1 1.6854 -10.416 14.6479 1.06713 -3.09175 -1.72928
1758 1 20.2852 -24.0433 6.1106 -1.32109 4.55868 -5.79507
2373 1 14.3115 10.8534 17.4438 -0.259384 -3.79936 0.07299
1768 1 13.7798 -3.28785 8.75666 0.120379 -1.36333 2.71168
1772 1 11.2143 -21.9303 0.742283 -0.744829 3.88668 -5.85656
1774 1 17.5017 -18.0128 22.8776 -2.03885 -2.1949 0.394734
295 1 0.273475 7.01865 10.1298 -1.57622 0.457745 -1.41243
1806 1 13.7239 -3.58183 14.476 -2.93296 0.567632 -4.17273
1808 1 21.3475 -11.6835 17.6858 0.30624 0.258581 0.118084
3891 1 8.02372 -16.0575 18.4113 2.80651 1.5056 3.40226
3536 1 23.4049 -16.1824 8.76255 0.316616 -0.836491 0.260701
3964 1 9.24433 10.8304 15.3511 0.463425 -4.97615 4.33719
1826 1 19.5134 9.22923 2.61038 4.49387 -0.238322 -1.09168
1837 1 13.7813 -21.7192 10.4226 1.86319 3.32694 -0.422131
1842 1 12.8727 -20.2138 2.68159 -2.9846 1.30733 1.19909
1846 1 11.3656 -21.9131 7.01285 0.612337 -1.09278 0.535158
1847 1 19.4928 -15.7812 20.4903 -0.508422 -0.514062 -4.47514
1853 1 3.69349 -12.6738 5.35899 -1.42751 -0.258459 -0.424469
2042 1 5.26498 -20.9725 23.4201 2.16502 3.86896 -5.46286
2696 1 22.1686 -17.094 21.1092 -1.19018 3.20547 1.39868
1860 1 8.12694 -0.301517 8.82695 2.55897 1.15758 -1.22785
1871 1 18.134 -12.1531 4.93924 2.19326 -1.22762 0.474936
1881 1 7.54102 5.46497 22.1006 1.95531 1.39745 -1.62359
1887 1 19.0334 -5.46717 17.5671 0.674692 -3.37258 -5.20489
1893 1 4.19578 -0.661497 20.9992 0.826083 -1.21221 -1.54324
1909 1 11.9106 -12.3507 13.4045 -2.07427 7.59711 2.57659
1914 1 19.7668 6.13505 5.46348 -0.839356 1.00297 -0.681038
3580 1 0.641289 -10.7748 7.86195 -0.364519 4.84334 -7.12036
482 1 23.6945 -3.09841 20.0652 2.19934 -6.97533 2.56729
3850 1 20.4987 -18.3024 23.225 -3.70157 -0.800697 3.4999
1935 1 17.8796 -15.1541 2.51832 4.19891 -3.16149 3.04779
2385 1 0.212984 9.19001 3.54007 2.07261 -3.92707 1.31144
1937 1 1.82042 2.59251 16.7827 -3.18399 1.71578 -4.32417
1938 1 2.17188 7.48561 17.2257 6.0075 7.97546 -1.29354
1815 1 11.8954 -4.19776 23.4858 1.59479 -6.41804 1.00537
1954 1 6.56441 6.72106 11.8517 0.846936 2.78265 0.761249
1958 1 14.9962 4.70263 16.323 2.84056 2.12301 2.32774
1965 1 16.5289 -6.71574 17.9522 -3.88239 -1.4775 7.71417
3848 1 6.6474 -15.0481 6.61932 -3.69374 0.270461 -4.72713
1973 1 14.035 -17.97 19.7934 -3.35948 0.553388 3.41025
1974 1 17.6906 -11.72 10.0278 0.920654 -5.81205 2.27822
1977 1 16.0434 -12.1276 12.246 -2.78 3.53506 -2.33246
1978 1 9.28934 -5.53195 20.4301 3.94404 -0.708769 1.57761
1986 1 14.9311 -5.80719 3.4862 -6.77305 -0.153059 -5.82832
3962 1 2.42126 -15.5076 5.4323 -0.234601 0.571261 -1.23138
1995 1 1.57373 2.6687 12.1337 -1.57893 1.4386 -3.24738
2005 1 5.02794 -3.00058 17.3144 3.7701 -4.80922 -2.70441
2012 1 18.1703 -20.2158 15.0261 -1.99319 -2.35636 1.45375
2017 1 9.2794 7.27786 23.1815 -2.51467 4.30144 -2.53434
2024 1 10.5068 9.8443 12.9758 3.52113 1.17413 2.35182
365 1 -0.274524 -16.3501 17.5647 1.53036 1.47618 0.656449
3879 1 19.2294 -15.7951 23.4667 0.537215 0.539668 4.36501
2038 1 18.8772 -0.989675 9.64092 -1.76182 3.49911 0.0767848
3138 1 19.3807 -3.99841 22.4564 1.34731 -0.684586 0.962839
3871 1 17.8523 0.0534071 21.3971 1.72843 -0.758586 4.87388
2044 1 2.76529 -5.89743 2.59629 5.84323 -2.42224 0.810574
2057 1 17.2019 -2.96462 6.54424 -1.49082 -0.508504 -0.0886816
2059 1 4.07592 -8.01639 21.7508 -3.49613 -3.53733 -1.54297
2066 1 20.7573 7.20416 8.97736 -0.985723 -0.0481851 -1.00452
2090 1 16.9488 7.13926 15.8927 0.867561 6.05631 -3.6678
1478 1 -0.0810086 5.66422 4.79012 -1.37589 1.19708 1.98152
2099 1 14.7379 -9.44052 7.11895 -0.29144 2.63044 -4.91658
552 1 0.952795 -17.642 0.612922 -3.52825 0.789428 -0.107339
2111 1 22.3368 -10.4052 21.1603 -5.3668 -1.95191 -0.855966
115 1 7.95758 9.71889 6.0241 6.18869 -0.906155 1.62559
2116 1 20.8412 -3.30393 5.04919 4.37103 2.95697 -6.90016
2120 1 17.4503 -16.9869 11.5386 2.60734 2.71703 3.52433
3014 1 22.0409 9.93067 22.4391 -0.444419 0.183408 2.10231
2135 1 15.9203 8.83745 22.9472 0.675997 -3.02116 -2.54902
2140 1 12.1599 -14.8482 18.4816 -6.11028 1.30367 -2.85306
2144 1 4.83565 -2.53281 5.61783 3.24698 3.07629 3.28624
2145 1 19.1783 9.24943 21.821 -1.10126 3.14662 3.66815
852 1 11.2047 -1.34269 0.14886 0.796408 2.64591 3.36182
2147 1 2.79724 5.32706 15.4969 1.14411 -1.10182 0.875419
2148 1 11.7624 -22.9852 20.8462 -3.14073 -2.88413 0.734473
1651 1 12.46 -17.9386 0.899122 -2.62083 1.87877 -6.89954
2155 1 15.6763 2.87262 18.2717 -1.17054 -0.835134 -3.50906
2159 1 4.04193 -20.4293 10.8086 -3.53677 -1.07864 0.234592
2163 1 6.75928 -8.00573 13.8438 -3.89299 -3.06142 -1.57115
2175 1 11.8956 -22.3689 12.4868 -5.38267 3.31915 0.747144
2176 1 9.77372 -18.9134 15.5727 4.36084 -0.896917 1.57131
2179 1 11.5676 -4.77174 7.24022 0.245778 -0.343815 -2.90211
2183 1 5.05554 -2.77159 9.21384 -0.701501 0.730077 -4.19976
2185 1 5.1013 9.89386 19.093 -0.630383 1.95991 1.25873
2187 1 16.3351 -4.36573 8.9937 -2.30157 0.566653 0.442815
2191 1 13.3544 10.3265 3.61813 2.41377 1.3403 6.89596
2883 1 10.8199 -14.3819 1.54583 -1.83815 -1.74355 1.98649
2214 1 9.8078 9.63818 21.2447 -4.26835 4.09832 0.0976522
2217 1 12.7135 -11.9479 19.7964 3.32824 3.35935 2.37686
2221 1 19.5803 4.23722 19.5983 3.85952 3.11131 -1.40616
2222 1 3.16598 8.7376 5.72999 -2.50599 2.44527 -2.14332
2226 1 20.2591 -1.27732 14.3779 0.0979519 0.492025 -2.96479
2229 1 19.3341 5.46084 15.2255 -3.08857 -3.24266 -3.70028
3916 1 20.9887 -11.6359 23.6103 4.04451 -2.71245 3.16286
2245 1 21.3524 -20.1384 8.61354 1.98842 2.73577 -3.68197
2967 1 0.841 11.2005 9.78661 1.71896 -1.99205 -0.493459
2250 1 1.10097 0.59192 8.81769 -3.50452 -1.77073 -2.34137
2283 1 23.4785 -12.0587 6.68893 3.60967 -2.89539 -3.62719
2286 1 5.75541 -8.30423 4.10523 -3.36043 -0.732414 1.55661
2290 1 15.3445 -8.61378 19.8736 3.05175 -3.67089 0.500597
2293 1 2.62931 6.48622 11.8361 -3.17347 1.49956 0.278738
2301 1 4.56595 -21.8456 20.6276 3.92694 -0.292237 -1.77384
3895 1 13.7485 -4.66476 0.853367 0.456937 1.40549 -0.816628
2310 1 6.7627 -19.1319 9.78016 0.938002 -0.94296 -1.88168
2311 1 7.04616 1.08386 2.65234 0.1501 -3.92489 1.37125
2319 1 5.37674 -9.90327 8.98275 0.270436 3.14586 -0.223398
2329 1 8.75563 6.60071 14.2412 0.993945 4.34152 -0.986987
2330 1 12.5795 -22.1161 15.1412 -1.6175 0.688248 0.512976
2332 1 20.917 -15.5676 11.5264 0.555523 4.763 1.38527
3878 1 8.78476 -20.6222 7.88037 1.44539 -0.244881 -0.317952
2340 1 10.1533 8.02571 16.2418 4.24501 -1.87251 0.961289
324 1 23.1892 3.79115 5.73785 3.19825 3.79045 1.4573
2348 1 8.80014 -1.33147 5.14516 -2.6715 7.92585 1.55829
2353 1 14.5186 -2.17818 5.98616 2.08263 -2.334 -3.72854
2359 1 8.74967 9.64625 8.92743 5.31037 2.35771 -1.26602
595 1 7.5833 -17.2335 23.4589 -2.66972 0.747738 -4.06857
2770 1 21.4396 11.0897 3.68177 -4.18526 -0.957167 1.57561
2369 1 21.5161 3.73604 14.6968 -8.24371 -4.40299 3.7056
2378 1 7.4246 -1.70839 16.6726 -4.18995 0.238101 2.61846
2380 1 11.4771 -13.5033 21.8987 -1.5899 -3.78604 -1.49983
2342 1 7.94089 -13.9563 0.733556 2.26548 8.63296 1.68143
1 1 22.6834 -22.8187 12.1304 3.09422 -3.11782 1.9195
2386 1 1.94172 -2.91484 5.97608 2.06521 0.81136 -2.73107
2389 1 8.76061 -11.747 12.8317 -1.823 -3.05448 2.63948
2393 1 5.39122 -17.2416 18.985 1.75404 -4.30716 0.159093
2400 1 11.1012 -4.59976 15.2648 -4.24718 -0.181254 -0.469713
3909 1 2.6398 -11.4231 19.7502 -3.36411 1.08593 -1.27527
2427 1 13.7223 3.7787 4.0529 3.81557 3.88116 -0.357004
2428 1 12.4231 -15.8828 14.1205 -0.542337 1.05744 -1.49365
2433 1 20.9698 -21.8411 21.5441 -2.26138 3.07959 9.72016
2445 1 0.476487 2.06841 21.1963 1.05564 3.95663 -0.99772
2449 1 17.7174 -22.7861 13.5221 -2.98903 -4.16944 -0.0137839
2025 1 3.1287 -11.6792 22.6493 0.0624162 0.344061 -1.94932
2451 1 9.03204 -21.8012 5.04537 -1.85156 7.0909 -5.55539
2455 1 12.8999 9.05884 15.5009 1.62954 -3.63795 1.08661
2467 1 2.29447 -17.7219 12.8206 -1.88661 -4.78418 -2.74784
2497 1 4.90057 7.11296 18.2739 0.43052 -3.24222 2.38664
2511 1 3.82431 4.36739 18.2373 5.12621 -3.04775 -3.52436
2513 1 22.001 9.38958 7.54522 3.04122 -0.615924 1.88065
3832 1 22.0401 -1.2368 2.29443 3.73575 0.5286 -7.09374
2515 1 1.8278 -20.1215 2.03389 -4.62568 3.22902 -4.31162
2521 1 11.4598 5.65153 17.2505 -0.605823 -3.12704 -0.65853
2527 1 6.8366 3.76164 8.9059 5.9271 1.35531 -1.23452
2535 1 15.7609 -5.46072 15.4418 -3.93694 1.65409 -1.70258
2539 1 17.3598 -13.1411 17.0881 -5.28472 1.26915 1.8298
2540 1 21.8965 -10.1282 15.1332 4.47803 -4.80818 -2.37465
2541 1 4.60266 6.86777 13.8691 -2.81193 -0.632224 -0.310024
2544 1 13.3468 3.19312 6.92848 2.09876 1.15341 -2.44744
2560 1 20.5859 -22.9189 8.55843 -2.02551 -6.18128 -2.7533
1613 1 -0.179472 -15.8351 2.997 3.07894 5.97059 4.21201
2571 1 12.521 -1.99574 21.6985 2.077 -4.18606 2.16523
2585 1 16.7075 -16.7441 20.3664 0.818447 -0.30884 -0.771358
2587 1 16.8456 -19.6024 7.8102 -0.0961199 1.65292 -0.214092
2594 1 22.7756 -7.49872 16.2828 -5.07006 -5.02658 -0.114952
2621 1 4.64859 -21.1835 5.27069 1.10952 -3.01703 5.70458
3223 1 22.9258 7.08306 17.9148 -3.64901 2.8687 3.47146
2706 1 1.75962 -19.3216 22.1622 2.34335 -2.94879 -2.32456
2645 1 5.20689 -22.5132 14.2248 0.584576 -0.756666 0.122265
2648 1 16.2526 0.668117 3.03463 -1.80325 -1.50591 -0.0457555
2661 1 5.47028 7.55885 21.1583 3.26898 1.79941 -1.27727
2666 1 19.2442 -20.8175 1.67299 -1.81311 -2.40972 -4.92745
2669 1 3.13814 -8.84438 19.1626 -4.52557 1.08711 -3.09545
2672 1 6.52153 -6.47201 11.0551 0.257334 -2.90676 6.80752
3969 1 17.4408 -22.2638 22.3339 -0.825641 -0.955512 -1.67819
2235 1 8.68765 -24.6188 12.7483 1.50385 -8.35668 1.69086
2695 1 14.5461 7.1136 14.3337 1.18978 -4.65628 5.9384
716 1 0.451613 -22.5928 8.47166 2.12772 -4.32416 -3.62096
2698 1 15.6693 -14.3172 21.1859 -1.08752 -2.76124 0.845746
2704 1 2.3312 -23.0237 1.06229 0.636309 1.23965 0.256682
478 1 2.95571 -2.40912 23.2764 2.44409 -0.399283 0.742413
2709 1 17.1758 -3.22774 18.9445 2.02699 -1.64203 -2.21831
2719 1 20.404 -10.5979 2.32994 2.43644 2.51424 4.4756
2721 1 4.01293 -12.9177 10.6501 -0.50309 -4.50575 2.27873
2728 1 21.4621 -3.64193 11.3694 -3.01862 5.43708 -0.565415
2732 1 1.60175 3.02542 7.04958 -4.85414 3.48661 -4.73775
2734 1 18.7899 -11.0011 21.8766 2.20664 -3.45093 -2.52437
923 1 4.62051 -11.3454 1.26972 -0.997704 -5.28566 -1.44139
2755 1 3.26622 -14.7922 16.2382 2.63201 2.44662 0.918121
2757 1 18.6346 -20.0223 20.6476 0.141619 -1.57309 3.80598
2766 1 9.03671 8.44584 18.6423 -0.267256 -0.372218 0.380767
2121 1 8.05683 -20.102 23.0741 -1.50575 -0.250818 3.47634
2782 1 9.15078 -9.52592 14.6449 3.82574 3.57414 0.863962
2786 1 6.42218 -3.59009 2.50582 4.33379 1.69724 2.16525
2796 1 18.8645 -15.5086 13.7886 1.76703 -3.35891 -3.06288
3898 1 19.9428 -1.31164 17.3845 -4.54953 -3.90406 4.5076
2816 1 5.65565 -14.445 17.6507 -0.996241 -2.75933 -1.83085
2818 1 1.10358 -1.47034 1.52996 0.882457 -4.87717 -5.18725
3953 1 20.9675 -19.4824 15.2361 -1.59866 -3.08743 1.34436
2823 1 12.786 -14.34 6.21611 -1.80008 -4.60479 -3.68841
2753 1 0.204749 -5.60892 11.901 0.275444 0.863106 -0.797132
2829 1 18.7167 -20.7656 9.76425 2.32292 2.27209 -0.549005
2838 1 17.6646 -13.363 23.3154 -0.570079 0.213092 1.67127
2857 1 18.3975 9.70665 10.2022 -4.71653 5.3908 3.98708
3817 1 5.12152 8.09465 1.40682 -3.32358 2.23908 -0.353939
1677 1 22.9665 -18.5231 10.7412 0.00465792 -0.803972 -3.06447
396 1 10.0647 -19.5255 3.38775 3.45421 5.54415 -1.11222
2872 1 6.2008 8.70846 9.5137 -0.16115 -0.463952 -1.04094
2877 1 12.4611 -6.26059 4.89182 -4.70671 -0.421 -1.45404
3866 1 12.7336 -16.5778 8.20997 -0.497106 -2.66045 2.60902
3610 1 13.0591 8.89532 23.6776 -3.16855 -2.76966 0.442234
2889 1 4.90127 -5.17362 7.0855 1.87436 6.2099 -0.138298
2891 1 7.19189 -5.49585 14.5371 1.91658 3.05924 -4.59031
2906 1 11.3524 4.16725 19.832 0.381579 -1.43174 2.62283
3827 1 0.0160601 5.86789 17.8345 -2.46418 -1.40504 3.10702
2914 1 2.25298 -0.992529 10.9728 0.568545 -3.25141 2.42022
2925 1 19.2596 -8.50162 12.2487 -1.51269 2.222 -6.42221
2751 1 9.5288 -24.2519 7.71293 -0.115163 -1.70645 2.41456
2929 1 5.42599 -12.5315 7.92411 -0.526508 1.15834 -2.17139
2931 1 1.40948 -7.20983 22.9489 -0.21607 1.11301 3.07008
2384 1 7.87609 -11.7952 23.314 5.56844 -0.215733 0.756046
536 1 0.48827 -7.76671 2.61978 -1.81124 0.80315 2.27164
2944 1 7.88051 -23.2668 15.1153 5.47361 6.44983 -0.11843
2946 1 14.058 -2.49465 11.6862 -0.464368 -1.1701 1.27502
3899 1 7.0301 9.96091 16.8228 -3.91956 -4.43739 5.35265
1485 1 10.7431 -11.1733 23.251 -0.0282329 0.922282 0.0044601
2955 1 11.4494 -9.1926 16.1349 0.69372 -4.16722 2.53946
2957 1 0.810439 -19.7794 13.8503 2.68969 1.34104 -1.21654
691 1 -0.455213 7.59969 14.3158 -4.72752 -0.717361 3.45104
3875 1 23.1177 0.85965 5.54863 0.903598 4.58607 1.74741
2979 1 6.45746 7.49317 15.7569 -0.651711 -0.487923 -1.31206
2990 1 13.4513 -17.0276 16.785 -0.200767 -3.0844 5.63055
2991 1 4.35217 2.55592 11.7872 -0.116198 2.17329 -0.576128
2994 1 19.5729 1.65996 13.634 -3.1257 -3.15768 -2.60141
2996 1 12.7526 6.03123 5.71377 1.88052 -1.27496 3.22802
2998 1 1.49716 -15.1105 13.8266 -2.01809 1.99367 -1.13754
3013 1 13.2834 -19.0949 22.6393 0.310533 0.157103 -1.35489
3022 1 14.8811 -11.5668 1.86082 -3.81268 2.72047 -1.34913
3024 1 23.1538 6.59247 2.55924 0.572185 0.759416 -1.31581
3025 1 2.91721 -22.8042 9.42115 -0.0230339 1.39139 -2.6857
3026 1 0.0713901 -21.8505 5.68671 -4.93883 0.38025 3.39644
3027 1 13.6587 2.81315 11.0033 -1.78757 1.15127 -1.18656
3029 1 7.01843 4.32033 13.8043 -0.0842512 -2.91302 -2.53938
3839 1 18.6083 6.35987 2.48761 -1.14486 -5.80556 -0.875013
3040 1 6.63503 -20.6987 12.5937 0.998999 0.451278 -0.733395
3048 1 8.51829 -11.2036 19.4743 -4.00695 -0.783573 -5.02292
3050 1 2.72215 -22.6955 18.3771 -0.895979 2.32569 4.42026
2383 1 23.4222 -17.6393 6.52267 -1.99851 -0.834702 -4.45609
3055 1 19.0146 2.83929 6.86762 -0.633423 -2.31005 -1.62142
3057 1 17.1651 4.68435 20.8111 -7.18817 2.8354 1.04477
3058 1 12.1586 -5.82887 9.79937 -0.0849052 0.120205 1.73078
2827 1 5.46418 -10.2603 23.4295 3.22637 2.58867 2.19468
1558 1 6.92686 -16.8255 0.326306 -3.0634 -1.55319 -3.24347
3072 1 1.51642 8.95572 19.447 -2.5764 -1.22777 1.38822
3088 1 12.591 3.2937 15.794 -1.43998 4.6346 0.122
3089 1 11.9259 -18.5961 14.1013 4.91478 1.52375 1.10379
3094 1 14.3429 4.05643 20.5186 0.345468 -4.96483 -4.2282
3102 1 3.03397 3.09497 21.5296 -2.56633 4.30575 1.71669
3107 1 21.4548 -14.3048 22.5943 -1.51446 -3.80567 0.07056
3109 1 2.98022 0.26477 2.37315 0.802344 0.396359 0.524459
3110 1 6.48982 6.00615 2.32498 2.51945 4.32176 -0.103145
3118 1 4.69915 5.29063 7.50587 1.74482 -0.0612118 -3.11017
3127 1 15.6731 5.74821 2.90412 -1.62662 1.70811 -2.51751
3130 1 23.1294 -10.1921 10.5179 0.807876 -1.89094 2.54837
2601 1 -0.417405 9.63891 6.43787 -2.59131 3.42672 -2.65857
3145 1 19.9327 -17.9437 10.1981 -1.45623 -1.55617 0.11914
3148 1 8.11572 -5.58245 5.07356 0.782144 2.29878 1.70049
3156 1 22.0954 -3.91939 7.37821 2.85958 -4.93965 -0.0409915
3157 1 10.037 2.76935 4.92444 -0.525283 -1.28016 -1.36504
1719 1 21.6864 8.44315 0.790769 0.710646 0.746109 2.77703
3166 1 18.8828 -10.1845 14.7656 4.86045 -1.91837 0.734445
3176 1 22.2577 0.758198 14.6005 0.69932 -0.432277 -1.76618
633 1 7.83251 9.76212 23.531 -1.47326 -0.225716 2.80732
3184 1 14.558 -2.94926 3.1787 -1.50565 2.38499 -4.25297
3683 1 5.42376 10.6911 4.58216 3.8529 0.305417 3.6642
3858 1 15.4654 7.1764 5.56926 1.49091 1.59543 0.0499507
2447 1 1.80132 -12.4107 16.8673 1.62796 -2.23212 -0.795216
3203 1 16.6014 9.07431 20.3807 -3.55704 3.90441 2.58738
3208 1 4.88496 -7.67795 1.3299 0.0747587 -2.21153 -1.63966
3209 1 11.5688 -17.1798 23.7497 -1.01077 0.656825 1.55994
3215 1 13.0346 0.307436 12.3071 -3.55063 2.05256 -3.52992
3216 1 21.6541 -1.52458 9.1873 0.646286 4.02266 0.298149
3217 1 11.4571 2.52914 9.1949 -4.22812 1.28707 -3.35317
3825 1 21.3222 -14.3822 9.12481 -0.564923 0.484035 -1.74258
3246 1 17.2115 5.47983 7.04822 -0.132057 1.02124 3.32399
3942 1 9.93709 -21.5658 16.1803 -0.64262 -2.49167 -1.9135
3249 1 10.2951 -0.645914 12.4349 2.48623 -2.58356 3.38318
3252 1 17.0251 -24.3562 16.0154 1.17822 1.70385 0.20598
3262 1 10.6599 7.12871 12.3576 -6.22961 1.5061 -0.818226
197 1 23.545 -3.97736 22.8756 -3.22553 1.67013 -1.72442
3199 1 13.2654 -23.8085 8.62197 3.2645 0.808105 0.287562
3266 1 10.3004 -2.80316 20.5669 2.83959 -1.98067 -1.72784
3268 1 9.10281 -21.8493 11.6567 -0.446807 -1.75116 1.85063
3270 1 20.2294 -16.964 16.1105 -0.48563 -3.25805 2.5382
3271 1 7.76 -9.29167 21.7423 1.94018 -0.615398 0.0520962
3274 1 13.3993 -19.113 5.09686 1.85415 -0.142535 0.72056
3275 1 22.8732 7.36299 10.8713 1.40085 -2.79892 2.8102
3276 1 10.9728 4.41593 13.4796 5.51648 1.51594 3.29756
3279 1 9.20776 0.139585 14.9667 -3.11007 -7.41592 -2.13669
3915 1 7.22357 -2.51928 7.25298 0.809215 2.27172 0.431855
3309 1 3.46174 -3.64098 11.6105 -4.69649 -0.61887 -2.3205
3313 1 16.0847 9.43953 13.1272 -1.9071 -1.7652 5.38996
3821 1 13.6245 -11.1351 15.505 0.203663 0.720702 2.48465
3317 1 3.56831 -0.61987 7.41154 2.71508 3.10628 -0.888252
3814 1 2.39878 9.20264 10.9915 1.47213 1.9712 0.526486
3336 1 12.8824 -16.0286 3.0114 -5.9929 2.14221 2.54544
3424 1 2.50269 -9.37831 1.01996 4.9284 3.39101 0.982039
3344 1 17.3867 -21.8038 17.5362 2.26219 1.59424 -3.81477
3905 1 1.25273 -10.4026 3.54824 -1.78822 0.978438 -1.21165
3357 1 6.71608 -6.81375 21.3376 0.858773 -1.49939 -0.356504
3853 1 20.0825 -13.6612 3.00065 -1.10521 0.0421533 -2.41443
3368 1 22.1035 -21.1237 17.3902 2.08568 -1.21793 2.88165
3373 1 13.7263 -6.16955 19.065 1.84436 2.66364 6.11408
3919 1 9.45875 -13.9579 19.8016 3.08656 3.59708 0.644909
3377 1 5.677 -12.07 12.8431 2.13996 -0.704254 -1.59804
3379 1 9.32012 -7.34012 10.091 1.77376 2.23828 4.3624
3995 1 5.14019 -23.4025 2.22197 1.86323 -2.56443 -1.8254
3395 1 15.2072 -14.8676 11.4301 1.18553 3.43212 5.42441
3399 1 1.2076 -3.69129 3.25252 -1.32855 1.24055 -0.618301
3405 1 15.4225 4.18219 13.3316 -0.474772 -2.53329 -7.22541
3406 1 5.14016 -5.37194 4.30758 -1.84067 4.60969 0.193106
1168 1 11.3396 -8.93029 0.659626 -0.570983 3.7088 0.724114
3429 1 2.44108 -19.172 16.1943 0.658034 -4.22356 0.0548394
3439 1 1.1438 -13.617 11.7 3.19038 -1.80317 0.412219
1627 1 18.2397 -6.26147 20.5827 -0.874358 3.19512 -0.65136
3465 1 2.25715 -4.97649 14.0126 0.952871 -1.26668 0.273714
3474 1 21.54 -7.0108 13.2841 -0.632923 0.444246 2.99092
3478 1 10.5095 -13.5728 4.32698 0.949708 4.38605 -0.294659
3479 1 18.1672 -6.41121 8.42957 -3.90022 3.4823 0.887467
3492 1 19.3416 -1.08432 3.51195 1.74737 0.105079 0.000201901
3926 1 9.36341 -6.01458 23.6098 0.404349 -4.08402 0.808634
3503 1 17.4382 -21.8292 3.38911 -2.98161 0.6153 -1.10917
3505 1 1.39299 -13.5036 3.43799 -2.23012 1.42287 -3.83565
3515 1 15.6002 -17.4635 9.14415 2.95909 2.22448 -0.0536166
3531 1 1.80191 5.31125 20.2002 0.584169 -0.0211956 -2.35535
3834 1 7.76396 6.50721 4.90633 -3.59498 0.41202 -1.02491
3534 1 5.28177 -4.68276 19.5938 1.18251 -1.77469 3.74047
3908 1 23.3583 -16.4216 12.9156 -1.33319 0.384549 -1.55001
3538 1 4.62178 -5.16305 15.7668 -2.63402 -0.983947 -2.8946
3542 1 19.0039 1.66573 4.16889 -0.434938 2.58874 7.34236
3559 1 9.718 -4.14702 10.4491 0.150649 2.13684 3.44712
282 1 13.2014 10.526 12.7545 3.16196 2.36088 0.139488
3567 1 3.4988 -9.68317 4.99209 -1.54571 0.556162 -0.923123
3568 1 17.2724 -1.57213 14.3285 -0.903688 2.4648 -1.62648
3576 1 18.1285 2.93503 15.3175 -1.57455 2.97566 -0.678035
3578 1 21.3607 7.94657 20.1395 -0.800797 -3.76757 -1.8569
3981 1 11.2565 -8.79981 6.09192 -4.22409 -1.43397 4.09619
403 1 14.2999 -1.63898 23.922 -1.83511 2.82213 -3.87131
3585 1 11.457 -1.96185 10.2566 -0.444056 2.02282 0.242683
3594 1 12.0453 0.977631 5.72314 -7.60206 -2.13044 -2.34711
3609 1 7.60394 -10.9955 7.06753 0.989755 -4.9091 4.22471
3622 1 7.59364 -14.0486 9.49251 -5.54428 -4.56807 -2.3308
3623 1 11.5977 -1.66145 15.1529 -3.23989 3.45579 2.55645
3624 1 22.8168 -8.10606 4.3432 0.374753 -2.4108 4.10417
3625 1 10.4541 -18.6139 20.3457 3.57243 2.30147 -3.20053
3628 1 10.8427 0.0221856 8.16223 1.16762 -0.671588 -3.30947
3811 1 13.9257 -14.0613 23.3303 5.28524 3.16158 -0.415973
3638 1 21.4368 -6.17952 22.5538 -0.544511 6.48595 -3.80132
3639 1 6.63339 -18.6026 6.81024 -1.51035 1.33441 0.110048
3643 1 2.13057 5.0695 8.8266 -0.132244 2.12194 -1.07803
3647 1 18.3442 -19.9304 5.46777 -1.42483 -2.57072 -0.963313
3652 1 22.4546 -12.944 14.9992 -1.34519 5.08962 -0.0428227
3660 1 15.6957 8.88887 10.0036 -4.04239 0.739594 -3.09652
3177 1 0.227747 -11.542 23.2226 0.285299 0.782336 1.98366
2114 1 0.0555903 -23.115 20.0752 0.323438 1.77223 2.93318
3528 1 23.7181 -24.0238 0.216919 0.427231 2.05727 -2.10087
3867 1 21.7525 1.62064 3.14441 2.54944 -2.97152 3.37328
3687 1 10.0114 -15.6908 9.27421 2.39411 -2.09722 0.125986
3697 1 9.91077 5.22768 6.08595 3.89028 -0.663653 -0.261568
3701 1 17.1051 -2.59404 10.8714 4.60997 0.448564 3.52709
3704 1 18.9356 -3.36254 12.7719 5.79648 1.73228 -0.0337997
3705 1 5.3972 -1.19426 3.13996 -3.57639 -2.97898 -6.01298
3708 1 5.94393 1.35968 7.8553 -0.821383 1.39685 1.09216
3722 1 20.3333 -7.73715 5.5247 -0.426386 -0.477854 -3.90674
2371 1 15.3606 -18.7937 0.63016 -5.3762 2.62935 0.453964
3730 1 14.0928 -5.2756 11.7985 2.13751 -1.06999 -1.30478
1042 1 13.0893 -6.72828 22.7224 -4.70282 -0.177886 3.35422
3739 1 0.737979 -4.60417 7.68013 0.0689552 -0.122843 1.40901
3743 1 5.52666 -14.6589 14.2166 1.60327 -3.21981 -3.32206
3745 1 3.41218 -10.1124 10.9369 1.90636 1.42452 -2.23859
3762 1 9.04417 -11.5528 9.62589 2.06276 -3.97496 -2.70559
3763 1 12.1218 10.0457 6.20366 -1.57976 -2.51141 5.69023
3764 1 17.4582 -11.1694 19.4142 0.241915 -0.3205 -4.27148
3773 1 1.51434 -2.78743 15.8294 1.24814 3.99251 -5.61011
3776 1 8.63494 -4.21549 16.7291 -3.33725 -1.80419 -2.94167
3784 1 13.058 0.737722 3.00575 -1.3362 3.6425 0.160972
3786 1 19.944 6.66506 17.9208 1.34567 -4.53756 -0.318434
201 1 5.48543 1.39972 22.5235 1.09841 4.05937 -1.48808
2840 1 4.21161 -18.4629 23.5071 -1.22154 -2.4261 2.46856
1928 1 23.5598 -2.19383 5.00002 0.857287 -0.806913 2.71836
125 1 16.2013 9.10543 0.349093 0.370094 2.31228 -3.25029
1103 1 23.7142 8.5582 15.6149 4.84016 -4.01185 -2.71023
3682 1 23.6788 -23.6249 17.2798 4.81511 3.80614 5.47591
1591 1 14.0717 11.1281 0.753322 -4.95629 3.98196 3.35103
2622 1 -0.23054 -17.2384 21.7465 2.97415 1.3522 4.97839
62 1 -0.259893 -10.3045 16.9376 -4.48415 0.132082 3.20816
1742 1 -0.419585 -5.37709 19.7243 -2.58053 -6.93071 0.480107
255 1 23.3495 -22.3937 9.41058 -0.148902 2.71058 2.12433
3841 1 23.6744 3.38336 11.0255 -0.673777 4.42423 -3.73672
375 1 23.6656 -7.97559 22.7146 -2.21425 -0.254561 3.8711
2604 1 12.6002 -12.4793 0.184288 1.9705 -0.665835 4.99439
2306 1 -0.107474 -3.301 23.7145 -1.4883 1.76732 -0.976905
3096 1 4.59744 6.57919 23.7642 -4.79572 1.24713 -3.77499
24 1 10.6001 21.0124 -3.67998 -3.84589 -1.53102 1.66629
85 1 6.02589 14.3562 -2.21725 -1.93053 -1.87944 -1.78352
1820 1 15.4553 12.2266 -9.98897 -0.635803 -2.42179 1.64305
91 1 17.7945 18.8123 -19.5956 0.416522 2.45952 0.459401
105 1 4.61451 18.2205 -19.7175 -1.23201 -1.67088 1.42968
117 1 20.589 15.5448 -19.9819 1.93104 2.40834 0.376876
166 1 8.25972 18.9328 -20.1438 6.83097 2.88123 4.61714
2487 1 3.70888 18.2193 -1.07625 -2.16268 -0.00723559 -4.18944
169 1 5.17007 24.5854 -12.2181 1.79869 -4.0511 0.17103
183 1 20.9305 14.4425 -2.51474 -1.44005 -3.10989 3.23244
186 1 14.8582 24.8109 -11.3612 1.44822 -1.47052 -4.87245
194 1 1.20016 23.9775 -19.2944 -1.9324 1.05453 -4.7259
722 1 7.93057 46.6342 -13.4514 0.210265 2.46495 -1.49734
252 1 20.287 15.3703 -12.5101 5.88502 -2.75096 0.0552155
271 1 3.3777 22.7455 -13.2181 -3.31982 -0.417768 -2.68359
275 1 12.1197 22.4072 -20.5303 0.649614 -0.743668 1.20867
2094 1 22.5644 12.2234 -2.48648 -0.0762971 -2.06949 0.602206
306 1 13.5306 20.525 -12.811 2.05274 -2.86237 4.20034
2935 1 9.10069 23.3498 -0.254615 0.787151 2.5493 -2.89028
336 1 18.6702 15.5127 -22.439 1.65336 -0.831843 1.35723
354 1 9.71338 20.9811 -6.28474 -3.06978 -1.90848 -3.43442
367 1 6.96375 17.8674 -17.6528 -2.20391 0.608748 -0.707796
380 1 12.7309 15.9918 -21.1763 0.275891 2.89357 -3.26675
382 1 16.4479 17.2873 -3.04496 0.554037 1.6195 2.26974
414 1 4.99795 18.8045 -15.8074 -1.88016 2.13412 5.74268
428 1 11.0316 12.8848 -6.594 -3.63078 -0.535263 0.379655
437 1 19.0307 17.669 -11.1094 -1.37153 -1.27901 -0.83565
466 1 14.2234 12.9289 -22.2786 -3.7086 2.61703 -5.38137
2415 1 22.2956 47.021 -23.7774 1.7871 -3.1104 -0.0529799
3902 1 12.8198 11.3612 -8.59944 0.375626 0.905929 2.91223
1318 1 23.0567 20.1625 -1.39391 -3.92301 2.02105 -3.14084
507 1 12.7993 20.0823 -15.4876 3.48337 -4.41005 -0.529542
509 1 22.8098 14.3851 -18.8793 0.182112 0.0735761 0.815608
554 1 3.34549 16.0268 -18.7659 0.327422 7.71908 2.47251
690 1 -0.2849 22.6151 -5.84732 1.8079 0.754257 -0.015847
586 1 16.5937 22.7923 -20.4003 -4.89477 -1.45116 -1.45137
635 1 9.20216 13.0237 -4.21915 -0.989229 2.66168 2.11263
638 1 14.4987 18.5204 -4.63117 1.50097 -1.08102 2.44855
68 1 -0.253509 13.8443 -20.1623 -4.09048 0.000936963 -3.04801
680 1 7.24884 24.4261 -10.2587 2.13971 -0.93043 3.61136
3703 1 18.0466 12.8009 -23.6573 -3.05559 -2.5664 -3.42328
703 1 4.12124 25.8317 -21.4548 1.61719 5.96123 1.24023
705 1 5.29981 21.4897 -14.7923 1.30046 -4.88237 -4.16208
736 1 5.59272 20.1656 -7.34744 -3.48162 4.75915 -0.146378
784 1 12.6922 14.8815 -2.58657 0.843532 -3.89478 0.590302
787 1 9.48076 14.1996 -13.0428 -0.990031 -3.29167 -0.859639
468 1 22.8603 16.39 -9.68613 -5.43678 1.85534 -1.99122
2443 1 5.74248 11.4581 -21.8426 -6.26438 -1.98206 0.365911
807 1 15.5275 21.2294 -22.5006 -1.66227 2.28832 0.83739
862 1 2.41819 14.5957 -8.03649 0.489202 3.73207 0.281848
3765 1 22.2541 46.2732 -1.96444 -2.21387 2.04077 3.29689
2847 1 8.08576 14.8863 -0.120032 0.214086 4.71792 1.67599
883 1 16.3537 19.5838 -6.59773 -1.8469 2.12693 -0.179523
920 1 0.471461 13.919 -23.0725 2.94343 5.99819 1.16895
2460 1 8.45099 12.283 -15.0547 -0.611961 -2.73335 4.31113
1781 1 6.27392 20.2205 -22.7457 -2.96371 1.14195 0.0188854
475 1 19.0479 11.2672 -21.6315 1.22722 -0.0299243 3.59261
979 1 5.20107 24.7223 -18.7604 -2.02974 5.19327 -1.59203
1000 1 17.5241 19.2149 -9.41561 -0.167823 3.9601 1.80279
2975 1 17.4572 11.4474 -1.13749 2.42955 -0.793068 0.635043
1035 1 13.3011 21.4434 -4.4709 3.13671 -4.67193 -3.43456
1039 1 20.3235 22.3997 -9.23619 -0.0132887 2.07739 1.36442
1046 1 17.1153 13.8682 -16.4908 -0.404802 0.903435 2.62817
1065 1 14.3949 18.9884 -18.3859 -2.22057 -1.82966 1.10531
656 1 0.00145958 23.6023 -10.5149 4.45406 -2.27602 3.99361
1096 1 8.67569 19.3639 -12.2903 0.618373 2.33441 0.937911
1127 1 12.5786 20.6351 -7.1345 -1.52393 -5.13278 -1.35153
1165 1 18.138 21.4906 -1.08564 2.51673 0.257095 -4.68427
1181 1 8.10347 20.1563 -8.62965 -0.721678 -0.212885 -1.96815
1194 1 8.79393 16.5629 -6.87847 -0.484439 -2.72526 3.99355
1196 1 5.08284 16.8383 -13.8301 2.34819 -2.5928 1.25805
1221 1 1.44641 21.2631 -20.4077 -1.86757 -5.09055 -1.12218
1810 1 11.361 46.9373 -6.1993 1.21577 1.18434 1.31115
1243 1 7.35242 17.5341 -22.3025 0.333577 0.729294 2.43853
1249 1 6.89207 14.8225 -21.876 0.921665 -1.53458 -2.49153
1253 1 14.0932 25.1152 -2.35997 0.0244367 -0.0773609 5.65134
1274 1 22.3462 19.0863 -20.3772 -1.36893 0.964479 2.8092
1301 1 10.6879 15.7975 -10.3138 1.57198 0.956772 4.35427
74 1 0.422217 14.2597 -12.9182 -0.136308 1.07389 3.41467
1336 1 2.02416 20.0228 -6.34338 0.222886 -0.113971 -4.69441
60 1 0.873432 18.9095 -22.1298 -0.259004 0.367738 2.48596
1348 1 2.9306 12.194 -16.9401 0.98818 -4.08949 -1.46535
1380 1 16.5315 20.147 -13.2135 3.21789 -3.74854 -1.21477
1384 1 3.43179 20.2731 -11.4426 -3.60437 -0.421912 6.00372
1397 1 5.01085 23.8917 -8.31912 -0.518578 4.63701 1.87549
1398 1 3.75485 20.7249 -4.35085 -4.43479 -2.93326 0.56544
539 1 19.8784 13.7888 -8.65349 0.200248 -2.1417 -2.54176
1419 1 10.0521 23.794 -3.15064 2.90223 1.22046 0.263657
1423 1 5.23465 21.9388 -19.4716 -3.79883 -2.0942 -0.924974
2137 1 16.4511 16.8572 -23.7418 -3.88489 -0.430092 0.489387
1435 1 19.5095 23.6977 -6.86308 -1.23806 -1.11347 0.989467
1437 1 2.93829 15.2662 -22.2122 2.09553 2.44524 -4.57758
3882 1 22.8604 16.5189 -2.50651 6.30115 0.990277 -3.66231
1451 1 11.2671 23.1468 -11.5155 -5.04918 -5.45961 2.90047
3140 1 1.12765 16.3431 -20.4321 0.315905 -2.52129 -1.85546
1480 1 1.25899 13.6803 -3.5024 1.25212 -0.233324 -4.58443
3978 1 0.483828 19.8329 -11.9521 -6.29862 2.81898 1.74628
1501 1 8.92415 17.2476 -15.7569 -1.23195 -2.06557 -1.22979
1503 1 8.03245 23.9748 -23.3063 -0.448118 -2.82877 -1.42217
1506 1 14.194 13.5881 -0.698905 2.23534 -2.72772 -0.218456
1509 1 10.355 18.5683 -9.78835 -2.38196 1.86736 4.81512
1561 1 20.4538 19.5781 -8.33969 -4.36509 3.60112 -0.188404
1564 1 9.15732 14.3206 -8.36703 -3.46895 -2.88817 2.4467
1568 1 19.5932 19.821 -12.8344 0.300767 1.06622 1.75552
1576 1 11.9391 20.5328 -18.3328 4.17085 4.23748 2.02608
1588 1 3.79888 18.7131 -22.5043 3.07818 1.13217 5.42663
1593 1 2.84067 24.5951 -17.2809 2.38413 4.05792 0.329711
1595 1 7.91072 15.6277 -4.32318 -2.6233 -1.11608 4.38447
1601 1 6.07923 15.0769 -17.7813 0.141157 0.75854 0.182997
1624 1 3.75557 21.7315 -22.1162 3.15831 2.80402 -0.83373
1625 1 12.9801 13.7902 -10.7156 1.19095 0.807073 -2.93753
1633 1 19.8897 17.9198 -21.6282 3.16914 4.33295 -0.977486
1855 1 0.00075888 20.7838 -15.4459 0.0728662 -0.431379 -3.29176
794 1 5.06816 16.2834 -23.8272 -0.0520942 3.49651 6.71994
1678 1 3.06233 20.448 -18.4477 3.61563 1.59093 5.4285
1683 1 14.0459 22.3599 -17.0097 0.548505 -2.62276 -1.43998
1701 1 11.942 25.6483 -5.89431 4.06587 1.21925 -0.668034
1709 1 19.1895 17.7499 -3.32516 -9.23229 2.63081 0.842867
1712 1 11.2074 13.5132 -20.3725 -3.36093 1.01747 4.76238
578 1 23.6008 21.0012 -22.0097 -1.80417 0.0822346 3.02911
1744 1 15.793 22.8862 -9.52726 2.07553 1.3425 -5.54504
1745 1 6.52018 13.2529 -7.87776 0.940481 -0.0435494 2.68437
1746 1 17.332 23.8768 -12.776 -6.7291 -2.40041 1.42138
1752 1 23.2524 16.1194 -21.0832 0.946284 8.3971 0.845397
1775 1 8.51363 13.0094 -10.7827 -2.39199 -3.47029 0.955511
1776 1 10.1997 13.4486 -1.76307 0.433361 2.49453 -0.107428
4151 1 0.0974429 32.1734 -9.83995 5.74924 -3.16743 3.57234
1787 1 6.08187 20.7793 -12.1249 -0.186456 -1.42481 2.27856
87 1 2.23813 17.5025 -7.74658 -0.884581 -0.325631 -1.03077
878 1 7.95313 12.5056 -23.7229 5.35974 4.37474 -1.65721
1845 1 21.8437 17.1105 -23.6121 3.5331 -2.82476 -0.80419
4175 1 -0.396755 36.8252 -9.64341 -1.38285 2.48749 -1.33327
3684 1 14.0059 15.3627 -23.6158 0.041361 8.29422 -1.05406
2352 1 0.200824 21.7173 -23.2286 -10.1137 -2.95766 -2.39773
4127 1 0.0885254 28.0366 -9.71186 0.551053 1.64075 -3.70693
1921 1 17.1429 15.0318 -4.73687 -0.106392 -1.38806 -0.782286
1943 1 3.55024 15.6625 -3.3257 -5.80253 -2.76974 -5.28923
1950 1 22.015 22.6522 -5.81303 3.9384 2.15207 -0.463405
1964 1 20.4811 23.7104 -16.2211 -0.437824 -4.88564 1.3114
1981 1 16.2983 23.0799 -2.77269 -1.04585 2.75865 4.15813
1993 1 4.35531 13.8732 -13.0512 2.76331 -4.69083 1.95878
2027 1 6.22263 17.6507 -11.3914 -3.96348 -4.94813 3.48104
3272 1 3.039 13.0714 -5.78355 -1.72387 -0.423626 -2.00626
2048 1 1.8616 14.6484 -16.8384 2.60642 3.4652 -3.41714
2049 1 16.3662 20.8771 -18.3153 -1.90887 2.21003 0.418585
2089 1 8.59856 14.3539 -19.2985 -2.1557 -2.74826 1.11498
3073 1 3.14432 22.6251 -1.08582 -0.998247 2.97718 1.79597
2138 1 15.9869 22.3545 -14.8258 3.31024 -2.99298 0.172665
2152 1 8.30926 23.2765 -5.48399 0.789906 6.13058 0.217151
2165 1 19.4947 19.1117 -15.7173 -0.677718 0.500077 4.20921
2480 1 0.581127 21.7406 -8.48418 1.71225 3.08788 0.303628
2184 1 15.0017 16.4554 -19.477 0.344499 1.63783 -7.1357
2189 1 3.3845 17.5847 -10.5709 -0.276052 6.4035 1.42832
2198 1 5.5353 14.5908 -5.32168 5.03749 -1.37538 6.10579
2208 1 17.6316 21.9871 -5.14358 0.380624 -1.10601 2.51593
2215 1 10.4195 18.9842 -1.65484 -0.258938 -4.03737 -1.24588
2220 1 0.949303 18.2929 -14.3743 -1.7703 -5.10747 1.1248
2230 1 1.76097 20.4995 -2.15268 4.96083 1.26558 1.05926
2238 1 14.3988 13.3618 -15.9436 -3.7599 -0.742386 -3.86857
2243 1 12.161 25.3566 -9.92709 -0.656515 1.48453 -0.475654
2244 1 23.2808 20.9522 -14.8841 2.82774 3.12091 0.028306
2246 1 2.50399 18.3066 -16.8203 -5.21068 -2.42493 3.49183
2256 1 15.8231 18.5393 -21.6743 0.480452 -0.909313 -0.665426
2260 1 20.2492 16.9405 -17.3281 0.0290767 -1.14071 -0.57649
2345 1 7.16793 15.1643 -15.0582 -4.21684 -3.43934 1.92593
2394 1 17.697 16.9743 -6.66755 -1.23362 -5.46852 -2.3353
2402 1 16.218 14.178 -20.9334 -0.919471 -6.06552 -2.86635
4352 1 9.38357 44.1333 -1.63398 0.258777 -2.83732 -0.520573
2432 1 17.9547 12.7904 -19.1062 1.40562 4.86127 -0.963452
2452 1 13.1054 16.7149 -13.5408 -0.249691 5.68834 -0.346262
2464 1 9.76776 20.21 -14.7797 -3.82946 -2.81854 1.87117
1548 1 16.3971 46.6903 -10.2241 5.41254 7.1584 -2.13726
2489 1 8.49012 21.8774 -10.7713 -1.36227 0.837171 3.24015
2493 1 19.1692 22.297 -20.7148 -0.463649 -4.27759 0.0105201
2503 1 16.1918 15.7599 -0.723088 -1.93747 3.58208 -1.40839
2508 1 13.2958 23.6463 -7.79 1.7586 2.41485 3.57488
2524 1 7.8394 21.7448 -20.9709 -1.20972 2.17196 2.30356
2549 1 5.58658 12.6146 -15.7523 1.31359 1.48236 3.08903
2554 1 16.8653 24.0522 -7.19978 2.36919 1.19435 -1.76923
2555 1 4.79769 17.4143 -6.21674 -1.55341 -2.59882 -4.87168
2577 1 14.1737 21.1714 -1.59253 -0.178835 -3.90687 -0.248231
2640 1 4.65023 13.9445 -20.5336 1.78807 -4.24349 0.3274
4252 1 9.94985 26.1662 -0.360098 3.4317 -0.600166 1.68788
2676 1 20.2886 20.1779 -18.6594 -1.96581 0.879544 4.01793
2693 1 6.64146 20.7038 -17.4317 1.69776 -2.4297 -3.47014
168 1 21.8005 22.1926 -2.68671 -2.98369 -2.44183 -2.1138
3473 1 22.8798 23.1755 -20.2026 3.22515 -3.39973 -2.59985
2764 1 9.77208 23.011 -14.0153 -2.63136 5.42708 0.464518
2791 1 19.8091 13.8024 -5.04942 2.46479 0.818376 -0.850282
2794 1 6.74958 17.5613 -8.51849 -0.730745 -2.23397 -0.233795
2795 1 20.3006 13.3763 -17.7417 1.20049 -3.15251 -2.7022
3482 1 16.3655 19.1961 -1.20483 1.11918 -4.66184 -7.88474
2810 1 7.09984 23.8746 -14.036 -4.25575 0.935588 -2.70946
2825 1 12.2695 20.8233 -10.0092 -0.627212 -0.311056 -4.48732
974 1 0.325991 22.4149 -12.9505 -1.07462 0.28252 1.89782
2916 1 14.8425 20.0604 -9.03858 0.950319 1.34927 5.12345
3604 1 10.5213 11.8532 -22.3957 2.14033 -1.076 0.128412
3719 1 0.0650963 14.9003 -6.0606 4.72948 -3.17541 4.47158
2978 1 14.3549 17.6239 -15.8977 -3.46848 3.18213 -0.666111
2989 1 21.9136 17.7391 -13.9618 -5.10252 1.58755 1.20708
1482 1 5.03454 24.1062 -23.3 1.06968 1.68533 -2.11072
3004 1 17.1283 16.5338 -17.5697 4.23079 -4.77765 0.624662
3023 1 5.01934 18.2883 -3.61372 -1.88961 3.58533 2.97791
3063 1 9.73256 24.0902 -17.4769 -0.0873673 -0.18115 0.435919
3067 1 17.9764 15.3567 -14.0831 -0.353186 -1.03934 0.950578
3068 1 21.0087 18.0356 -1.11236 -4.32032 -3.65421 2.59215
3511 1 15.1344 11.9415 -2.76636 2.43595 -2.00924 0.414323
2731 1 23.7589 21.7562 -7.88556 6.15399 0.148627 1.94788
3142 1 1.23767 25.9124 -21.3287 3.43975 2.06912 0.431681
3143 1 20.948 23.99 -22.2711 2.9195 -2.57405 0.711047
3183 1 20.5039 16.7693 -5.66733 0.687523 -3.4883 -0.532289
3206 1 15.6721 12.6838 -5.47086 -1.12728 -1.92882 -4.469
3227 1 5.57428 22.4846 -5.74608 0.00827295 4.53628 4.19325
3238 1 21.143 19.8925 -5.64321 1.16356 2.12413 2.00438
3244 1 21.2018 15.0932 -15.3339 5.91121 2.15705 -1.22093
3269 1 7.89204 17.8874 -2.69331 7.10917 -5.41891 -1.495
1405 1 19.3217 20.3651 -22.7855 -2.24167 -0.802091 -0.252037
3284 1 14.2944 23.9371 -19.5626 -3.3463 5.12024 -4.33364
3285 1 2.63162 22.1302 -15.8874 -0.0638364 4.17836 0.534916
3291 1 21.3781 21.995 -13.0604 1.83686 -5.06973 -2.20729
3339 1 10.989 18.121 -19.6278 -5.86353 -3.06184 0.904354
3341 1 22.3323 18.8626 -16.7039 -0.183743 -2.65984 -2.26497
3345 1 12.8192 21.4722 -23.1178 -2.62887 -0.871294 5.47325
3349 1 14.5066 18.088 -11.419 -4.49567 -4.56129 -0.864048
3421 1 10.2241 16.9894 -13.1418 0.673735 -2.58201 -4.22909
868 1 1.29286 17.372 -2.6623 -1.47714 -5.37424 1.03835
3434 1 13.6525 16.0947 -9.23541 3.10484 5.24269 2.18378
3437 1 13.1968 16.8588 -6.55782 3.32715 0.335267 0.751215
3440 1 3.36195 21.5661 -8.64849 2.66545 -3.03907 4.5569
3449 1 7.14002 24.9498 -16.5461 1.0639 -1.74867 1.99608
3456 1 9.78622 23.7632 -20.6438 5.14124 -1.89604 3.276
2670 1 22.496 22.2564 -17.594 3.33053 4.36646 -2.95863
3483 1 12.2716 23.2767 -0.964899 4.17958 0.774447 3.95517
3488 1 16.09 13.396 -12.4873 -2.78284 -1.46304 -3.14884
3500 1 20.0116 16.6303 -8.56722 -1.12511 4.03107 -3.95788
3521 1 2.47855 15.5788 -14.268 -1.33157 1.81572 -0.462051
3820 1 22.2103 13.2512 -6.58266 0.378904 -3.89282 0.449816
3526 1 10.8237 18.3874 -7.01982 -0.494491 -2.8463 5.25315
3539 1 13.3139 23.4217 -13.3341 -3.17397 -4.93355 4.84861
3546 1 20.7333 12.7831 -11.1326 3.43453 3.45132 -3.13172
3554 1 13.4319 13.8464 -13.4874 0.752522 -0.511138 -3.5176
3599 1 13.2236 14.1839 -5.08884 -0.107487 1.65168 0.0755655
4342 1 5.55744 46.4317 -9.41135 7.01995 -1.07066 -2.12219
3608 1 18.3275 21.7918 -16.1776 -0.659864 1.8095 -1.83355
3644 1 19.5091 20.4926 -3.39763 -5.88167 2.88782 -7.17709
1816 1 1.05723 16.7665 -11.8115 1.01405 4.34923 -5.33244
3657 1 22.6694 21.7888 -10.6693 3.44388 2.29572 3.08536
3667 1 13.1032 15.5318 -17.4324 -0.286517 -4.75713 -4.89446
3676 1 16.5947 16.3276 -11.6389 2.63636 4.81728 -0.796861
3894 1 11.5293 11.824 -13.9038 -2.67828 2.42865 2.25072
2421 1 23.5736 15.6633 -7.06091 3.86033 -0.0287243 -4.7702
3693 1 5.34238 22.66 -2.85044 5.26613 0.731865 4.31388
4351 1 9.43237 46.7383 -2.36718 1.22198 -1.91645 0.506026
3712 1 14.7391 23.9231 -5.17178 -5.72022 1.07295 1.14031
3734 1 16.6008 15.8486 -8.7436 -0.834067 -0.965163 1.35864
3750 1 11.7802 24.149 -15.7695 -2.05381 -2.70758 2.64184
3778 1 3.38511 13.2265 -10.5282 -0.390638 0.829079 -1.5295
4223 1 0.183992 45.4018 -8.84182 -1.09944 -2.4342 -0.116306
3787 1 9.39029 21.4368 -17.5556 -2.2011 1.80097 1.11563
3789 1 20.2871 24.743 -13.5909 2.80763 6.58123 -0.183974
3799 1 18.0278 21.8838 -10.9768 -1.22215 -5.46104 -2.16696
3801 1 5.08403 15.3577 -9.25337 2.92756 1.3971 4.77977
2411 1 8.48326 11.7671 -18.0574 2.23766 -2.25963 3.9443
2963 1 23.7108 11.3033 -4.91424 2.12175 -1.51271 -4.28314
3854 1 18.0579 14.1194 -2.03718 -3.47472 0.407628 0.663419
3883 1 23.0262 14.3147 -11.6424 -1.21181 1.45418 4.86045
3564 1 19.4727 12.6912 -14.9833 -1.90265 -2.4575 -0.24678
1692 1 -0.238651 18.8376 -4.67144 5.77898 2.27667 1.35189
3927 1 12.9423 17.6595 -2.2376 -1.28708 -2.85161 -1.63505
1444 1 12.9356 18.803 -21.9937 3.35199 -0.943745 -4.20032
3948 1 10.3291 16.1633 -17.9911 -2.92462 2.25935 2.07594
3986 1 17.0336 17.8608 -15.1658 0.6368 1.94825 1.3777
4123 1 0.409467 27.4643 -5.14447 0.465385 0.0986779 1.75735
4124 1 1.30516 24.8252 -6.08663 4.47593 1.92984 -0.00980251
2928 1 22.7694 46.1125 -9.65217 -1.16204 -0.752788 -4.2973
4128 1 1.25017 25.5428 -9.09398 -1.15577 -0.586481 -0.991336
4135 1 1.16347 27.6466 -2.56454 0.374603 -5.11333 0.325425
4136 1 1.84607 25.1484 -1.58184 4.19154 0.202664 0.701299
4147 1 0.26054 32.2885 -5.47234 3.18017 -0.701687 -1.6647
4148 1 1.47426 29.791 -6.13993 2.02092 -3.57649 0.951041
3260 1 16.6099 46.8165 -7.29642 1.29154 0.0268768 1.55886
4152 1 1.6549 30.2067 -8.81595 1.0792 1.76454 -5.21607
4159 1 0.541586 32.2461 -2.75887 -3.67441 -1.17635 -3.3329
4160 1 2.19249 30.0641 -1.81437 -10.2871 -1.76787 1.85523
4171 1 0.121824 36.9342 -5.04115 -0.542465 -2.45954 -1.39098
4172 1 1.24731 34.6729 -6.50177 -3.25464 -0.0727165 -1.34231
1735 1 -0.314927 17.6536 -18.2413 5.47215 -1.70471 -4.0198
4176 1 1.37658 34.6906 -9.2934 4.78857 -1.41125 -1.39278
4183 1 0.619034 36.4986 -2.36702 3.71121 -0.0948255 1.91987
4184 1 2.16185 34.2303 -1.65049 -1.57293 -2.62922 0.782806
4195 1 0.183551 41.0178 -5.12514 4.60475 0.921582 -3.24201
4196 1 1.43003 38.9979 -6.35183 -4.4561 2.15059 4.13583
759 1 0.417927 13.6926 -10.0744 0.364341 -0.0444222 -1.17402
4200 1 0.965514 39.0416 -9.09781 0.25709 2.63951 -1.92773
4207 1 0.443645 41.2293 -2.19391 -3.99646 1.19218 0.939037
4208 1 1.7734 38.9125 -1.43337 -4.81258 -3.3051 3.3533
4219 1 0.550675 46.046 -5.94642 3.51488 -1.17831 1.91791
4220 1 1.5467 43.2135 -6.33055 0.775388 -0.0436157 -4.73927
1353 1 6.92498 21.7908 -0.7389 2.66809 4.95154 -0.0271625
4224 1 1.53778 42.8665 -9.04799 -0.33954 2.545 0.949027
4231 1 0.838743 45.5501 -3.10576 -0.571287 0.184584 -5.25567
4232 1 1.77444 43.4392 -1.60954 1.61189 -0.387829 4.90067
4241 1 4.32569 25.2111 -5.75777 -3.81813 -1.19682 -7.02153
4242 1 5.39027 27.7624 -6.17472 -6.88221 -4.03172 2.72805
4243 1 8.15618 27.7861 -5.46685 -0.720025 -1.55383 -1.9179
4244 1 9.33902 25.6163 -6.86185 -4.6085 -0.858532 -5.2174
4245 1 3.95888 26.016 -10.2323 -2.07156 5.4568 1.49999
4246 1 5.43845 27.9392 -9.04314 2.19227 -0.464372 -1.09713
4247 1 7.95449 28.5034 -10.0208 -0.908838 1.73178 -1.51295
4248 1 9.40131 26.0567 -9.51817 4.89853 -1.76738 -4.55839
4253 1 4.73693 25.5627 -2.83241 1.77246 0.717696 -0.267513
4254 1 6.00678 27.7091 -2.21788 -2.19267 -2.89742 2.50613
4255 1 9.06598 27.8105 -2.67951 -3.39385 2.14516 0.465561
4256 1 11.5467 26.3644 -3.05959 1.78561 5.04773 -1.59353
4265 1 4.21323 30.1474 -5.808 -0.0101387 1.55413 2.39213
4266 1 5.59536 32.5346 -6.72633 -1.82998 0.723359 -0.411148
4267 1 8.18972 32.7042 -5.39723 -2.1227 1.15768 1.23363
4268 1 9.11562 30.3734 -6.56266 3.22826 -0.992119 -3.01629
4269 1 4.20133 30.2637 -9.84531 -1.48247 2.11574 -0.804201
4270 1 5.83856 32.3893 -9.48454 3.70978 -1.99728 2.89685
4271 1 8.24088 32.6764 -10.709 -2.07515 -2.75713 1.90539
4272 1 9.57071 30.7212 -9.26455 -3.8176 -2.76685 0.600352
4277 1 4.773 30.0741 -3.04761 3.20169 -6.97423 -1.80962
4278 1 6.06078 32.3917 -2.12781 -5.69988 -0.681265 1.9967
4279 1 8.77161 32.4169 -2.63171 1.19068 -2.94521 -3.27823
4280 1 10.0947 30.3329 -1.61132 -6.1179 -4.63984 -0.112477
4289 1 4.14031 34.8373 -5.69967 1.59822 -3.00618 -1.38688
4290 1 5.41603 37.1716 -6.41732 3.92918 0.732133 -1.62476
4291 1 7.99863 37.1934 -5.97259 0.0913449 -1.78138 0.9587
4292 1 9.2488 35.0067 -7.00926 -2.83079 0.961062 3.3875
4293 1 4.07777 34.8204 -9.74883 -3.13822 3.57338 6.23736
4294 1 5.27038 37.3752 -9.55593 -1.89409 -0.780606 1.48123
4295 1 7.92828 37.5548 -10.3614 0.26779 1.38288 0.105134
4296 1 9.25259 35.225 -9.85987 -0.0107965 -3.61863 3.14439
4301 1 4.68818 34.7335 -3.0321 1.54009 2.2543 7.01554
4302 1 6.20676 37.0019 -2.11349 -1.5828 2.88938 2.12741
4303 1 8.55288 37.5888 -3.35547 -3.25383 1.29685 0.374157
4304 1 9.58042 35.3322 -2.35178 -1.52533 2.71616 4.30914
4313 1 4.12353 39.3704 -5.62819 1.98233 -1.75327 -2.2985
4314 1 5.60555 41.4507 -6.65284 4.16733 0.0116647 0.743064
4315 1 8.47077 42.439 -5.9255 4.88113 -5.59851 -5.8789
4316 1 8.09663 39.7672 -6.93328 -1.27218 -2.21945 6.08772
4317 1 3.72221 39.5094 -10.1464 1.48788 0.613139 3.41975
4318 1 5.50288 41.6964 -9.45811 3.00618 3.54563 0.284196
4319 1 7.97703 42.1655 -10.2423 1.26214 -1.05085 5.18443
4320 1 9.04578 39.8373 -9.4047 -4.44409 -0.548955 4.38754
4325 1 4.45047 39.0861 -2.78659 7.39263 -5.40985 1.01715
4326 1 5.63283 41.5333 -1.94979 2.74888 0.258205 -1.92865
4327 1 8.2499 42.0854 -3.20206 -0.174498 -0.801665 3.06841
4328 1 9.34216 39.8704 -2.03221 0.764131 3.44617 0.368208
4337 1 4.14825 43.6641 -5.62899 -0.249109 -3.02464 -0.777275
4338 1 5.12282 46.0816 -6.62001 -1.36676 1.28894 3.01827
2802 1 5.84724 11.7742 -10.3755 -2.56838 -3.36154 2.01223
4340 1 9.33339 44.9796 -6.7358 -0.678832 -5.50076 -2.63507
4341 1 3.93916 44.0271 -10.2331 -1.96036 -0.587173 -0.671996
925 1 2.93646 11.5052 -2.24278 -2.51414 -0.806708 0.219274
4343 1 9.64092 46.1621 -11.4617 1.93015 1.77578 -3.01335
4344 1 8.26135 44.8493 -9.48704 1.63618 -0.374079 -6.94403
4349 1 4.14956 43.6692 -2.84432 2.05595 -5.6999 3.6038
4350 1 5.1642 46.0157 -1.77162 -1.48397 -4.5782 -0.331054
1670 1 3.61159 15.0612 -0.288209 -3.11724 0.182265 -0.355629
119 1 17.1734 13.2741 -7.91083 1.83436 5.98044 1.47047
2583 1 6.5692 18.9417 -0.281433 -2.44992 -0.30666 7.56207
2808 1 3.89881 46.5256 -11.9227 2.02217 -0.0937732 2.17526
1241 1 12.5744 12.6358 -18.0974 -3.51105 -0.817226 -1.33719
2603 1 23.4753 17.7458 -5.12594 -1.86592 4.6892 0.0470786
1849 1 12.4854 46.0165 -12.1959 -1.99052 3.64781 -1.2634
2892 1 22.0794 18.9665 -11.0674 -3.02096 -1.7485 -0.87826
1474 1 2.31571 23.484 -23.9666 0.417513 4.21689 4.27222
1526 1 20.2521 22.8764 -0.153623 0.640654 -1.51845 -6.48257
497 1 9.4097 16.9249 -24.1245 1.25749 4.05687 0.195712
6 1 2.27502 18.5606 18.4214 1.59254 1.71865 0.23081
7 1 6.36055 22.9592 8.46031 4.64841 -6.34271 0.767255
18 1 20.4848 22.9409 2.59046 -0.149721 1.85101 -4.03172
25 1 6.79633 24.9156 15.8677 -2.68887 -0.123229 5.39491
473 1 3.60859 12.3363 12.6733 0.79342 0.155001 -0.33804
4324 1 9.66427 39.7306 0.558711 4.34848 -0.798673 -0.465164
1854 1 4.22502 47.1293 10.989 5.7359 4.05084 2.21375
103 1 18.9317 24.1569 21.4046 3.05847 1.09273 -1.39995
123 1 11.0062 14.9485 7.85301 -0.0331698 -2.6584 3.83911
138 1 11.2095 16.4068 5.16023 1.00543 -2.75953 -0.760673
147 1 8.01413 20.4625 5.90063 0.750453 -2.15989 1.47836
175 1 8.77377 17.9225 5.24713 -4.55323 2.09353 3.35277
185 1 20.651 23.1836 16.239 -2.46154 -1.10532 -2.57042
202 1 11.3827 14.2669 11.8727 3.16413 -1.74728 0.590279
215 1 9.33687 23.9032 16.6354 3.02966 -0.791797 1.38396
217 1 3.68267 22.8368 9.34277 1.05783 -0.39088 3.29674
220 1 5.34743 21.0519 17.768 1.39557 -0.391177 4.68563
227 1 15.7215 18.0819 3.23556 -3.62128 -1.89382 5.34221
262 1 18.6209 19.0238 9.04823 0.965966 -2.03026 -0.291439
281 1 15.4318 20.1781 11.8518 4.25942 2.51498 -1.88752
4348 1 10.4067 43.5778 0.91169 3.56218 -0.619571 -0.379224
288 1 18.4417 23.9764 4.43284 -6.78671 -0.584516 -5.99684
310 1 1.1744 13.6852 13.8328 -0.856236 2.27765 -2.57631
328 1 16.192 19.7908 14.7509 -1.64963 -0.229419 -1.24103
2756 1 21.7871 12.1432 20.6874 1.52253 -4.69853 4.47552
3930 1 13.5918 20.5643 1.09992 1.11251 -3.32343 -3.37819
418 1 20.8391 19.919 6.02564 -6.76287 -1.56516 -2.37417
435 1 1.24727 23.4838 7.45062 -0.769603 3.22528 0.65901
443 1 19.3095 25.3569 14.8568 5.01053 -1.70911 0.258546
447 1 7.47186 20.2133 13.8455 0.607666 0.179264 -0.326189
3911 1 21.9191 18.1847 2.7682 2.94002 5.00884 1.72277
457 1 7.97749 21.853 18.2245 4.93646 1.58536 10.4079
3631 1 8.20335 11.4541 19.1671 0.462407 -6.3921 -2.70007
463 1 5.96454 15.45 10.8153 -1.35755 -0.677978 -2.72384
4300 1 10.6214 34.9604 0.214067 0.938839 1.89591 -3.50121
487 1 2.19429 24.0752 18.5761 4.03679 0.453108 -4.88405
566 1 19.7292 14.2898 15.2732 5.17445 -1.61879 0.735773
2865 1 4.05218 11.9199 0.284277 0.511379 -1.26855 -2.35099
627 1 20.3088 15.4082 10.834 -1.07729 1.85731 -0.337638
646 1 14.3717 23.3123 15.3733 0.540343 -3.54196 -0.794631
2043 1 17.5873 11.7031 12.2914 -0.700481 1.78817 0.936606
671 1 20.7827 14.6057 3.79138 1.02155 -0.189259 2.04924
715 1 2.41831 17.9105 11.1593 4.4569 3.11632 0.909326
725 1 3.1412 19.0718 22.7655 2.24452 1.63691 1.11915
3818 1 12.1924 17.629 23.8685 0.258235 -4.52347 -0.116646
4360 1 11.1559 43.7929 5.33999 0.0217533 -1.81662 0.768181
762 1 5.35336 17.6521 21.6513 -0.131522 2.1939 -4.0284
769 1 14.1781 24.3918 18.2728 3.00885 -0.709665 0.0376468
774 1 18.2988 16.7805 14.6981 2.41721 -3.50767 3.87923
805 1 10.0083 24.7805 23.3385 -2.88454 1.84009 1.81833
1722 1 18.6115 47.2328 18.2582 0.367236 3.40148 3.46727
820 1 2.27768 14.8219 8.66604 -1.94413 -0.507039 -0.422183
829 1 18.0921 16.4755 20.2165 0.758635 4.84652 2.13634
870 1 16.455 21.6649 19.059 3.24452 1.29485 2.50238
875 1 20.6404 14.2931 8.30142 -5.43357 -0.870133 -2.95639
880 1 3.71527 15.1593 21.5828 3.40518 3.62913 3.02104
894 1 1.40482 11.5973 21.967 -1.69104 -4.33812 0.276616
927 1 7.53744 14.2533 18.732 -0.270232 -1.23606 -0.854028
936 1 8.18199 13.8762 12.251 -3.37161 -5.04705 -1.00157
937 1 0.808131 14.4357 21.5204 0.900692 -1.03111 -2.78096
958 1 2.036 15.6347 18.8243 3.45323 -2.72046 -1.2149
980 1 3.84764 20.3158 11.2118 -1.49488 -2.9367 3.69236
2940 1 14.4764 17.698 0.372639 0.997728 0.100847 2.77064
1019 1 6.35431 17.5723 3.69022 -1.21253 -1.65645 0.410176
1050 1 18.5456 20.0136 18.0716 0.00484866 -1.92038 2.8106
1063 1 0.45139 19.4414 9.65394 4.70448 1.00004 -1.26454
1097 1 17.2314 23.3272 14.7374 -2.1603 4.45044 1.67626
4357 1 5.27666 44.1257 4.19669 -0.544801 -1.07437 -4.29376
3230 1 22.9842 13.1722 23.2224 -0.345654 0.369063 -5.0474
1108 1 15.3396 12.4266 22.0903 3.10858 -3.4363 5.47545
2416 1 6.8941 12.6472 9.96569 1.36331 -0.375808 2.32503
1142 1 7.8898 13.6216 7.51528 2.42534 -0.263905 0.396245
1145 1 2.8617 21.8637 21.989 -1.90744 -1.86831 2.80702
1146 1 11.0003 17.5071 19.4167 -4.40703 -3.54536 5.37764
1170 1 3.34974 15.2176 11.3746 1.48954 3.39067 -1.80557
1184 1 6.50245 20.2595 22.5374 -1.24773 1.38444 1.62358
1189 1 12.3538 14.1369 3.61323 -2.7925 -2.81627 -6.06694
1222 1 21.193 22.3282 11.903 2.43533 -1.0283 -0.110885
1234 1 14.0876 13.9869 5.91116 -1.98895 3.5925 -0.474164
1235 1 11.5135 20.2282 3.04799 1.69671 2.19318 -3.41157
1297 1 15.4477 14.5633 15.5015 -1.02541 -5.18885 4.15208
1313 1 17.161 18.2721 22.224 0.72263 0.538741 3.4102
658 1 20.0774 12.9524 11.9333 -1.21914 3.40737 0.344131
284 1 0.862216 15.3236 1.03358 1.93872 2.7915 1.5459
1352 1 6.92247 23.8597 19.961 -2.63336 3.97616 -1.63919
1362 1 19.6046 21.5154 8.1787 -6.82275 3.96922 1.97368
1381 1 17.7878 16.8752 10.742 -1.87719 -4.03077 -3.71126
1414 1 6.45234 23.803 5.80392 -0.207294 -1.4569 1.11698
1430 1 0.0527855 18.1445 6.83987 4.13915 -3.95434 -1.28826
1468 1 19.525 24.6492 18.4397 6.41435 -0.789182 -3.77483
360 1 5.95765 16.4047 0.933458 -4.71383 -0.638961 -1.45088
452 1 22.5151 15.6362 1.73234 0.137587 -0.223337 -5.16312
1528 1 9.55578 14.5511 16.6456 1.1276 5.16416 -1.09271
1530 1 16.2952 15.7713 5.05768 -0.170025 -1.09157 1.80698
1533 1 12.3877 20.2097 11.9249 -2.15061 -1.64425 3.21277
1538 1 7.07235 16.9837 17.6519 -2.57121 -5.32311 6.22475
1559 1 20.9249 17.1885 5.16477 5.62037 4.02193 -0.420605
1569 1 7.34026 14.7216 4.13402 4.66918 4.47332 1.0219
570 1 22.8259 12.8988 17.1289 0.548506 -1.36818 -2.59105
1598 1 2.84333 13.5775 2.25315 -2.82507 1.15934 2.87693
1618 1 10.5881 16.7813 15.0313 -1.97655 0.0667047 1.85556
1619 1 14.6891 13.863 18.1942 3.09662 -0.175109 2.1049
4359 1 9.72618 46.3113 4.99738 -1.13716 -1.48065 -3.86938
1639 1 11.7891 13.2821 18.1895 -2.30847 2.05558 0.406224
1684 1 6.30561 15.5112 15.2493 -1.08048 1.61165 1.9019
1713 1 21.6744 17.5486 11.8947 1.67635 1.15782 -4.66335
1715 1 13.656 20.7354 15.9724 3.85762 -1.39645 0.716836
1726 1 17.3257 20.9875 23.4398 -1.41441 -0.502192 1.84067
1740 1 2.52291 21.3117 19.2823 -0.572336 0.732339 -1.55336
1741 1 9.86849 14.2862 23.2276 -0.240614 -0.591355 0.459998
1750 1 17.011 22.8607 11.8787 -1.67276 -6.2125 -0.21572
1762 1 3.17218 21.3442 3.23239 -1.74825 5.3034 -0.158884
1767 1 11.298 24.1503 18.9237 -0.315357 7.00762 1.9747
3938 1 18.9227 11.9919 17.5208 -3.66465 -0.602752 4.41299
1773 1 18.0479 14.47 7.21897 -3.93384 -0.240656 -3.08524
1797 1 1.90578 17.9407 15.4992 5.2827 2.15556 -3.52162
3562 1 18.4184 11.8457 1.31914 -2.98644 -1.98568 -1.83769
1821 1 18.783 25.48 12.0907 5.28624 1.04487 -0.57115
1829 1 2.59119 17.2314 5.56508 2.56212 4.14527 -0.229158
1835 1 4.82125 23.7767 17.8979 -0.0164685 -0.33531 2.00909
3460 1 1.22167 20.8548 16.5189 4.58457 -0.734962 4.76474
1839 1 20.5099 25.2045 5.60953 -1.172 2.83603 -9.31172
1866 1 8.09403 22.7067 12.4524 5.20817 4.61101 -1.00578
1884 1 16.0036 15.2321 9.28265 2.86937 -0.740891 1.56926
1886 1 20.2634 24.3381 8.27173 -2.43996 1.56623 -3.80598
1922 1 9.55714 15.4806 20.4675 -0.530222 -3.11345 -0.831692
1929 1 7.76112 19.3987 2.0477 4.8408 -3.56532 -6.20273
1957 1 13.6978 16.1021 7.86957 1.87339 -5.70181 -0.0064023
1984 1 -0.228084 19.2584 19.8173 6.27713 7.06948 2.72769
1988 1 5.76109 20.0043 7.585 0.826508 2.62891 -0.0249939
1992 1 11.8962 24.6507 3.80244 2.18828 4.74207 2.40591
1997 1 21.5169 25.0938 10.8994 1.80461 4.75953 -2.92912
2019 1 0.130818 23.955 20.5477 -2.14433 -4.78556 -4.13045
2022 1 17.5364 24.8588 9.54819 -4.8393 -1.47515 1.27903
2026 1 8.36934 21.5602 10.0213 -2.3586 -2.79497 2.14372
2055 1 3.40178 17.3544 8.42112 1.76776 -2.79369 -1.20254
2084 1 15.0284 19.4576 20.4475 6.29448 -1.87292 -0.326442
2088 1 8.67859 20.4989 20.6211 -0.0375256 -2.83775 -2.69582
2886 1 12.0968 25.3138 1.12901 -1.20903 -2.07721 -3.52956
2134 1 12.3564 21.3727 7.60923 -0.80118 -2.56045 -4.17126
38 1 19.6931 11.242 7.98036 -3.91606 -4.05424 -1.07128
2177 1 18.9786 17.3128 17.5346 0.796425 5.97159 -2.42989
2197 1 16.6778 22.9217 21.4853 -0.878833 5.60576 -4.65604
2240 1 13.2452 17.7516 15.5276 -0.605631 2.37751 2.16015
2254 1 4.88101 20.7287 14.8474 -2.53566 -6.25305 1.42819
2281 1 18.3698 11.9358 21.7359 -0.245267 -3.71557 -3.10512
2287 1 22.0337 16.0869 14.7102 5.30441 -6.98055 2.63051
4356 1 11.4793 43.5721 8.17027 -3.96931 -3.42939 -6.68476
2300 1 7.99601 12.9358 2.20122 0.20473 -2.67313 -1.19479
2304 1 8.15819 16.4672 7.55393 2.33316 2.80292 0.453076
2309 1 20.7072 16.8447 21.8112 2.46696 0.378379 1.24168
2343 1 8.95591 22.1218 2.4202 0.304978 -2.36342 6.19141
2344 1 14.4616 25.5488 5.09365 2.08164 1.07195 -0.877532
2360 1 13.1674 18.327 4.33951 -1.48426 1.43071 -0.0904473
2367 1 6.65807 19.6065 11.0968 -2.58143 -3.77402 1.20887
4355 1 11.2443 46.1969 9.3207 -1.55181 2.72779 -0.702346
2375 1 10.2463 23.547 14.236 -0.568029 -5.80733 -1.09263
2388 1 9.45892 25.0744 20.7283 -1.36884 5.90959 4.33179
2395 1 5.02833 18.5259 18.9256 -1.95577 0.289834 -2.15822
2272 1 0.678345 13.7835 10.9331 1.55725 3.25946 0.789445
2412 1 9.50518 19.2183 15.2726 2.43743 -0.474256 -0.153268
2920 1 23.2864 13.8508 7.31333 -1.82074 -4.53048 -3.18432
2423 1 12.6485 22.1921 4.89248 2.24523 0.376862 1.30001
2444 1 13.7069 21.5365 18.5025 -1.6589 -6.1576 -1.75485
2456 1 19.7798 19.6205 22.2031 -2.86547 -2.42488 -0.350911
4354 1 7.5738 45.6717 7.89973 -0.930684 -0.748944 -1.88635
1167 1 -0.124476 15.0985 17.1761 -2.28756 -0.577078 -1.02881
2500 1 9.93203 22.4967 6.65644 1.34044 1.19867 -2.52071
2501 1 5.51839 13.1596 5.70916 0.910821 3.84776 3.68801
2993 1 21.9437 17.0172 17.4516 1.81826 0.702518 3.94773
2553 1 0.591916 23.6766 16.1333 0.922579 3.83275 5.17235
2565 1 13.9631 17.7407 12.4953 3.94649 0.821811 3.21732
2575 1 1.08041 17.2728 3.2814 -0.440375 -1.70853 0.830176
2576 1 22.3255 21.3573 14.4591 -3.82325 -0.427567 6.12793
2582 1 13.4353 23.7642 8.57001 -1.77251 5.75277 0.0273412
4358 1 6.95739 45.9317 5.34495 0.91374 1.38748 3.82405
2600 1 4.99879 22.6653 1.1623 -0.228908 -0.451266 1.06051
2606 1 15.3463 16.7236 19.2737 -1.79983 -1.09142 -0.781384
2627 1 15.9254 24.395 7.36276 0.469566 -4.95713 3.80947
2631 1 17.731 16.6872 1.38423 0.476762 1.43601 -1.81733
2671 1 11.377 21.7875 20.3168 0.14229 2.51725 5.40673
2712 1 17.9508 14.4983 3.1919 3.94118 -0.476917 -3.46205
2716 1 15.9555 12.3036 3.00527 -4.44876 -3.78549 -0.675989
2717 1 10.7233 20.0782 9.5671 0.576663 1.5356 0.830934
2736 1 14.8498 15.1175 21.8577 1.39273 -1.47007 -5.76421
379 1 22.6242 23.8585 4.28599 -3.71241 0.13538 2.95561
2773 1 9.24384 24.2832 4.4456 3.47577 -0.640945 -0.532709
2779 1 20.4831 14.4702 17.941 -2.12534 -0.848945 2.82631
2781 1 14.2035 22.7502 11.1115 -0.802851 1.38839 1.28454
2801 1 2.9519 20.1693 8.17059 1.79874 0.714524 0.124594
2824 1 7.48414 13.0248 14.8118 -0.5686 2.03477 -0.157842
2844 1 22.3946 16.8675 7.67033 -3.60485 -2.18184 0.178164
4353 1 5.80583 43.3417 7.84995 1.22351 1.23907 -1.80053
2879 1 2.90226 19.1328 1.53795 0.822604 0.949168 1.66694
3836 1 20.84 12.9731 1.4435 1.50187 0.144717 1.52028
1333 1 1.1481 11.8275 6.94425 -0.21787 -2.57064 -4.40861
2932 1 9.08143 19.0504 18.1332 -3.13933 2.29531 -0.00730558
3641 1 5.08202 13.2868 19.7179 -2.6261 2.53518 -0.594579
3001 1 11.3544 12.5834 9.61857 -1.58768 -2.79557 0.59202
3003 1 15.3807 13.4826 11.5349 1.95668 -1.85937 -2.31249
3035 1 18.4288 17.2892 6.53624 -4.11332 -4.40133 3.29861
3036 1 12.3182 19.1961 21.3959 -2.83804 1.25476 1.62988
3047 1 4.67505 19.2013 5.06232 -2.77493 -1.93197 2.07589
3086 1 15.0538 22.1787 2.81329 0.152761 2.25233 -2.38608
3123 1 16.1104 16.0732 12.8708 3.56386 3.19162 3.7454
3154 1 6.38965 21.647 3.63146 4.88227 -1.39293 -4.64669
3170 1 5.38314 22.8159 22.3004 -0.65686 1.79849 -3.67019
3173 1 10.0013 17.2665 9.69892 7.58823 -1.64317 -1.45112
3178 1 18.131 18.9417 12.6941 -3.02154 -1.65507 -2.03894
3236 1 18.918 21.0854 10.9028 -1.13189 -1.82164 -3.00471
3243 1 8.24038 17.7878 21.83 -3.40523 1.81083 0.788925
1219 1 14.0675 11.5542 10.1849 -1.25702 0.824704 4.44808
3253 1 10.0003 17.6886 2.84495 -1.23481 -0.38437 -0.310041
3259 1 17.1406 20.3087 4.05534 1.55629 1.29713 2.48172
3280 1 9.54874 16.4095 12.3746 -1.97228 -2.52966 3.22397
49 1 23.1552 13.1958 4.56717 4.04853 5.84363 4.84258
3310 1 17.5172 22.2104 6.32019 -2.44964 3.43313 3.58824
3338 1 11.3457 20.9679 14.3209 2.27504 4.33341 -0.65723
3352 1 4.11377 15.2245 4.28332 -2.57159 -3.88066 2.88277
3380 1 0.908422 17.5336 21.9381 5.08904 1.60241 1.6961
3418 1 20.6087 18.9067 14.1849 -1.16466 -2.73994 -5.12112
3457 1 19.6819 14.1883 20.9781 -3.32781 -2.35896 4.95971
3467 1 13.2395 13.1931 13.9502 -3.6249 3.48175 -3.96756
3476 1 3.52481 15.6143 14.4847 -0.867415 0.835932 -1.78676
383 1 11.431 46.7075 11.9648 0.0496113 3.51949 0.661041
3189 1 14.0767 11.6571 7.33213 1.87592 1.0442 1.05458
3486 1 16.899 24.0378 17.6299 1.52531 3.7045 4.35626
3493 1 3.99015 14.3664 17.1795 -0.879265 2.75784 2.35425
3537 1 22.062 23.1693 18.9019 -5.95369 -5.04029 2.76949
3545 1 4.0719 18.2374 13.554 -1.87358 -6.36626 4.42384
3552 1 13.786 18.8395 7.13395 -2.29954 -2.09487 -0.237377
3570 1 11.9759 22.9458 22.8678 -1.72931 -2.36939 1.89545
3571 1 1.80804 24.4876 10.7759 1.35707 2.3556 -7.32811
3602 1 1.09733 25.477 22.6313 -1.67464 2.19379 2.84802
3605 1 18.8987 20.7841 15.5161 1.97282 -1.38776 1.49808
3613 1 1.22329 23.5727 13.5087 -6.05438 -0.576385 0.407649
3615 1 1.23061 23.1985 2.36059 0.462333 2.31256 0.671201
1913 1 0.477739 19.3109 0.272038 4.83308 -2.50786 -5.37527
749 1 -0.336542 15.486 7.95262 -0.259483 0.487465 1.6754
3658 1 21.7498 12.3316 14.3638 2.90508 4.48837 1.62613
3664 1 6.79372 17.1575 12.88 -3.33342 -1.22889 1.39615
1469 1 19.1695 12.5229 5.24136 0.218953 2.78374 2.10985
3713 1 1.32889 20.8514 5.89447 -1.79996 1.17026 3.54736
3715 1 20.5902 20.9517 19.6933 2.62575 -2.14188 0.122334
3720 1 16.0448 17.2426 16.4063 2.46532 -0.333466 1.57498
3732 1 16.5379 19.5806 6.95331 -3.53912 -1.09356 -3.18907
2276 1 0.134078 12.2864 2.72722 -6.33758 -3.91519 3.42949
3760 1 16.2603 25.118 2.73458 2.10144 2.18085 0.226874
3783 1 19.9517 20.2638 3.14528 3.8001 -1.87259 5.36367
3788 1 6.26925 17.7252 9.05268 0.844513 4.29884 1.15305
3795 1 14.0577 23.8888 21.3523 -2.46641 2.67972 4.36433
3804 1 12.6754 16.3 10.4669 0.626186 -5.26548 0.567337
1133 1 12.0589 11.8566 15.8458 -4.5948 -0.437451 -0.662314
3819 1 3.80815 22.6357 13.0844 1.57268 0.869615 -4.52783
819 1 10.5151 12.6366 20.6237 1.6357 -1.68367 -3.52545
3837 1 9.83706 13.7654 5.24482 -3.27327 -2.11464 -1.46492
3859 1 21.3416 18.6145 9.58331 1.39183 0.853409 -2.64406
3885 1 12.9413 24.4207 13.2795 2.33353 2.95839 -4.55204
1939 1 10.6152 11.7917 2.96055 -3.12136 4.2433 3.17986
3897 1 5.47744 13.4981 23.345 -0.243629 -0.733786 -0.821492
399 1 12.7188 15.382 1.11331 -6.39706 1.6922 -2.01277
3974 1 5.91709 24.5071 13.1827 -1.10468 2.07285 -1.25834
3987 1 12.9051 16.3202 17.9301 2.81772 -0.272841 1.45251
4131 1 1.26151 28.067 1.44305 2.12689 1.50801 0.796134
4132 1 2.30923 25.4295 1.17127 2.34161 8.1479 -3.31311
4139 1 1.85193 27.5005 8.02434 0.200116 0.144562 -3.76246
4140 1 3.48724 26.7097 10.4154 -1.16755 -5.56721 0.738288
4143 1 1.28437 27.9002 4.40666 -1.28742 1.16003 -0.0457009
4144 1 2.24848 25.7484 6.00855 -0.210149 0.0954663 0.304195
4155 1 1.28986 32.5432 1.48701 -0.697875 3.70071 1.44189
4156 1 2.85932 30.1942 1.03822 0.0641518 3.24281 -3.99378
4163 1 2.19447 32.4201 8.65855 2.82036 -2.04131 -3.56493
4164 1 3.14117 29.7988 7.85821 3.6332 1.09147 4.32529
4167 1 1.57788 32.4031 4.41206 -1.39832 -5.32775 2.10242
4168 1 2.776 30.0512 5.14229 3.447 1.36846 0.538597
4179 1 1.47196 37.1592 2.47164 -1.14906 -3.76844 4.01408
4180 1 2.54389 34.9239 1.09385 0.836669 4.67592 0.684717
4187 1 1.82256 36.7385 9.63927 3.41414 2.71987 4.52989
4188 1 3.28235 34.827 8.21124 -1.05468 -1.43202 1.96518
4191 1 1.2895 37.2735 5.15324 0.10078 -2.39881 0.0192956
4192 1 2.73674 34.7811 5.41692 1.34872 2.26512 1.4635
4203 1 1.09054 41.5932 2.05759 -2.74708 -2.33516 2.39596
4204 1 2.38537 39.4527 1.21692 3.70869 0.564005 6.08504
4211 1 2.17358 41.4651 9.92926 2.5924 -1.86056 -2.38353
4212 1 3.42055 39.1925 8.74428 -0.459909 -0.454074 2.55035
4215 1 1.67428 41.7602 4.94673 2.14088 -3.39494 3.90013
4216 1 2.83813 39.3641 6.11316 0.18775 -2.60628 -0.929977
4227 1 0.959677 46.2873 1.71882 5.30154 2.54168 -2.70392
4228 1 2.4566 44.0734 0.990303 -1.75438 2.85034 6.06099
4235 1 1.99156 46.1586 9.50278 -2.65085 0.104919 -3.56489
4236 1 3.26809 43.6896 8.6905 7.1615 0.73947 1.25134
4239 1 1.46134 46.2135 4.59993 2.70349 0.816519 -1.56661
4240 1 3.00563 44.1398 5.84904 0.0283503 -4.26409 -1.14939
4249 1 4.99747 25.359 1.95068 0.812992 3.11023 1.02872
4250 1 6.28522 27.4923 0.529434 2.84916 4.29811 -0.887488
4251 1 8.99305 28.2202 1.46321 -1.82434 -1.6885 1.10865
3484 1 3.69383 12.5673 7.89941 1.14145 -0.439026 -0.233289
4257 1 6.03853 25.5382 10.271 -3.49976 -0.646747 -3.57707
4258 1 7.14619 27.4596 8.51063 -0.0266966 2.50118 -1.52384
4259 1 9.89054 27.5927 8.49939 1.52135 -1.04836 -1.73713
4260 1 11.2359 25.2122 7.63437 1.64558 3.16574 -3.66931
4261 1 4.75008 25.7917 4.78019 -5.57293 2.71081 1.62351
4262 1 6.3926 27.7647 5.70981 -2.43103 1.4849 1.29084
4263 1 8.75778 27.3057 4.31461 -3.6626 0.397967 1.33981
4264 1 11.7252 27.1158 5.44742 -0.0828601 0.395089 4.54321
4273 1 5.6155 30.1274 1.54784 3.42453 -0.987179 1.45099
4274 1 6.72114 32.407 0.641127 -0.774376 0.777874 2.08156
4275 1 9.38524 32.7024 1.34882 -1.72977 1.7004 -2.78492
2887 1 23.1278 16.8153 20.1169 0.468537 0.587526 -1.02461
4281 1 5.60007 29.7577 8.7854 -0.632628 -1.18406 -4.28745
4282 1 7.15705 31.9839 8.06734 1.64797 -0.00941231 -4.02132
4283 1 9.95753 31.7426 8.12497 -2.0622 -2.46877 1.00208
4284 1 10.9436 29.5407 6.71134 0.4245 -3.0636 -1.31662
4285 1 5.44648 30.0555 4.36936 2.86933 0.560491 3.31465
4286 1 6.65078 32.2457 5.26327 -4.20984 -3.7499 -1.1934
4287 1 9.1721 32.2824 4.1608 2.88259 -3.43974 -1.37879
4288 1 10.5326 29.7 3.72759 3.21157 -0.203339 0.432574
4297 1 5.28718 34.673 1.67527 -1.22054 -2.09026 0.589957
4298 1 6.65127 37.0718 0.79709 2.62 -0.725742 -2.03974
4299 1 9.33934 37.1827 1.40239 -3.74813 -2.01553 -2.3278
1115 1 21.6873 20.9398 23.9248 -3.20742 -2.13482 0.576783
4305 1 5.87815 34.3697 8.79323 -3.29829 -5.72202 -0.257977
4306 1 7.36413 36.6936 8.12431 -2.40229 -2.89574 -0.444568
4307 1 10.0877 36.2824 8.93973 2.95128 -0.340308 2.39621
4308 1 11.2651 34.1108 7.69306 0.17096 1.36284 0.915885
4309 1 5.50601 34.59 4.52396 1.58211 -0.741739 -2.48342
4310 1 6.8002 36.9504 5.15349 -0.59384 4.77652 1.31144
4311 1 9.42054 36.9301 3.97064 4.09117 -2.22727 -2.04514
4312 1 10.6938 34.5202 4.88828 -0.983942 0.540059 0.608711
4321 1 5.05077 39.0221 2.06821 2.77011 -1.44625 7.59514
4322 1 6.06584 41.5166 0.810548 -0.511519 2.12727 -0.769729
4323 1 8.68662 41.8502 2.21595 4.33623 -3.32893 -2.09891
2033 1 10.245 16.6988 0.139905 4.15139 0.930396 1.23613
4329 1 6.11273 38.9887 9.01723 -2.43984 -1.89421 -1.4451
4330 1 7.5106 41.1598 8.21624 -1.568 3.54199 -0.776597
4331 1 10.2279 41.3452 9.23725 -2.84301 -2.698 -0.981363
4332 1 11.2614 39.0481 8.28844 3.20262 -3.1021 2.86111
4333 1 5.32122 39.3831 4.94206 5.85458 1.19784 -0.170027
4334 1 6.72535 41.6768 5.54909 3.24553 -2.52241 -3.0398
4335 1 9.30904 41.6772 4.78702 -0.958445 0.075485 -2.8438
4336 1 10.017 39.1446 5.61133 -0.244979 -2.64329 -3.1058
4345 1 5.26533 43.9558 1.53352 -2.13215 -4.82487 2.15634
4346 1 6.43384 46.5954 0.656397 2.37491 1.20405 -0.394748
4347 1 10.0219 46.1183 2.1211 4.8804 -0.0948638 3.15447
3304 1 0.01728 16.2254 14.5837 -4.53206 -0.564225 -1.22329
1979 1 0.311089 21.492 11.5123 0.517047 -3.46 2.84705
3522 1 20.644 14.4395 23.7484 5.45141 3.00171 0.476036
1319 1 14.7808 26.0839 0.337456 -4.19065 -5.90282 0.153728
2819 1 17.5227 12.661 15.1077 5.38608 1.82098 3.28315
4276 1 11.0377 30.555 0.958751 -3.16748 -0.349906 0.813666
2117 1 23.3503 22.196 6.71144 7.20484 -0.709534 -2.53925
1029 1 11.1802 11.7001 0.285348 5.47588 -2.84729 -4.06132
2409 1 5.05988 11.7753 15.6109 -0.676914 -8.74127 -2.33381
1716 1 15.9199 47.0883 23.1151 0.493804 -2.23867 0.654257
3251 1 -0.29625 17.6508 12.0828 -1.61858 2.85476 -0.569996
2291 1 0.0234978 21.3807 21.8877 3.85884 3.2424 1.35706
740 1 16.5249 12.0719 19.4121 -5.85661 -0.803228 -4.14094
84 1 21.0841 23.506 23.2628 -1.44363 -1.23112 -2.03809
458 1 22.6965 19.248 18.7969 -4.35233 -2.78796 1.02237
180 1 22.4014 21.235 9.45582 -4.07036 -3.88666 2.23871
2908 1 1.96551 12.346 16.3782 -2.13564 -0.835418 6.3427
2209 1 23.4051 23.7875 21.6493 -0.413019 1.03252 -3.46968
2504 1 9.33071 11.3486 11.0967 -2.86969 -0.689268 1.78597
1878 1 23.1442 22.4772 0.534397 1.44679 2.1835 -0.0980762
1328 1 9.99899 11.6169 7.44979 3.8329 -1.75457 -3.09097
1809 1 10.8486 21.0964 0.269272 1.23616 -0.31136 -2.02304
1838 1 19.0506 19.2719 0.468634 2.75379 0.00313255 2.74542
1823 1 6.95885 46.5612 10.6515 1.86434 2.20769 0.699007
203 1 23.5506 19.2104 6.44902 -4.40168 2.49918 1.19867
1896 1 15.881 23.2192 0.206828 -1.96828 5.11346 -5.69661
1004 1 23.5158 23.9849 9.04963 -2.42586 -1.01928 -1.94029
3890 1 0.236572 19.913 13.8688 -3.45075 0.190755 3.67535
2146 1 2.77382 11.6253 19.1437 3.4314 3.9743 -1.06013
1759 1 21.6546 11.3156 10.1667 -1.72413 2.84607 2.88911
801 1 19.9207 15.3585 0.0686057 1.44737 -2.3749 0.240935
978 1 2.75884 12.9274 24.1052 0.856306 -0.230198 -0.74957
307 1 12.1104 13.0696 23.9024 1.60175 1.68621 -0.249056
