ITEM: TIMESTEP
800
ITEM: NUMBER OF ATOMS
4360
ITEM: BOX BOUNDS pp pp pp
-2.4678258412759256e+01 2.3869094312764751e+01
-2.4904606025585757e+01 4.7421041625585751e+01
-2.4277776215734370e+01 2.4269574615739629e+01
ITEM: ATOMS id type x y z vx vy vz
8 1 -23.1027 -11.7279 -13.8932 -1.13791 1.52942 1.91289
15 1 -3.00179 0.368869 -14.0784 3.22803 -0.602104 2.66485
22 1 -10.8627 -0.761487 -16.5182 2.75098 0.324881 -1.60359
27 1 -19.6483 7.1617 -1.2243 -4.14134 -1.22915 -1.00754
29 1 -7.24725 -12.1717 -9.62441 -2.93995 0.0634597 -0.0492073
37 1 -11.5703 -7.82675 -2.29042 3.31121 1.0885 -2.97153
100 1 -23.8506 -15.0982 -23.4967 1.35108 1.7535 -0.660804
44 1 -2.35832 -17.52 -7.39526 -5.23059 3.79546 3.42058
54 1 -16.7788 -11.3497 -11.6943 -2.53947 -2.63792 3.37046
55 1 -6.7238 -3.15762 -16.096 -3.30358 -5.26593 -1.79952
57 1 -15.6732 -9.17779 -3.64992 -4.4015 1.5381 -1.67138
66 1 -11.4289 -16.244 -11.8702 -0.109717 -2.20798 3.10227
75 1 -18.828 1.86986 -13.0845 -1.03443 -1.44609 -2.22917
79 1 -23.1993 -0.0230688 -16.2064 0.754689 4.03601 0.803385
97 1 -8.07486 -14.161 -20.7688 -0.890696 -2.57348 0.213897
2237 1 -0.66351 -23.9693 -19.789 -0.699624 0.403211 1.29876
104 1 -14.3227 -22.6913 -9.31558 0.536031 -1.00168 -2.80874
112 1 -16.9374 1.06753 -21.4589 3.95422 -0.779259 -2.70333
126 1 -9.73569 0.0609137 -6.37977 5.42903 1.9416 -1.35645
128 1 -17.929 -0.708153 -8.7669 -0.873605 3.1707 2.31731
132 1 -7.36158 -5.21989 -22.5933 -2.85824 0.102581 -8.13465
135 1 -13.8416 -5.56927 -21.6031 -0.407855 2.15377 -1.15714
2463 1 -14.104 -20.557 -23.3355 -4.29228 2.33344 -2.48505
137 1 -10.9461 4.94101 -14.7098 -1.24653 -1.45523 -0.232876
139 1 -19.1783 -18.8076 -15.0697 2.80825 -3.26943 2.20055
143 1 -3.58952 -2.35494 -4.02626 0.267661 -3.51779 1.18084
144 1 -24.3906 -9.20989 -15.3134 -0.144976 -0.179731 1.66723
149 1 -19.3061 -23.4995 -18.2944 0.103918 4.12594 3.19313
160 1 -5.19696 -16.2097 -3.91436 3.29442 0.753215 0.61495
167 1 -12.5484 1.85836 -3.25992 -2.97207 -3.33225 -1.38309
170 1 -5.43305 -19.4255 -13.4642 0.640936 -0.915637 3.86309
174 1 -18.2297 6.60609 -20.8235 0.199114 1.66942 0.26374
179 1 -7.05059 -5.90319 -12.0193 0.0242135 1.11268 -1.00025
181 1 -3.82621 -3.36108 -19.5916 -2.02403 3.89823 1.39211
187 1 -11.6588 8.01358 -6.67191 4.64233 -0.759782 -8.32518
1425 1 -0.321437 6.68242 -12.5147 1.02029 2.57112 0.770841
198 1 -10.2283 -20.7512 -16.9527 1.28127 0.416731 -0.00933148
199 1 -23.7303 -5.6708 -10.1563 -2.99897 -1.46 2.08879
204 1 -5.88165 -16.0407 -8.88648 -1.33521 -3.9379 2.78377
206 1 -3.80189 -15.1902 -20.6558 5.35646 -0.501684 0.295007
1161 1 -7.63556 -24.825 -19.1653 1.78911 -2.89653 -3.46995
213 1 -21.355 -19.6083 -2.11441 -2.4378 1.95608 -1.99778
221 1 -16.8341 2.71312 -1.86885 -4.24593 0.812705 1.35437
1962 1 -0.661845 -13.2628 -4.33948 -0.724923 1.64094 -1.34379
235 1 -22.6491 -1.24111 -9.33374 -1.07359 -2.6197 -0.974964
242 1 -9.71101 -4.40541 -12.2386 1.25138 -0.00940947 -1.72326
248 1 -17.873 6.16344 -13.1571 0.142028 2.03072 -5.32744
251 1 -21.5408 -1.36969 -22.0814 -0.213184 3.12235 0.657978
253 1 -2.06825 -2.56135 -24.0313 2.71243 -0.947774 -1.68108
256 1 -11.591 -5.07767 -10.2211 1.85924 -3.89341 -0.342471
257 1 -1.75119 4.8572 -21.1083 -0.136989 4.77605 -1.60384
258 1 -5.7424 -1.52304 -7.13643 1.62968 0.499567 4.61949
263 1 -20.9399 7.54387 -8.93632 -3.53615 0.817444 8.57297
269 1 -19.4563 -8.65056 -14.1659 3.03761 -2.32439 -5.28144
3765 1 -24.5231 -23.5489 -1.86741 -0.0915355 -4.45456 -2.57899
280 1 -2.75498 -19.7565 -12.4724 -5.89969 1.19778 1.30389
283 1 -3.81701 -21.3916 -20.2518 -2.57223 -1.43745 -5.1564
290 1 -5.87937 -12.3959 -14.8982 -2.87723 0.345067 4.19073
294 1 -8.90792 1.13577 -0.926656 1.33703 -5.00319 2.58533
303 1 -20.0826 -18.28 -6.86076 0.712271 0.217096 1.8998
312 1 -6.39709 1.48784 -9.17185 0.179164 -4.77309 3.38755
313 1 -16.0619 -15.3292 -9.74363 6.60604 -1.69235 1.25508
314 1 -12.3074 5.60969 -8.32043 0.190642 0.97606 4.57815
317 1 -10.5167 -10.8439 -22.9329 1.77499 -8.02224 -4.13575
321 1 -19.0747 -12.2159 -13.2329 -1.12394 -0.470787 -5.23604
3200 1 -24.2252 -4.03706 -3.66634 3.43132 -0.243517 -6.55612
339 1 -6.18285 -15.2277 -22.802 1.03052 0.911768 0.117253
340 1 -13.7982 1.81164 -18.2396 0.541578 -1.91782 5.02279
341 1 -9.66285 2.4226 -14.2363 -3.19025 2.24777 -0.0805376
2995 1 -3.80005 11.205 -6.47203 -4.43961 2.72686 1.44017
343 1 -3.15022 -12.4292 -5.73392 6.28671 4.13107 1.46668
356 1 -1.91376 -19.0969 -20.4772 -2.71735 -1.27977 1.34362
359 1 -14.2012 -19.8918 -9.89771 -1.5052 -0.586521 -1.70963
361 1 -23.1849 -18.6021 -4.17423 3.15528 -6.08663 -0.523978
364 1 -10.6804 3.46 -5.06273 -2.9245 -3.37766 -2.39452
366 1 -22.2767 1.66689 -9.83569 -1.57747 -2.37525 -2.78513
376 1 -5.02818 -14.8304 -15.9748 3.32966 -2.10684 1.69291
384 1 -10.8756 10.4759 -7.80116 -1.15251 -2.36301 1.03767
393 1 -12.9101 -18.4467 -12.0371 -2.65852 0.215339 -1.32201
398 1 -23.3856 -22.7495 -6.06276 3.35482 1.57503 -2.70641
400 1 -23.9938 -16.4848 -2.3284 0.526417 -1.90484 1.42685
408 1 -1.49326 -1.77771 -16.7248 4.95655 0.804564 3.26962
411 1 -1.85056 -2.83286 -8.94281 -6.92342 -1.50987 -0.765203
415 1 -16.9712 6.74066 -9.34211 0.294709 -3.07232 3.16116
421 1 -15.6876 -22.6524 -13.6999 -0.571821 -2.40315 -1.46235
426 1 -15.9618 -2.67987 -8.98216 4.0836 -0.824301 -0.364946
429 1 -6.35741 9.37945 -13.2855 2.71162 2.56272 1.86315
433 1 -18.3451 0.645254 -17.0906 -0.744967 -1.44835 -4.93619
434 1 -13.2851 -2.89771 -11.3234 -4.03412 -0.686565 5.03147
436 1 -14.5639 -10.4746 -8.91776 2.34465 -3.32604 -5.17699
438 1 -18.6256 6.04409 -3.62932 3.4619 2.81613 -0.524421
444 1 -23.5591 7.06271 -18.3288 3.96089 0.71481 5.3599
454 1 -5.69825 0.910773 -14.8468 -4.37162 -7.307 -2.7323
470 1 -21.4948 6.05699 -11.7171 4.75285 -4.00425 -0.0237995
476 1 -13.1415 -5.25996 -2.98121 -1.61501 -2.20652 -3.17248
477 1 -11.5213 -10.9464 -16.216 -2.36081 0.866804 0.237594
481 1 -2.07369 7.45881 -20.112 -2.86751 1.75829 5.33165
492 1 -15.3035 -16.8031 -12.1302 2.4063 -1.11259 0.0101512
495 1 -1.74292 -9.9718 -4.69625 -2.73392 0.39183 -5.53774
499 1 -24.6966 3.07042 -9.66695 -0.346421 1.50263 -2.28331
501 1 -14.6451 -12.3161 -6.51637 1.30301 -2.0444 0.442219
1836 1 -9.9168 -24.49 -17.5154 2.29038 -1.80235 0.609044
1517 1 -24.807 -14.8023 -9.13987 -2.837 -5.93923 -7.32052
517 1 -15.4738 -1.00654 -23.0874 -3.05785 2.87052 -0.450018
519 1 -21.1876 -12.6914 -9.01385 -5.05762 4.16833 -1.84603
520 1 -4.09291 -23.7644 -12.7421 -2.37551 0.279369 0.845315
523 1 -7.99385 -16.1928 -6.75107 -0.054871 1.39829 1.20015
525 1 -7.39414 -1.39986 -1.8786 -0.392957 -3.56194 -4.47073
532 1 -9.60946 -2.87254 -3.0488 2.11238 0.817818 0.638649
544 1 -4.52415 -18.7337 -18.9917 0.036858 -0.239642 -2.47089
546 1 -6.23115 -16.4301 -13.552 4.92954 3.3128 -1.0454
1605 1 -0.819032 -1.71705 -11.6542 0.15439 -2.93537 -0.815526
575 1 -15.9703 5.15679 -3.42514 3.02292 -1.32904 0.264105
580 1 -5.57077 3.54822 -21.2813 -5.70816 -0.656472 -3.41606
582 1 -3.00532 -14.3473 -17.9968 -2.50629 -4.4868 6.94046
2596 1 -14.9336 10.875 -20.3078 -5.48137 -0.18002 1.77499
589 1 -2.93749 4.07457 -1.50026 -7.02103 2.91129 -5.79398
1126 1 -0.706421 -13.2453 -12.3914 -4.19943 -8.2044 -3.36708
603 1 -5.7233 6.4484 -3.64603 -4.91696 1.93825 0.00673222
611 1 -2.01732 -6.88722 -6.74108 -0.719002 2.55074 3.93773
614 1 -18.2047 -9.89759 -4.89605 1.65759 0.824544 0.978729
624 1 -7.04037 1.35257 -20.3514 -1.53183 -0.898847 -0.0879461
626 1 -3.12742 2.93711 -19.4555 2.25486 8.45109 -0.104769
2170 1 -7.91365 -15.879 -0.240786 2.23161 -0.48974 2.30809
629 1 -5.51761 8.82909 -7.13971 -2.95008 -2.83905 -0.897567
636 1 -23.301 2.7671 -17.6248 0.699079 5.14948 -5.55619
637 1 -9.87352 -22.8315 -23.402 -2.78789 -1.83981 -1.04606
639 1 -11.1432 -17.9471 -22.285 0.364877 1.09933 2.40733
645 1 -8.6405 -7.24747 -18.6433 -2.47247 3.43721 4.3328
651 1 -22.8901 3.68551 -14.5934 -2.8816 -5.58284 -4.37226
652 1 -7.4271 -4.52522 -18.6375 -0.945149 -0.899247 -7.26344
653 1 -22.7038 -20.7912 -13.0505 0.58105 7.7387 1.57
654 1 -10.8291 -1.53599 -19.8902 0.940162 -1.28941 0.837957
655 1 -3.72411 -11.3222 -12.1136 1.3314 -3.02649 -5.19342
661 1 -17.6363 -7.92059 -17.4736 -1.49271 1.53301 -1.20013
663 1 -12.1722 -18.3624 -8.60761 5.13516 -0.210713 3.08132
666 1 -9.55844 -7.19202 -11.3677 0.598089 6.55953 -3.10857
2963 1 -24.5213 10.5094 -5.06825 1.84228 1.39952 2.97467
1919 1 -22.455 10.9327 -14.0903 -4.92631 0.689877 8.0331
674 1 -8.76778 -0.598246 -21.5784 4.50483 -5.83855 -1.23663
675 1 -22.1371 -10.0508 -9.86552 -0.144376 4.02765 -2.04573
677 1 -24.2649 -13.3722 -11.9131 3.52853 3.74259 -0.828592
679 1 -17.7824 3.7102 -9.02844 -4.48245 1.43775 -4.96313
681 1 -1.97758 1.67468 -8.72836 11.2742 -2.72162 -0.0835664
688 1 -11.3702 -12.8678 -13.9782 3.23783 -1.07269 7.80517
689 1 -0.908701 -0.984592 -4.55288 -2.03478 2.48692 -1.26794
709 1 -8.88237 -2.99043 -6.09807 1.84781 0.516112 -3.07216
711 1 -14.5841 -6.12948 -14.8298 0.461975 -5.63505 -0.494018
717 1 -12.3789 -4.37188 -13.8141 -1.80564 1.56667 3.44895
721 1 -9.03098 -9.64375 -15.6471 3.26336 -2.14812 -2.13625
741 1 -16.3251 -19.6472 -11.5754 2.1738 1.68114 0.407646
751 1 -18.4765 10.6995 -12.9961 5.74746 1.43268 -1.97209
756 1 -5.25066 -3.46043 -2.05794 -0.678084 0.626413 2.93387
761 1 -8.69241 -12.5104 -7.00392 -4.29174 -0.638956 -1.52614
780 1 -5.31296 -9.75939 -19.9041 -1.63201 -4.7847 -2.65903
796 1 -9.52474 -15.779 -13.9096 2.36685 3.80392 2.19108
798 1 -14.8482 1.74833 -7.64572 2.6107 5.92655 -3.85597
808 1 -1.89268 -18.049 -10.3291 -4.64011 1.7555 0.531801
810 1 -21.2494 -12.9197 -6.2032 3.15311 1.79669 6.13072
811 1 -14.6514 -7.53057 -6.27857 2.66406 0.0143729 -4.43425
814 1 -21.3343 -1.30616 -1.65833 -4.49055 -1.0463 -2.57442
1354 1 -1.96767 -5.95906 -17.878 -1.27942 -0.640726 -0.00885796
3688 1 -11.282 -24.1102 -0.19214 -0.521761 1.53801 2.33343
826 1 -11.7094 7.18695 -3.88834 -5.60297 -0.401297 -2.17426
833 1 -11.0608 -4.30005 -7.49768 2.13344 -6.29128 -5.33405
837 1 -21.6148 -15.72 -6.31847 1.78527 0.107651 0.52422
842 1 -6.03656 -23.1054 -1.28437 -0.530868 -1.7909 -1.17793
847 1 -13.0224 -23.6128 -13.8148 -0.461094 2.79947 -3.1581
856 1 -20.1989 -2.28497 -8.69374 2.04243 3.34054 -3.06326
3989 1 -14.702 -10.3832 -13.6808 -0.614413 2.49078 -2.42834
872 1 -2.979 -8.09506 -20.0412 -4.87199 2.64524 -0.816222
873 1 -4.40249 -1.05729 -23.3656 -0.117109 -1.37876 -6.43019
882 1 -12.6016 -2.47266 -2.05134 1.34205 2.08643 0.443886
885 1 -5.18518 -18.8693 -2.91124 0.698985 -3.78062 1.13104
821 1 -24.4623 -22.5263 -23.0193 1.71038 3.72604 2.80551
900 1 -13.5962 -14.4878 -12.7064 1.0976 3.68852 -1.83925
904 1 -10.3304 -7.05235 -6.93353 -2.60836 4.59989 1.73359
907 1 -15.836 2.35384 -10.3632 -0.180058 -1.75241 -1.13939
910 1 -9.28108 5.88907 -4.10533 -6.5624 -0.16141 1.45181
922 1 -11.3276 1.32126 -19.7507 1.63087 4.77092 -1.21242
929 1 -8.52872 -13.5889 -2.95152 -4.31405 -3.59203 0.631292
930 1 -20.7794 -18.5295 -12.6467 -0.36496 1.06295 1.25013
939 1 -7.91716 -12.0422 -17.2306 1.7593 1.29137 3.5109
942 1 -6.30006 -16.6836 -20.2862 -2.52917 -1.88423 -0.5345
948 1 -22.0262 5.12808 -7.32189 -1.25161 -1.07702 3.44876
388 1 -19.2562 -24.3922 -23.9785 -4.3382 1.78492 -0.557546
956 1 -13.3652 -7.20976 -10.6035 -0.100412 1.25186 -2.00602
962 1 -4.29619 6.58385 -6.31283 -0.871771 -1.28419 -0.374532
970 1 -3.51227 -23.7158 -8.37396 -1.13482 0.982652 0.208247
2257 1 -0.842464 4.19506 -8.31492 2.17957 -3.89237 -8.1769
2837 1 -17.4269 10.6934 -8.86794 0.69706 1.72717 -2.22983
1001 1 -20.2632 -4.27418 -6.79209 -2.95601 -0.0989275 -0.837943
1010 1 -13.1035 3.89267 -10.4977 -0.0732885 -8.39355 -0.484418
1011 1 -20.0545 2.37967 -1.04821 4.47759 7.97556 -1.72259
1022 1 -9.15181 -21.9044 -10.0916 -0.149693 -1.95263 -3.66902
1024 1 -3.9837 7.36264 -24.109 0.387143 -4.78082 -1.22643
1028 1 -6.50172 -10.9992 -12.0429 -1.57269 0.184195 1.16845
1030 1 -17.4261 -16.7231 -22.2902 1.39601 2.51254 3.75784
1031 1 -4.62381 -10.6795 -4.08963 1.06443 0.00951087 6.71264
4103 1 -7.56494 -24.154 -8.67263 -5.79702 1.27117 2.97669
1041 1 -2.58195 7.63834 -14.1082 1.4732 1.77953 -1.63196
1049 1 -24.3432 -0.478996 -12.0275 1.43563 -1.05413 4.67232
1052 1 -20.6898 -2.89874 -19.6541 -8.11479 -1.69367 1.36419
1057 1 -7.33244 -17.5776 -16.2109 6.57533 -0.504443 -4.93227
1080 1 -19.8986 -8.7924 -8.66722 -3.18965 -2.01295 4.00758
1082 1 -17.5566 -17.9 -5.35938 -2.59818 -1.82139 -0.392783
1084 1 -2.59165 -15.5065 -5.24563 -3.50409 2.31357 -0.804618
1085 1 -11.2077 -14.6452 -3.6354 -3.19223 -4.03087 0.0647233
1086 1 -9.92541 9.33126 -3.07511 -0.348057 -1.18855 2.45997
1090 1 -20.9614 -20.9646 -10.7837 0.531707 4.49365 -0.468092
1092 1 -20.3698 -17.5263 -4.12567 -3.33873 -1.53614 3.87585
1120 1 -5.97226 -14.3549 -1.93148 -1.20871 0.845297 0.0717839
279 1 -23.9622 -1.877 -0.613399 0.886471 4.92292 3.15945
3977 1 -9.65979 -17.9248 -18.0027 0.41214 5.81381 2.29613
1136 1 -20.7097 -20.5073 -21.0312 -4.652 5.28391 -4.51146
1160 1 -8.9984 5.38543 -10.3038 0.448985 0.435203 -1.65458
3031 1 -24.2813 -9.70403 -19.7365 2.43405 3.92599 -2.37349
1172 1 -22.0001 -16.0249 -15.3743 -2.45596 1.51988 0.265182
1174 1 -23.8396 -20.2465 -16.002 4.13998 -1.02523 2.06989
1180 1 -9.50646 -24.6792 -10.7294 1.9461 -2.85358 1.98799
1191 1 -0.839039 -3.58549 -19.19 -0.412784 -1.69762 0.574663
1192 1 -14.5919 -0.430085 -10.5339 -0.278034 -4.74005 -0.223785
1199 1 -12.9269 5.79976 -12.811 -2.1559 5.67494 -0.856932
1202 1 -15.9974 -0.896248 -4.90244 -2.62901 3.16289 -2.06142
1203 1 -15.9045 -12.2788 -15.7007 -0.483931 -4.43911 2.43784
1228 1 -23.2322 -20.3287 -9.11768 -0.190473 -0.598779 -0.391973
1230 1 -13.928 -16.1121 -8.06012 -4.36058 0.870222 -3.21785
1231 1 -17.3961 -10.5211 -9.00889 -3.23248 1.98669 0.337697
1233 1 -2.84704 0.952217 -21.7213 -0.207805 -0.768852 5.08569
1245 1 -19.6719 10.3933 -21.7646 -1.86227 -1.93947 -1.19642
1247 1 -3.46175 0.749061 -11.204 0.225125 -0.525699 -1.80058
1257 1 -5.33069 -22.8071 -10.413 -0.618657 0.337541 -2.1975
1263 1 -15.3542 -6.5921 -2.22063 -0.0208299 3.74426 0.396853
1264 1 -22.4398 -10.9288 -2.35826 0.482295 3.99123 -1.75006
1268 1 -22.3444 -12.4611 -18.2178 1.67246 2.24835 1.95175
1276 1 -1.27699 -10.16 -19.3254 2.6099 3.40435 -0.677109
1286 1 -5.09399 5.48314 -16.4437 -1.69571 0.726554 -2.17033
1299 1 -10.5269 -10.4867 -6.13326 2.95341 1.42803 -1.44317
1302 1 -4.41991 -4.00265 -22.5146 -3.46338 5.62411 1.38647
1303 1 -6.75586 -8.18145 -16.4174 -0.519893 4.1143 2.06936
1307 1 -15.48 -22.536 -2.98642 -1.34776 0.358211 -4.6721
190 1 -16.0354 10.6171 -11.711 -3.07448 -2.38759 0.917889
1310 1 -0.672651 -18.0023 -1.68052 4.22652 -1.15606 5.85665
644 1 -6.81298 11.2705 -3.80618 -2.56378 3.66044 -1.92231
1315 1 -20.8312 -12.0876 -22.2648 0.306639 -0.605649 -0.267988
1317 1 -11.4585 9.63685 -12.0087 -0.898755 -1.20591 5.55608
1324 1 -10.6959 -20.7897 -19.7828 -2.19988 -1.89458 0.185714
1326 1 -19.4855 -18.5776 -19.6208 9.19333 3.72962 -3.85811
1331 1 -19.0291 3.14955 -3.91199 1.8519 -0.934121 1.22774
1343 1 -12.4514 -8.48326 -8.09837 1.40704 1.94135 2.07798
1345 1 -23.5362 3.20573 -20.4059 -3.99616 -0.287697 -1.37304
1347 1 -17.6312 -12.7431 -20.3038 -8.16251 2.79361 1.28989
1350 1 -15.1557 0.69063 -2.71178 2.6539 1.44395 -1.97317
1356 1 -19.9973 -12.5621 -2.16522 2.01014 0.0124472 2.39892
1357 1 -20.0163 -6.71347 -10.8369 -0.528485 -2.01932 -0.658934
1363 1 -16.6175 -10.4733 -21.7706 7.13523 -0.700373 -3.08832
1371 1 -21.0882 9.28367 -2.30521 -1.45124 -6.4658 -3.11659
951 1 -8.35388 -24.2281 -13.4421 4.6373 -2.29805 -3.15057
3972 1 -5.73215 -8.36362 -10.9514 1.68691 0.565391 -1.7685
1399 1 -1.50038 -23.3632 -1.28552 3.54347 0.183649 -2.4845
1402 1 -18.6968 -5.99099 -15.749 1.11207 1.78776 0.810264
1406 1 -7.8368 2.97001 -11.5766 3.68584 1.57326 -0.223741
1407 1 -23.7741 8.01737 -1.72334 0.246684 -0.571091 -2.22796
1408 1 -4.111 -5.41763 -13.9222 2.15854 1.33942 -7.17239
1413 1 -15.0891 2.99687 -20.4738 3.67079 2.55885 -3.34741
1422 1 -13.0244 -19.3461 -14.7493 2.59848 2.12816 -5.14261
1431 1 -9.32868 1.82972 -9.41074 -0.534923 -0.144321 -1.63918
1433 1 -18.7169 -12.5769 -15.9224 4.65453 -1.60868 0.207448
1436 1 -16.6855 -4.36178 -14.2911 -0.0617722 4.16964 0.919806
3306 1 -7.81127 10.7093 -21.98 -2.86543 -0.818848 2.63444
1439 1 -18.0896 8.26217 -11.395 -0.970927 0.894997 0.879049
1442 1 -22.2637 -6.74341 -4.92018 1.26909 -2.92629 -0.496895
1450 1 -6.37562 -4.99846 -8.92383 0.100555 5.34936 -1.39129
1452 1 -5.81793 -23.7796 -17.2055 1.80445 -1.78682 1.28665
2893 1 -10.7404 -15.7913 -23.9045 2.00919 3.86741 -3.66118
1455 1 -14.0245 -17.8284 -3.05838 3.72792 -0.376373 -2.60617
1457 1 -19.0692 1.91127 -19.5773 4.85323 0.926439 -0.586795
1459 1 -11.7768 -11.5395 -3.38363 0.988325 -1.26425 3.24968
1460 1 -14.0567 8.34703 -11.791 -5.26212 0.319576 -2.71377
1466 1 -17.8565 -5.70335 -3.22221 4.69891 -3.8983 4.08957
1471 1 -4.50323 -5.05912 -10.9312 0.756483 -4.10982 3.22969
1475 1 -22.0707 -23.9295 -3.83859 -1.23712 1.77045 -3.00505
1487 1 -2.5035 4.50991 -17.1315 1.47435 2.60472 1.91196
1490 1 -23.4323 4.09229 -2.36451 4.14311 -1.40842 3.23572
1493 1 -4.08073 -7.52571 -16.2739 -1.73652 -1.39686 1.09771
1494 1 -8.42819 6.95334 -18.917 3.64444 0.571676 0.747633
1496 1 -3.83098 9.82606 -9.535 1.96966 -0.390128 -0.523409
1502 1 -24.2602 -6.5936 -7.3013 -3.95404 -1.9892 2.72588
1504 1 -3.49532 -23.8209 -5.48668 -5.51442 -2.75168 -0.698266
1512 1 -13.0701 -13.9459 -1.05603 1.95089 -4.77426 -0.622273
1514 1 -13.5064 -4.90159 -5.68775 0.81234 -2.77571 -0.210877
1522 1 -12.6692 -1.61593 -14.3442 -2.4858 -0.389578 4.4729
1536 1 -7.14893 -0.270879 -23.784 1.71172 2.33938 1.37778
1540 1 -20.4833 5.53279 -22.4403 0.918466 -8.3269 -3.33489
1550 1 -2.90061 -7.51439 -10.4503 3.39501 2.60118 -1.95932
1554 1 -6.66793 -7.40986 -20.803 -0.343001 -0.103691 0.222172
1555 1 -21.2922 -3.97791 -4.2817 2.21128 5.28956 -0.633835
1570 1 -21.969 1.30162 -12.7012 0.88829 -1.89826 -1.76977
1571 1 -3.14246 -9.04816 -0.461313 0.560987 -1.05285 -0.650536
1580 1 -16.0933 -21.8057 -5.80637 2.92138 -1.4913 -2.12339
1582 1 -13.9855 5.23874 -1.03033 1.21365 0.106588 0.521195
1589 1 -10.7736 -21.8697 -2.39686 0.637799 1.59389 0.021173
1596 1 -4.33842 -2.06238 -16.9762 -3.27346 5.36085 -1.9165
1602 1 -20.3033 -13.6404 -19.8389 -1.50369 -0.46288 1.88984
40 1 -1.6842 1.09192 -17.6301 0.367669 -0.355314 -1.03842
1615 1 -3.29774 -15.7354 -9.62167 -1.60971 -0.172932 2.74635
1617 1 -14.5053 -12.8545 -10.7649 4.70914 0.0463602 1.21368
1632 1 -5.7751 8.57821 -22.2754 -1.25142 1.59953 1.14532
1634 1 -20.5222 -9.1736 -22.8707 0.575638 3.55006 -0.661549
1640 1 -17.494 -22.2402 -11.3813 -5.61563 3.14766 -4.8133
1645 1 -4.63466 -5.66174 -6.78263 2.912 1.8119 -1.74233
1646 1 -22.2952 -7.02363 -18.5216 0.210782 0.645471 4.31533
207 1 -7.66142 6.75913 -23.4589 1.01155 0.0940901 1.91782
1649 1 -17.3841 -6.91576 -11.2428 -6.58715 -3.52933 -3.97154
1662 1 -9.3665 -20.5193 -7.67767 -1.86494 -1.83425 -1.16725
1663 1 -14.951 -1.22841 -0.773159 -1.89257 5.37479 -4.17333
1676 1 -20.111 1.36123 -5.82941 1.64247 2.32518 1.13913
2347 1 -14.8729 9.71137 -14.4273 -0.421271 -5.2152 -0.961373
1681 1 -18.2146 -8.13001 -22.067 0.0707272 0.978834 3.06841
1688 1 -17.9904 -2.25958 -12.4884 -3.09102 -1.36305 -2.11292
1694 1 -14.4155 3.26918 -12.9806 2.23495 -1.79952 2.42103
1710 1 -7.71905 -21.4508 -13.9716 3.72382 2.54056 0.317732
1724 1 -17.9531 -23.8456 -3.91355 0.696659 -1.15295 -5.22758
1725 1 -14.757 5.65043 -16.6977 4.55136 3.85878 -1.95942
3959 1 -20.6895 -5.61562 -20.2106 0.055703 -0.80629 0.728926
1730 1 -2.74863 -9.72419 -23.9624 -3.31645 0.560318 2.13419
1737 1 -17.578 0.706639 -6.41507 0.501176 -4.83736 0.688873
1753 1 -23.0311 -16.4042 -21.2113 3.3582 -3.08143 -1.70095
1755 1 -10.2202 -1.01272 -9.13263 -0.998268 -0.91223 -0.226414
1760 1 -16.4781 -13.9533 -22.5972 1.58907 1.46346 -5.13682
1778 1 -16.5788 -8.16187 -13.6142 -3.22114 0.83795 -1.00192
1782 1 -22.071 -14.8701 -10.4634 2.80099 2.66256 7.90489
1785 1 -7.0855 7.18921 -9.14579 -1.0381 -4.12125 -4.07047
1786 1 -4.2805 0.932921 -7.26469 -2.30725 -3.83457 -1.99434
1796 1 -22.8788 -10.5981 -23.6253 -2.13071 -0.645181 -0.745031
1799 1 -12.0236 10.8342 -14.7175 -4.36649 0.712238 1.93963
1801 1 -11.5178 -19.3379 -3.80304 1.2973 3.14098 1.64582
1802 1 -18.5116 -19.3667 -9.09968 3.53611 3.50042 -0.290052
1804 1 -1.71317 -22.367 -13.2005 4.07918 3.30878 4.42774
1812 1 -11.3608 -4.09264 -21.3109 4.95206 -1.70039 0.419225
1828 1 -14.3166 -23.2088 -20.8732 -4.69547 -5.23977 2.55184
1830 1 -15.5517 1.70701 -16.1974 -4.26704 -2.08843 2.89342
2835 1 -5.2573 5.76174 -0.717746 -2.02389 7.57608 -0.430194
1851 1 -6.55892 3.20121 -1.23479 1.04702 0.433279 0.705496
1861 1 -15.6898 -21.5688 -17.2459 -0.975515 0.631927 -1.07823
1862 1 -12.824 -2.12539 -8.47945 0.303904 4.92609 -1.61629
1863 1 -4.52726 -11.9569 -8.24765 -3.82933 -2.74729 1.57582
1872 1 -1.52638 -10.2163 -10.1449 -6.43952 0.157018 -0.597068
1874 1 -10.4103 -16.0149 -20.1795 0.781233 0.775263 2.66302
3973 1 -12.0095 -20.5735 -6.53016 0.241347 -2.87403 -0.667874
1876 1 -23.1968 9.31915 -20.1666 3.07905 2.64011 2.07972
1879 1 -20.6313 -17.4621 -17.5394 7.04946 -1.73576 -0.776186
1883 1 -6.70767 -12.518 -5.01718 -1.76988 3.02565 4.29679
1888 1 -9.1827 -18.7288 -14.1372 1.4983 -2.54708 -3.87324
1891 1 -9.50568 -13.5131 -23.0305 1.21057 -0.436993 -1.36726
1549 1 -1.85653 -4.29208 -15.4727 1.8608 -0.591048 1.22847
1901 1 -10.0774 -13.9231 -18.0724 -0.671561 -2.6378 -2.39416
1905 1 -14.4565 9.00733 -6.20183 6.96966 -0.571885 -2.42969
1918 1 -18.1254 -1.21744 -19.7727 8.49097 -0.918081 -5.52058
1728 1 -24.3166 -6.75648 -20.612 3.45063 -1.9749 0.631389
1927 1 -8.68367 -22.7967 -20.7494 2.03463 -2.64591 0.260762
1930 1 -7.06897 -14.9844 -17.8909 0.682951 3.01513 4.18117
1931 1 -9.46288 6.87067 -1.26304 -5.38589 6.74027 -2.48275
3968 1 -2.1952 3.14394 -4.53167 0.230325 -0.47996 -1.80155
1942 1 -2.21459 8.39777 -2.77922 0.521566 1.25036 -2.17978
1944 1 -20.2447 -22.3484 -2.54336 2.78633 2.15529 2.55243
1949 1 -8.41814 -7.35978 -8.90967 -3.83754 -2.96208 -2.29395
1960 1 -15.851 -4.46583 -19.8419 3.89265 -2.35033 1.03757
1966 1 -18.1862 -17.3868 -11.1219 0.0483851 -4.11085 0.57187
1980 1 -21.5458 5.52067 -19.4587 -2.20942 1.87725 -3.07196
1996 1 -10.5728 6.90666 -23.5064 -1.2213 1.94236 -2.1185
2001 1 -9.58416 -11.3281 -1.54893 -1.8933 -0.398237 1.85598
2009 1 -4.34293 1.29445 -0.770763 -0.344487 -1.61642 1.12598
2015 1 -1.98696 -7.28762 -3.71345 1.15974 1.41372 3.55159
2016 1 -5.20453 -14.3881 -6.51776 -0.957072 1.17343 -0.616494
2031 1 -6.89603 -20.7595 -11.3827 -1.22971 -4.10429 0.408889
2034 1 -10.0699 -3.19311 -17.6249 -2.42502 3.31239 -1.10106
2036 1 -13.3001 7.16099 -22.7881 -1.49055 4.3245 -1.22364
2040 1 -6.02063 -23.4754 -4.37168 0.930334 1.49996 -1.0964
2050 1 -11.2448 7.13207 -10.619 0.281053 -1.73863 0.994417
2051 1 -22.7998 8.17486 -4.5828 1.35172 -1.30556 -0.142805
2052 1 -9.39782 3.18092 -20.3674 2.1613 1.5741 0.536646
2060 1 -7.20133 -0.878313 -5.03054 -4.38621 -1.10299 -0.530883
1383 1 -5.98816 -24.635 -14.4301 0.315695 0.048681 -5.44114
2063 1 -11.6214 -11.8056 -18.9461 1.88442 -3.85108 1.64171
2068 1 -14.7712 7.9158 -3.39729 1.11232 1.25262 1.0365
3994 1 -15.6578 -20.8969 -20.1102 4.20486 -4.28429 -1.76228
2073 1 -18.9133 7.24482 -15.7259 -3.01578 4.60722 1.34298
2078 1 -12.9121 1.66461 -22.1997 -0.504714 -2.34402 3.27908
3648 1 -24.2218 -20.1414 -1.99936 3.25601 -0.319828 0.316522
2085 1 -20.1313 -21.7265 -8.0812 0.00897711 -2.84799 -8.26255
2087 1 -10.3623 6.68913 -16.7837 -2.03903 2.42797 -3.62887
2098 1 -15.1545 -16.1141 -5.25357 1.80398 -1.33967 -2.67294
2106 1 -20.1071 -16.4413 -21.0569 2.38354 2.16159 0.611416
2107 1 -8.8736 5.68348 -13.0392 -3.41598 2.3262 -0.522245
2118 1 -11.5378 -0.761205 -4.10392 0.299469 0.707128 -1.38696
2128 1 -18.4396 -19.9838 -1.69747 3.72573 -2.08271 0.0160691
2130 1 -22.4371 9.51343 -7.25841 0.566712 -4.14618 -1.34054
2139 1 -9.14225 4.2846 -17.7371 4.9417 1.20749 -0.692417
1897 1 -12.6737 -24.8337 -5.26776 -4.77836 1.56376 -4.51749
2167 1 -14.0993 -11.5194 -17.7332 -0.164454 -4.84883 4.15544
2194 1 -20.0294 3.07976 -23.602 -0.361316 1.98174 -0.663298
2195 1 -9.38639 -17.8398 -8.76757 1.71509 2.31749 -3.11732
2196 1 -3.38324 5.59819 -12.3483 -1.18945 -0.458814 4.21902
2205 1 -23.0665 7.74261 -15.7995 -1.79495 1.24683 -2.55555
2206 1 -2.95288 -9.70637 -14.6095 -4.10249 0.310801 -2.91441
2207 1 -23.4622 -7.39122 -2.35466 3.22564 0.89821 0.681598
2211 1 -17.637 4.30505 -19.691 -0.864988 2.42093 -0.0435466
2212 1 -17.8174 -5.22009 -5.98456 -2.39177 7.11319 7.3269
2228 1 -8.69991 -8.56781 -22.6019 -1.83738 4.96467 -5.56739
2233 1 -11.0269 2.05162 -17.0019 -0.1367 6.23648 3.63255
2234 1 -4.7809 2.10724 -4.78902 -4.17497 1.9253 1.27594
2241 1 -22.5239 -2.63473 -17.3375 -2.27491 -3.46459 -1.64628
2248 1 -2.09258 -7.08208 -13.1293 -0.297737 1.91264 0.87641
2251 1 -12.0114 -8.45436 -12.5541 -1.64847 -0.556773 8.82493
3803 1 -18.9699 -4.75123 -23.6447 1.32185 -3.38351 2.98727
2267 1 -10.7289 -15.54 -0.946071 2.74798 -0.952061 1.79572
2278 1 -13.938 -13.5476 -4.0506 0.383093 1.36369 -1.08712
2292 1 -13.4213 -10.0921 -1.68489 2.05696 0.264081 -2.16823
2294 1 -19.5625 9.54043 -17.6603 -4.07728 -2.4362 -1.7185
2296 1 -22.2939 -9.78746 -17.6389 3.02613 3.29667 1.24937
2298 1 -2.25814 -21.4506 -5.10231 3.16971 -0.921387 -1.57499
2317 1 -3.39322 -9.1258 -8.1486 5.10825 0.122858 -2.31687
2328 1 -9.28371 -8.45534 -4.29402 -2.49267 -2.11801 1.90446
1680 1 -24.4221 -18.765 -20.3476 -0.797156 2.65077 4.40396
2361 1 -22.1434 8.87793 -12.2499 -3.00235 5.69548 1.71132
2368 1 -6.60409 -19.8806 -6.80152 0.654115 -0.367207 -1.39667
2370 1 -22.4767 -8.95496 -6.95044 -3.67089 -2.79433 -1.95097
2688 1 -17.4503 -2.8793 -0.0508295 1.73096 2.3541 -1.02862
2374 1 -4.93377 8.74524 -1.62186 0.277804 -2.25697 -0.372376
2377 1 -6.1103 -6.75574 -4.69793 3.86925 -1.49237 6.88421
2390 1 -21.604 -6.44165 -8.02381 -0.892122 -5.56843 3.5884
1754 1 -24.598 10.69 -22.6181 -1.0035 0.30877 -0.433054
2403 1 -10.9122 0.134052 -23.6698 -0.402427 2.35399 -2.27505
2404 1 -21.1549 -6.32432 -22.8329 0.386817 -0.735602 3.01639
2405 1 -3.97687 -11.1375 -21.7989 1.98847 -2.90299 0.972297
2408 1 -22.056 -4.17995 -12.4912 -1.73302 -0.268181 -0.0238343
933 1 -19.1951 -21.713 -23.0589 -0.606949 3.37564 -1.2704
2420 1 -0.869005 -5.62013 -9.17393 1.89316 -4.23205 1.27918
2425 1 -15.4207 9.1295 -22.5632 4.29243 -0.48661 0.118282
2429 1 -9.22372 -9.81698 -12.8301 0.026203 2.85715 0.986591
3958 1 -1.4893 7.79099 -6.74208 0.146742 0.488321 1.29682
2438 1 -5.14637 -22.1107 -22.474 -2.20205 -6.51683 -3.5141
2442 1 -2.29622 -11.7019 -16.8246 1.25194 -4.53895 0.698831
2454 1 -5.05721 10.0732 -17.4673 2.66705 3.63885 1.4168
2465 1 -7.27385 -14.932 -11.1889 -0.649103 -3.58046 -1.94896
628 1 -22.386 -15.4208 -0.28926 2.91534 -0.691657 -1.81616
2474 1 -5.12539 -10.5555 -16.8666 -3.34699 1.99352 -1.51149
2476 1 -6.764 -20.7661 -19.4303 0.355918 -3.02976 -1.31431
2478 1 -3.68993 -21.6535 -0.738461 3.45043 0.608482 5.25604
2481 1 -15.8235 -7.84354 -9.26636 -0.94296 2.15817 -1.84092
3993 1 -6.89499 -9.3275 -5.62326 2.50698 -1.13475 0.283898
2494 1 -13.7298 -14.8517 -23.6773 3.66383 -1.32244 -0.3152
231 1 -24.0435 -2.71145 -21.8647 -3.66296 -0.463446 -0.289812
2510 1 -22.5167 1.27149 -2.60402 -2.13753 4.85762 1.52108
2518 1 -1.40731 -4.56773 -2.30094 -3.25094 1.67154 -6.65108
2520 1 -22.811 0.335871 -7.00192 -3.86295 -2.21027 -3.02561
2523 1 -17.8384 -22.5839 -20.6854 -3.68931 -0.366365 0.325465
2525 1 -12.7774 -13.5037 -8.31124 0.259564 2.95672 0.992455
2526 1 -9.93932 -5.11818 -15.2737 -0.306313 -6.0736 -0.00921361
2529 1 -19.7883 -7.96372 -3.71301 4.71312 1.26288 -0.1059
2531 1 -19.5176 -10.0043 -16.6556 -1.592 -2.79053 -0.460997
2534 1 -17.3801 -11.0242 -1.99611 -1.21183 -1.79713 0.0203296
2538 1 -7.7157 3.98562 -22.8071 -0.321213 0.734412 0.86213
2542 1 -12.5598 -7.95159 -20.5206 -1.59358 -4.92836 0.0440801
2543 1 -17.5363 -7.98659 -6.74465 0.823607 3.50512 4.92786
2550 1 -23.1748 -18.4677 -17.9077 -4.49303 1.87164 2.58534
2558 1 -20.5783 8.31843 -19.7448 -0.885469 -0.865063 4.40453
2562 1 -19.7764 -3.8052 -10.9552 0.646398 -1.14407 -0.0410391
2564 1 -10.2057 -14.9592 -9.6784 -3.81163 -0.928762 4.45471
2567 1 -13.4104 -1.02613 -18.2103 2.61827 -0.534937 -2.7973
2190 1 -0.8737 3.81766 -12.095 4.18161 -1.70309 0.109549
2574 1 -18.2143 -23.3797 -6.84601 1.39443 -3.86234 3.69132
2578 1 -17.6497 -14.9518 -4.13658 -2.00214 -0.189469 -2.11721
2584 1 -11.7069 -21.1838 -11.1607 -1.63623 0.402267 2.15112
2593 1 -23.9517 -5.45603 -23.3658 -1.63397 -1.18149 -5.90683
2595 1 -1.3117 -16.7176 -19.1682 2.29861 -3.51712 -2.10736
1387 1 -19.3132 -0.415789 -0.0423807 -1.75574 -0.342988 3.61641
2597 1 -19.7482 -3.57439 -16.6965 -3.62651 2.86337 -1.21331
2602 1 -4.60241 -11.4512 -1.52289 -1.10648 -0.0170097 -0.876164
2605 1 -17.2982 8.56802 -4.71924 -4.75075 -0.478275 3.96411
2609 1 -13.9609 -5.53337 -17.5973 2.15178 -0.843749 -4.32423
2618 1 -7.99589 -17.9876 -11.4207 -1.03056 0.704766 0.242508
2619 1 -2.52024 9.88739 -21.896 2.0994 3.43656 -1.8235
2633 1 -3.41262 -15.7475 -12.6553 -5.51233 0.529607 -2.03679
2643 1 -1.95833 -13.9436 -23.3252 5.3696 1.57298 0.207011
2646 1 -4.05888 10.6439 -3.58865 -0.439272 -5.40527 -0.0480748
2652 1 -21.459 -6.33386 -14.551 0.471412 -2.5012 -2.04847
2653 1 -7.6885 8.98105 -1.12384 -0.78245 2.48493 2.75053
2656 1 -4.96613 8.03559 -19.592 2.449 1.14902 -3.71058
2667 1 -8.80223 -5.3949 -4.35405 -0.108423 3.44006 1.04134
2668 1 -8.55317 -18.6712 -20.6995 0.0357653 0.149512 1.7387
2673 1 -13.1192 -24.2181 -2.43452 1.08882 -1.60135 3.59843
2674 1 -8.26685 -21.418 -1.86914 4.36102 -4.3453 -4.26598
2681 1 -14.8675 -8.45614 -17.6375 0.79715 3.12612 2.11591
2683 1 -17.7765 4.761 -16.8473 -3.63483 0.268855 -2.23139
136 1 -0.365708 5.23165 -5.7426 6.29161 -0.582967 -1.51698
2689 1 -7.98337 -2.50637 -8.71717 -3.79505 -0.354391 3.0465
2690 1 -15.4803 -13.7239 -19.1211 -3.29818 -2.62947 0.633647
3146 1 -1.5496 8.3038 -9.62231 4.28997 -0.968797 -1.27434
2714 1 -19.2013 4.13898 -11.4269 -2.02035 -2.37732 -0.869657
2720 1 -14.5506 -9.85469 -20.0489 -1.37753 1.3178 -2.70906
2725 1 -1.96137 9.57362 -17.9088 1.90453 2.89237 -3.92045
2726 1 -12.0712 -8.28884 -23.4279 -6.27369 -0.611111 -1.00561
2727 1 -12.7061 -19.8234 -1.22551 0.367217 -0.460277 -6.18188
2729 1 -2.93272 -23.015 -18.0315 2.52021 1.14145 3.7925
2733 1 -7.54051 9.64839 -19.1147 1.96141 -0.113809 -0.5605
2735 1 -4.9881 8.14536 -15.408 3.7145 -0.628471 7.64671
2740 1 -13.1536 -14.7133 -20.8213 -3.90682 0.325583 7.02354
2744 1 -16.4634 -17.9652 -19.9616 0.00450862 4.48304 -1.19946
2748 1 -6.03974 -0.852326 -10.5913 5.13636 1.0016 3.94348
2758 1 -19.8906 -16.0078 -8.75854 3.54156 -1.36604 -0.637489
2767 1 -13.1168 -19.473 -20.7018 -1.49991 -0.563559 4.1441
2771 1 -18.9721 -14.9904 -17.5835 0.117378 -4.00879 -2.94138
2780 1 -13.5064 -0.469547 -6.24479 4.11559 2.31922 4.01878
2784 1 -11.6779 1.57102 -0.626506 1.63348 1.54776 -1.30404
2790 1 -6.92429 -5.81391 -14.7337 -0.283333 6.6343 3.284
2798 1 -21.7303 -1.1657 -4.66129 0.317333 -1.5897 -1.17039
2506 1 -22.8406 10.7315 -10.0801 3.15679 3.88241 4.56211
2800 1 -11.4682 -15.0261 -15.8991 -1.53499 1.34815 0.180106
2805 1 -14.3933 7.64986 -9.14126 0.148171 -0.0489383 0.30089
2832 1 -22.0149 -20.23 -6.52922 -3.61744 -2.03572 -5.05446
3824 1 -8.20796 -23.9667 -6.1145 -2.4877 -6.14285 1.82323
2928 1 -22.9056 -24.6051 -10.5727 3.52209 -2.66447 3.59042
2839 1 -17.412 -3.12494 -21.8726 -2.1756 3.81327 0.654347
2842 1 -2.55666 -13.1071 -10.0792 2.39962 0.0190856 1.63617
2848 1 -17.0164 -23.9877 -9.24124 3.55962 0.894791 1.5103
2855 1 -17.963 -6.50725 -20.0007 -5.28344 1.08625 0.964793
2859 1 -24.2362 -22.4118 -18.0025 1.71312 -2.96582 6.29635
2885 1 -7.22196 3.69 -7.09505 0.306319 0.378322 0.906803
2888 1 -11.1237 4.06713 -22.852 1.7108 0.637038 5.53178
2890 1 -1.72578 -7.13332 -22.6055 -3.91585 2.71913 6.37212
2898 1 -10.0291 -9.51068 -19.9903 0.491743 -4.87439 0.584616
2901 1 -12.2635 -17.534 -16.9322 -3.20492 0.893794 2.93529
2902 1 -21.2819 1.5323 -21.4774 -1.6675 -2.1656 1.79318
2909 1 -10.2559 -5.95143 -23.1065 -0.385725 2.05256 -0.277184
2915 1 -15.0135 -11.5885 -23.9103 2.59933 -2.82432 1.71327
3181 1 -19.9497 -17.307 -23.915 0.61418 0.135868 0.631433
2926 1 -8.8456 8.4365 -12.7779 1.38741 -2.60469 -5.22726
2396 1 -15.3418 -20.6802 -0.768761 -1.96002 -5.70828 0.727589
2930 1 -21.6174 4.79319 -0.0678736 -1.72255 -5.1785 0.642381
2937 1 -16.8846 3.60344 -14.2073 -1.73742 -0.19469 2.2935
2938 1 -7.1942 -5.77529 -1.89437 1.25756 2.26395 -3.76375
2941 1 -4.93508 3.31076 -11.0875 2.94477 -1.08038 1.67809
2945 1 -6.85819 10.5945 -9.00445 -2.65993 1.21514 1.96852
815 1 -22.1215 10.3012 -16.7451 -11.2404 3.87287 -0.209341
2960 1 -12.8517 -1.83327 -22.2608 -3.28801 4.76553 -4.24024
2961 1 -12.9845 -11.9568 -21.702 -1.96602 2.81118 -1.32225
2962 1 -8.13404 -0.621112 -15.9229 -0.673773 -0.822117 -2.09158
2972 1 -9.3284 9.28635 -9.80774 -3.80299 -0.324806 -1.40943
2987 1 -21.5797 -24.2345 -7.94533 2.28469 3.74977 3.41794
3007 1 -7.22932 -19.9152 -22.9096 2.76853 0.730279 2.58835
3010 1 -16.1895 -19.7523 -14.6531 1.83053 -1.81651 0.44895
3011 1 -9.79445 -1.60132 -11.8652 -1.1052 1.41103 -0.483819
3018 1 -22.3781 -1.41501 -13.6971 -0.772925 5.47428 -4.4569
1073 1 -1.45297 -22.0124 -9.06674 4.6963 -0.365157 1.18483
3034 1 -10.832 -7.52996 -16.4829 2.9736 1.40338 1.37762
3038 1 -17.3595 -23.7991 -16.0564 -0.351225 -0.660761 -0.526874
3049 1 -10.8748 -21.2953 -13.9895 5.42703 -5.91903 1.941
3051 1 -17.5441 0.271948 -11.3587 4.32114 -2.69173 7.6084
3059 1 -10.5483 -22.6795 -5.1697 -1.09254 2.95076 5.23909
3071 1 -3.54269 -2.93693 -6.47609 -0.604476 -2.74015 1.94805
3077 1 -13.811 -22.819 -6.6417 -1.12373 -0.960685 7.87786
3078 1 -21.1468 5.88238 -14.7113 -1.51869 1.19911 3.60911
3085 1 -15.8821 -3.38185 -6.3403 1.80423 0.747206 -5.14991
3093 1 -12.9689 4.98143 -20.9824 1.9193 -3.01155 0.534806
3095 1 -16.0181 -13.5258 -1.97783 -0.420098 1.1627 3.49861
3097 1 -7.61392 -11.3696 -20.0125 -1.08091 3.02665 0.99448
3991 1 -18.021 8.45575 -22.9901 -3.09644 -0.192245 3.74509
3103 1 -5.94176 -12.2876 -23.3189 -1.28955 -1.85956 2.25002
3120 1 -11.3039 -5.90527 -18.8057 0.0963913 0.471591 0.941096
3125 1 -1.44173 -15.3248 -2.41494 0.744848 -4.01358 0.943074
3135 1 -18.9257 -12.656 -4.84689 -4.56884 0.0477558 1.02
3812 1 -3.3106 -14.1699 -0.790203 0.582006 0.263709 -2.83568
2711 1 -14.9199 -6.0321 -24.0456 5.80717 -0.993095 -2.17149
3963 1 -16.6331 -16.4114 -1.96549 0.859323 0.351044 -1.59046
3161 1 -9.56517 -17.3434 -3.16821 -2.07407 -1.37678 -2.54629
3162 1 -14.3586 -14.5987 -15.48 0.4824 2.61967 -0.234831
1412 1 -20.0211 9.88178 -10.3158 1.8991 2.25741 -1.87358
3202 1 -18.544 -13.374 -9.76399 0.442916 -0.214833 -0.721794
3205 1 -13.1256 4.7097 -3.64876 -3.26193 1.36688 2.48255
3210 1 -12.769 9.7425 -2.61242 1.21697 6.37404 2.3769
3212 1 -12.7196 6.60682 -18.5167 1.1903 -1.94976 0.0456932
3213 1 -2.1394 2.97683 -14.6662 -1.10177 -1.27573 6.45186
3219 1 -7.36248 -21.4873 -16.8359 -7.69951 -1.12185 1.63268
3221 1 -4.59093 -8.17381 -2.7251 4.84918 2.5082 0.613005
2949 1 -10.0542 -20.0601 -23.7408 -1.58764 2.93055 -2.77992
3378 1 -5.8047 -18.2454 -0.334756 -7.12956 3.59018 1.8693
3229 1 -8.77259 1.66071 -3.93525 -1.57717 -0.462135 1.72922
3231 1 -18.8282 -17.3056 -0.502414 4.10088 -2.15436 -0.208712
3240 1 -12.8205 -21.8977 -16.4563 2.3183 2.80492 -3.38125
3247 1 -5.05665 7.68275 -11.514 1.83318 0.724979 2.08904
3261 1 -14.6125 -2.84373 -16.3952 -7.20506 3.169 1.59983
3273 1 -17.3977 10.0042 -15.6651 -2.40577 -2.22298 -1.71902
3294 1 -20.5987 1.54674 -15.5125 5.72712 0.702465 0.102478
3300 1 -2.61366 5.76732 -9.66561 0.704629 -1.09015 -0.994666
329 1 -0.525879 1.1225 -11.3516 -0.459056 1.94359 3.71188
3326 1 -23.0221 6.78705 -21.8341 -3.18124 -2.61519 4.58942
3331 1 -19.5865 -3.94412 -2.12195 5.68499 -0.573437 0.0177701
3343 1 -23.2273 -5.42182 -16.5068 -5.159 -0.54914 0.921297
3354 1 -15.0044 7.96185 -0.394678 -1.63391 -1.19814 -6.12644
3355 1 -16.2828 -19.7725 -3.58237 1.68651 0.781812 0.524205
3362 1 -7.34917 4.05216 -15.4261 -1.20614 -1.67165 3.47415
3364 1 -20.9474 -8.55944 -1.29472 -1.84988 -7.89462 -0.330221
3366 1 -21.4067 -21.6556 -18.3637 -0.236565 -4.5511 7.75879
3369 1 -3.67452 -2.19454 -11.0122 3.20884 0.363898 0.761326
3370 1 -18.9952 -15.9008 -14.6828 -1.17414 1.13391 0.650819
3381 1 -2.94344 -17.3915 -22.7266 -4.60768 0.542263 3.4156
3385 1 -3.58672 -19.9751 -6.9981 -0.836434 -4.51673 -0.760961
3389 1 -12.5147 -11.1653 -11.9143 -0.539765 3.05353 3.78421
3392 1 -7.31919 1.73783 -17.5142 0.718887 1.00183 0.846618
3396 1 -21.4939 5.4497 -4.39077 -1.76917 -5.02001 4.15863
3398 1 -6.97703 -20.7891 -4.09395 0.212268 3.87728 -0.438309
3401 1 -20.0562 -23.471 -11.6151 -2.93691 -0.0863269 8.72365
993 1 -23.0529 2.29367 -23.6508 -5.97325 4.88441 -4.94901
3413 1 -3.26335 -17.1055 -16.6841 -2.18157 1.43268 0.156979
3414 1 -16.8533 3.72231 -6.12829 1.98577 1.49951 -4.6104
3415 1 -16.7024 -1.294 -15.216 -1.29656 1.00103 0.322676
3431 1 -10.3583 -5.34458 -1.5686 1.67849 -0.0676928 -4.89052
3433 1 -6.88438 -2.92531 -20.9385 1.63395 -4.08026 0.966306
3445 1 -12.1255 1.12752 -10.2621 -0.0893839 2.09823 2.46984
3446 1 -2.43544 -21.2226 -15.7938 -0.547364 -6.6449 -2.67469
3447 1 -5.1316 5.05736 -8.57587 -2.21425 2.75994 -2.45499
3450 1 -2.99514 -13.2854 -14.1597 2.47161 6.07771 -3.88684
3452 1 -11.4638 0.771859 -13.0047 2.30004 -3.42351 1.08678
3466 1 -9.86585 4.21975 -7.69101 0.344772 -4.01124 -0.0767979
3470 1 -16.2358 -19.6662 -7.67951 -0.685429 -1.59963 4.63419
3471 1 -17.2547 -19.1142 -17.3586 -2.56149 1.01205 -1.65694
3472 1 -15.2731 6.85293 -14.2041 -0.594353 -2.77112 -1.97528
3477 1 -19.7355 -1.27997 -14.8704 4.06232 0.311633 -2.90699
3491 1 -9.34894 8.30568 -21.3997 -2.08193 -1.53649 4.8466
3496 1 -9.74426 9.21051 -15.5573 -6.33732 4.37786 0.00834604
3508 1 -1.77212 -12.9972 -20.4617 -3.66978 4.17971 -1.40743
3509 1 -23.0201 -20.0157 -22.4463 -0.993821 -1.6176 -2.13855
3513 1 -20.9444 -20.8033 -15.563 -2.13192 2.56168 1.78978
3516 1 -20.5707 3.5839 -17.6304 1.66829 -4.28118 5.24379
3952 1 -4.82253 -6.03533 -18.6829 -1.29304 -2.70219 -3.09355
2061 1 -16.5838 -24.5314 -22.4917 2.94692 0.902931 4.61127
3980 1 -22.5864 -16.5908 -12.7868 2.59957 2.56065 2.19052
3558 1 -20.1224 -15.4366 -2.08485 3.2132 -1.29179 -0.01339
3569 1 -4.77639 3.54713 -13.9642 1.86617 -0.5436 0.336596
3572 1 -13.8502 -17.0364 -19.2073 -0.887454 -2.1687 1.96108
3574 1 -15.9647 -4.13077 -11.4168 -2.26594 3.81527 2.17901
3575 1 -9.85769 -12.1155 -10.9261 -1.35939 -0.302337 1.30163
3577 1 -7.62044 8.42819 -5.03084 2.37231 3.39757 1.43239
3579 1 -17.244 -12.9499 -7.0499 -3.48044 -1.13009 3.57043
3588 1 -22.4726 -7.68723 -11.9844 1.89614 -2.89753 -4.43724
3589 1 -11.7226 1.8375 -7.33293 -3.31638 5.10248 1.23682
3592 1 -7.30483 -17.9253 -4.55501 -3.05556 4.76044 2.20547
3596 1 -6.34122 -9.41668 -8.4496 -5.61785 0.0909301 5.43696
3598 1 -13.4194 -10.0163 -5.43848 0.751316 -0.694779 0.396172
3601 1 -22.9595 -11.0753 -5.28137 2.6915 -1.70505 -0.144926
657 1 -0.5825 -4.46775 -12.8233 1.74193 1.29694 0.364544
3626 1 -13.9985 4.33268 -6.22996 -0.97303 -2.30283 -5.32931
3645 1 -17.4479 -15.7385 -7.12694 0.108054 -3.67983 5.21143
3649 1 -17.2574 -3.00002 -17.5429 -4.72535 -2.34651 1.45229
3663 1 -19.4555 -15.048 -12.0956 3.21488 0.978757 6.00271
3671 1 -2.24954 10.6095 -13.7809 -4.74831 2.10744 -0.892817
3674 1 -1.04366 -0.477365 -7.27361 2.31279 0.431123 -3.67836
3961 1 -2.64966 -19.8199 -2.60799 0.757474 -0.0368047 -0.844683
3690 1 -8.94727 6.95634 -6.99363 -2.06481 -0.0840291 -3.22452
3694 1 -20.3603 2.90157 -8.0285 3.05272 -2.22246 1.3463
3700 1 -5.13075 -19.3937 -16.1126 0.543434 1.31448 -1.97893
3702 1 -7.61613 0.354553 -12.9661 0.299067 3.21609 4.47091
3706 1 -13.3757 3.48044 -15.6181 1.36355 2.96941 -1.98078
3724 1 -5.11116 -0.0493076 -3.06428 0.933889 -0.814634 3.88829
3726 1 -8.27346 -13.1562 -13.5216 1.94176 0.0693832 -0.575032
3729 1 -20.93 -10.2687 -12.5853 -0.0578534 -0.710206 0.648661
3741 1 -19.2248 10.6763 -4.15879 -1.48058 -0.814626 0.24341
3742 1 -1.43325 -17.7284 -14.2848 -0.346822 4.34205 -0.213688
3748 1 -15.0829 -1.82943 -20.3196 0.204553 6.33483 -2.51417
3756 1 -12.0903 -23.15 -18.98 -2.36672 1.09827 1.13642
3759 1 -12.1616 8.69461 -20.3012 3.61447 1.34258 -3.1383
3950 1 -5.01772 -0.831451 -20.6037 0.868923 1.24724 5.37577
3768 1 -1.23773 7.08592 -16.6046 6.63586 0.443765 4.81338
3614 1 -0.679455 -4.79338 -5.07102 -1.41833 2.8376 -1.397
3794 1 -3.63943 -20.3838 -9.74555 -3.56224 1.84102 0.685027
3796 1 -11.489 -10.9737 -8.93467 -0.387935 4.61209 1.33884
972 1 -8.59613 -18.8102 -0.700293 -1.54365 0.936041 0.501353
3823 1 -6.06961 -18.6442 -9.47602 -2.60684 -0.390878 1.01928
959 1 -14.4709 -17.6856 -24.1012 -2.30556 -0.500477 -0.321344
3829 1 -12.117 -16.7819 -5.5561 -0.841526 -6.22166 4.89192
3838 1 -6.8721 3.75454 -4.02298 -1.72208 3.96194 1.10351
3845 1 -3.80191 4.54257 -23.1695 2.82426 -0.637033 -2.18544
3847 1 -16.277 -16.6818 -14.6691 4.70593 -1.46764 -1.89522
3851 1 -2.75483 5.9238 -3.90882 0.71439 1.01223 -2.26584
3857 1 -12.46 -23.9068 -11.0927 3.06026 2.63098 -0.0217197
3862 1 -4.54038 0.755123 -17.8389 5.76196 -5.3939 2.12765
3864 1 -3.71662 -2.45089 -13.9539 -3.79681 -2.45687 2.31762
3874 1 -19.7323 -23.0621 -14.4994 4.00285 -2.32742 -1.11726
3877 1 -22.7391 2.93544 -5.36004 3.51783 0.716846 2.95457
3881 1 -14.7971 0.424304 -13.5215 -5.91804 5.57702 4.33637
3886 1 -10.4657 -14.625 -6.582 3.52622 -2.43732 3.85661
3888 1 -5.93972 5.33932 -19.0719 1.5719 0.952388 -4.30506
3896 1 -8.18391 -8.51026 -1.44368 3.13417 2.26222 1.62381
3906 1 -18.4319 8.16729 -7.41512 -1.86538 -1.35833 0.0183768
3922 1 -16.2039 -16.0302 -17.5373 1.8578 3.19454 -4.06223
3923 1 -24.0375 4.60915 -12.1009 -1.43966 -1.42446 1.62798
3944 1 -13.1857 -8.64503 -15.3203 -1.63735 -0.672652 1.23485
3945 1 -21.6159 -13.3263 -15.595 -1.97491 -2.21775 -7.24158
3947 1 -22.0734 9.48415 -23.2852 -1.77298 1.40923 -1.24892
2572 1 -24.1301 -16.8868 -6.19945 2.30971 2.34057 2.15446
1789 1 -24.6247 -1.56871 -5.10731 -2.14295 -6.88487 0.187544
330 1 -14.0947 -23.4452 -23.9934 1.36815 -1.97388 0.486
3082 1 -2.38842 2.35935 -24.1863 -0.711568 -4.12654 -3.31863
678 1 -20.4103 -5.90319 -0.207421 1.57349 2.23083 0.290275
1359 1 -21.8621 -22.9277 -24.2424 -3.86986 -1.50809 -1.7373
1648 1 -20.9615 -14.4849 -23.9402 2.78127 0.13958 1.25947
5 1 -19.5059 -20.5604 21.5089 1.06901 -0.16336 -2.79004
9 1 -13.7505 4.37154 3.75382 -3.50306 -1.43379 -1.22109
13 1 -21.1551 -14.1492 14.0602 -1.87929 -0.633078 -2.10646
16 1 -19.4577 0.0260373 5.65568 -0.0769957 -0.608631 1.99427
21 1 -23.2969 -0.0331121 11.6706 -0.218477 1.91828 -0.286524
23 1 -11.1662 -23.112 21.3636 -4.12097 0.906196 4.22031
28 1 -21.3968 7.01787 3.70607 3.62696 -1.80361 1.29246
34 1 -19.7548 -22.7707 15.5286 -0.340677 1.49466 -0.93509
42 1 -17.5375 -16.1577 1.76995 -3.90251 -1.64418 5.76157
43 1 -13.8987 -4.86869 1.78814 1.05804 2.1235 -0.992132
46 1 -23.2739 -21.6473 18.7718 3.99619 -0.90863 0.2774
47 1 -6.49383 3.99957 19.7394 -1.3776 -1.84394 -3.11638
51 1 -9.48601 -3.34517 19.0516 -1.84663 -2.3367 -2.6154
56 1 -15.7077 6.18976 2.56798 -0.28403 4.01413 -1.41897
3008 1 -3.68889 -18.7337 23.5067 -1.37298 5.05262 1.74101
61 1 -12.3211 -0.791076 0.561036 -5.13303 2.8364 -4.75944
62 1 -1.71749 -10.3503 17.5771 -1.23144 0.0508014 -0.50587
64 1 -10.1963 -2.10509 2.42334 -1.24595 0.698128 2.04875
71 1 -10.5178 3.82798 1.05485 2.57957 0.381003 -3.81447
73 1 -12.0743 -18.0121 15.3828 8.96452 -1.4443 -1.99946
76 1 -23.6352 -3.93695 1.67314 -3.55209 -2.59044 -0.261373
89 1 -10.6829 -4.4557 23.1948 -2.3795 -3.88157 0.198653
93 1 -18.5031 -22.6693 18.0808 1.25857 -1.79225 3.05601
585 1 -8.19328 10.6079 14.956 -1.93703 -0.716445 -0.0667072
108 1 -11.2721 2.5206 23.0521 -3.26012 -0.653477 -0.722067
113 1 -4.16946 -7.49465 20.0421 -4.28346 -5.61905 -0.0561629
114 1 -22.9262 -18.7573 19.4747 -0.662891 -0.10119 -6.99546
96 1 -23.8518 -16.7401 22.7472 3.9892 -2.08051 1.23146
122 1 -7.66471 4.9487 22.3688 -1.12992 7.35677 -1.13582
133 1 -17.4833 3.11233 17.2752 -1.02133 -1.20735 -2.94588
146 1 -11.8606 -10.4901 14.45 -1.40049 5.41626 0.762539
152 1 -7.11511 -4.09078 17.5649 -0.785505 -1.81364 -7.89407
159 1 -21.8815 -11.637 12.9024 -5.35028 0.296455 2.91729
162 1 -16.2772 -10.2214 20.1075 0.88098 0.512634 2.89406
746 1 -17.4316 -7.05668 23.8851 -3.86521 -4.4854 -0.20222
171 1 -14.617 0.637034 15.6871 -3.42221 5.76523 0.688918
173 1 -21.7135 0.807383 23.0078 2.49785 -5.81702 2.98
177 1 -4.81843 -20.4744 13.2907 -3.31323 -0.576276 1.96663
178 1 -17.5957 10.1103 5.49753 2.25939 1.66225 -0.526664
182 1 -23.683 -1.91315 16.4843 -4.59595 0.136841 3.3055
189 1 -4.28221 -3.98014 2.97144 -1.93752 -0.78911 4.75857
3528 1 -23.6629 -21.902 0.247013 1.50067 1.56447 1.21738
3182 1 -17.9687 -24.7625 21.8101 0.00941626 2.02877 -1.84772
3267 1 -17.8088 8.15816 0.445248 6.72329 4.47907 2.59767
2677 1 -0.845068 -23.0142 1.62238 -1.15863 -0.375565 3.45474
232 1 -2.82402 -13.4494 11.2379 -2.16458 -5.28682 -5.45297
241 1 -22.5397 -15.0586 11.7305 -4.1406 1.03785 3.99586
243 1 -6.8968 -8.70553 10.8723 4.31864 -5.42121 2.16429
3905 1 -0.873002 -10.823 5.35903 -1.86691 -1.00965 -0.236296
247 1 -23.5026 -6.65369 13.9067 -8.05469 -2.27173 -0.234077
249 1 -1.42813 -19.8765 10.4052 3.0551 3.23762 2.75668
3293 1 -9.53568 11.0731 24.1817 0.280222 -0.652996 -0.898888
2011 1 -0.969091 10.639 18.1342 -2.79011 5.49573 1.26595
270 1 -22.8408 -16.4425 17.3337 4.03073 2.35162 5.18289
273 1 -17.5546 -10.9109 13.9342 -0.754593 6.98782 -2.12063
289 1 -6.08611 -20.7523 10.55 1.51057 1.90606 -2.91194
291 1 -11.0797 -17.8378 12.5061 2.25868 -2.20735 3.15578
304 1 -20.7117 -17.0679 14.0194 8.3733 -1.07223 -2.35959
308 1 -17.3934 -22.2756 3.22871 0.32247 -2.90905 -3.0201
315 1 -15.0413 -23.5475 3.13095 -1.21927 1.91058 0.374582
319 1 -11.9696 2.48847 14.3397 2.40138 3.53576 0.230278
320 1 -1.23442 -1.36793 8.2602 -0.970454 -2.359 2.42783
323 1 -13.6948 0.615118 2.63004 2.24377 -0.944596 2.87732
325 1 -1.18473 -21.0295 19.4816 0.951198 -6.96154 3.6272
326 1 -19.0724 4.06712 1.40619 -2.77559 2.88016 0.0594995
327 1 -7.40254 -10.7114 20.2114 -2.77038 1.62612 -0.941077
1998 1 -12.9189 10.0456 0.326648 0.0875343 0.863579 0.525148
345 1 -11.9527 -5.5271 15.0554 6.71953 -1.99096 -3.43118
348 1 -11.7656 -3.80676 9.68163 -3.2326 -9.21541 -5.64865
349 1 -5.72637 9.84804 21.8302 3.69835 -2.46346 -1.19749
351 1 -17.107 3.50895 11.5858 4.59085 -2.54491 2.59726
355 1 -3.49129 -2.45142 6.84715 2.14852 0.278161 3.88197
357 1 -6.51119 -14.237 2.07157 5.14884 -0.637978 -0.668446
224 1 -13.2953 -3.56078 24.0174 -2.38082 -3.06908 -1.0406
363 1 -18.5502 -19.7252 9.68333 0.303454 -2.39594 8.24056
365 1 -1.07869 -16.7588 20.202 6.14174 3.81844 4.22576
806 1 -1.59608 -13.1692 13.8946 -1.76553 -6.25447 0.979083
373 1 -16.915 6.98861 23.2743 -2.62887 0.673879 -0.320522
375 1 -22.3736 -6.61246 22.9376 -1.9429 3.25072 -4.75007
381 1 -22.9762 -13.5575 16.187 3.76912 -0.773568 3.32838
385 1 -8.36789 1.99893 20.5301 2.8531 -2.31888 -1.547
3160 1 -11.672 -24.3834 23.7273 -0.460335 4.90614 -2.04481
389 1 -13.3882 7.97637 7.67248 2.62205 0.912495 -1.01571
2417 1 -3.34952 -4.3946 -0.0677143 1.92358 -1.74051 -1.49511
402 1 -1.96133 7.89867 20.9827 -2.6944 -3.58689 1.06689
404 1 -15.8823 -1.06195 1.87346 0.364089 2.53516 -3.61999
406 1 -8.1441 -19.1612 22.6969 -0.577768 -0.296725 -1.03452
412 1 -16.2709 -6.93285 6.70977 4.96709 2.38631 0.46223
417 1 -13.9015 0.675549 11.6383 2.80949 -3.55697 6.11334
420 1 -1.87015 -2.89249 12.0947 -0.0806307 -1.54332 2.2292
423 1 -9.78523 2.26731 3.33491 0.785961 -0.309024 2.93732
427 1 -15.5142 -23.6232 21.974 -0.210222 4.13838 2.25276
3749 1 -23.9969 -2.03015 13.7468 2.00755 -0.282144 -0.337657
448 1 -16.8051 -0.242015 13.914 3.4117 1.53527 2.61165
462 1 -6.67236 -19.5847 19.9038 4.11403 -0.352398 1.6782
464 1 -13.7465 -24.2241 5.58588 -1.83986 -3.96454 1.88049
465 1 -2.31099 -12.2474 3.33797 4.67096 -3.16494 0.311393
467 1 -5.85809 -10.8863 12.4133 5.81802 -1.86584 -6.41428
472 1 -15.2425 -5.49677 17.3598 1.67638 3.52089 4.81068
2589 1 -0.611695 -7.3608 9.75276 -1.7992 -2.89106 -2.64752
491 1 -19.6384 -12.4375 10.8632 1.01402 3.85518 6.95397
500 1 -5.44844 -16.3401 8.5865 0.486949 2.09494 2.33415
504 1 -1.2285 4.71725 6.05819 -1.42246 -3.14071 4.62592
513 1 -20.8784 -13.9529 18.0621 -4.54498 2.86337 3.07434
1677 1 -24.1604 -19.8866 12.8129 -2.71831 -1.60381 1.24432
524 1 -1.68869 -2.23324 17.9032 0.244253 -0.661815 -0.202067
529 1 -9.41364 -12.6321 8.42029 0.567017 -2.88465 -2.80028
530 1 -8.76945 2.57149 10.0142 0.929092 2.40365 3.681
533 1 -10.1084 -20.3818 15.1264 3.61205 -0.710847 2.22195
538 1 -20.9308 -7.04034 12.2024 6.00171 -3.10387 3.20746
540 1 -13.0859 -11.4538 3.07391 1.83605 -6.62046 1.37746
541 1 -11.9394 -0.101018 15.8677 0.440318 0.899789 -3.05844
549 1 -20.3005 -4.69798 8.34475 -1.90868 2.90424 -0.81696
261 1 -2.63047 -24.8163 11.0714 4.71632 1.7452 3.2718
558 1 -5.39176 -12.7542 14.4832 2.9337 -1.99078 -1.33621
559 1 -8.33839 -19.6777 6.65003 -0.467391 -3.82124 1.59906
564 1 -10.9925 -20.271 10.7715 1.13908 1.34732 -0.111506
581 1 -15.8227 -9.50787 15.4421 3.31338 -7.30786 -3.08652
592 1 -14.9658 -13.822 10.799 -1.63425 2.39318 -0.850605
593 1 -13.187 -21.5734 18.1004 -2.30815 2.05806 5.12393
594 1 -19.5338 -0.618872 2.76486 -0.351719 0.368523 2.03939
596 1 -12.5131 -20.155 5.56756 0.944105 3.34243 2.13881
602 1 -9.9998 4.25105 20.8099 0.244443 4.31599 -1.73211
605 1 -21.976 -2.22435 18.8862 1.18964 4.98373 -0.457888
607 1 -1.54455 -3.49982 15.1983 -1.72128 1.62383 -2.32725
622 1 -22.2007 -9.11572 1.36325 1.34087 -2.65539 -0.826082
631 1 -4.43889 -17.0011 16.7222 -4.12685 0.93041 -1.21229
632 1 -12.8558 -21.6314 3.12124 -0.156602 0.690415 1.05645
634 1 -10.6512 -2.93848 16.4056 0.645125 -0.514165 3.61224
642 1 -9.25436 -1.67392 6.28825 -1.5758 -4.06294 -1.03655
650 1 -8.98982 -0.853823 20.0536 -1.95459 -0.835453 -1.8168
664 1 -15.0521 -19.8247 12.7343 0.970739 0.776917 0.0442408
665 1 -1.87344 -5.91847 19.0973 -0.17677 -0.380687 1.12463
59 1 -20.8925 11.0136 19.6609 0.513184 1.07874 -2.21074
686 1 -15.9693 -0.669359 17.9317 2.83847 -0.81918 0.393929
687 1 -13.6735 6.74681 10.3233 -0.220468 4.34357 -0.760093
692 1 -9.8887 -6.57994 3.67014 -2.61227 -0.620083 0.94271
696 1 -7.87055 -21.8936 8.54762 -4.69622 -0.74004 -5.42774
699 1 -14.7262 -11.9093 16.556 -0.141574 0.540306 -0.914811
702 1 -16.4789 -4.76791 12.7331 -1.72288 0.977381 2.26644
704 1 -9.8731 -11.686 12.3793 -1.67169 -4.65225 -3.97545
707 1 -19.0164 0.647643 21.7104 -2.4991 2.56861 -1.64526
710 1 -3.33067 -9.72103 13.2029 -2.67068 -1.56917 -0.374513
667 1 -20.9619 -19.8214 23.9774 -2.63432 -3.23306 -1.17401
718 1 -12.8135 -6.43163 3.89137 2.94686 2.44278 3.59625
726 1 -4.47837 -8.62118 22.9405 -0.804735 -0.215271 4.2574
733 1 -14.2393 -18.1966 5.65593 -1.59919 0.157358 2.13936
738 1 -10.3185 6.87793 15.8816 -2.63957 1.52365 -5.23874
739 1 -17.3422 -18.7453 2.71824 -1.14475 -2.14889 1.57512
3518 1 -1.3719 0.300042 0.0442255 1.4685 3.83999 -2.09055
745 1 -22.1504 2.05515 20.3147 0.488551 -2.32061 -3.27084
3936 1 -0.782943 -22.539 23.5343 1.29497 0.997766 -0.784154
748 1 -12.0626 -20.4859 22.7862 -0.944973 -0.5388 2.578
2984 1 -0.655504 -0.860489 22.7782 -3.0555 -2.45498 -2.40331
758 1 -15.6402 -18.2083 20.8856 1.18946 -1.78395 0.937116
3365 1 -0.79771 -9.77865 11.6462 0.645643 1.47527 1.70139
768 1 -7.75842 9.0044 9.13 -1.35162 0.359981 -6.81073
781 1 -18.8121 2.0253 7.56622 2.26548 1.12492 2.3415
788 1 -19.935 5.09501 5.34544 0.885864 -2.55461 2.72088
797 1 -18.458 -13.8171 14.3018 2.74003 -1.22682 0.0488266
800 1 -19.1665 -11.7129 17.7441 -1.88697 2.20652 -0.362686
802 1 -20.0941 -19.8189 14.9481 -2.24397 1.22991 0.827035
3555 1 -23.9397 -19.3084 1.67725 3.48087 -1.91036 -1.31738
818 1 -9.67522 7.21068 21.0399 4.52849 3.74339 0.455354
825 1 -23.5669 5.39091 4.70652 -1.52503 -3.76124 0.475885
827 1 -1.90873 1.03626 4.1833 -0.959244 -4.80606 -5.2925
828 1 -7.46216 -19.8162 14.1642 3.18379 1.98919 0.124588
830 1 -11.0168 -9.31246 20.905 -1.43761 3.61434 -0.216352
832 1 -4.88945 -3.56428 11.5399 -2.42876 3.18535 -2.21819
854 1 -22.6966 -13.7967 4.24561 1.72233 0.0392705 1.33589
857 1 -24.2651 -6.25854 9.42975 -2.82611 2.78943 -2.34929
864 1 -14.5927 2.50528 19.9447 -4.18075 0.724165 0.529677
867 1 -1.94389 10.7453 20.8528 -2.16778 4.03178 1.51157
881 1 -3.5341 -3.6457 19.9609 -2.57888 -3.02136 1.12999
889 1 -16.1029 -2.54365 15.9351 -1.40996 -2.69312 2.75814
891 1 -22.179 -2.44195 3.86963 -0.571781 -2.45815 -2.70144
897 1 -12.1664 -23.1637 10.7678 1.20304 -0.970474 -3.85782
906 1 -7.55537 -23.3123 19.0441 3.74056 1.6826 0.650635
908 1 -8.43582 -17.4627 12.9265 -3.69941 1.77919 4.78114
916 1 -18.0493 -16.6956 21.3441 -2.78423 -5.301 1.12556
918 1 -4.82194 6.89436 1.80964 2.81033 1.40573 -0.507921
3842 1 -24.5871 1.19329 21.6295 2.45471 -5.22244 -1.12939
430 1 -22.0437 -1.71917 23.6729 -2.0287 -2.45878 5.37807
946 1 -14.2825 -8.66278 6.13588 -1.78631 -0.0385907 -1.79115
950 1 -20.2234 6.04656 11.7584 0.37639 1.80943 2.70075
957 1 -4.23855 -2.3905 15.1194 -0.751481 -1.2625 -1.50041
2067 1 -24.711 9.18028 21.7855 -0.237865 -1.28942 1.68585
960 1 -2.31273 -21.7751 4.92639 -0.905777 3.08885 -0.929043
966 1 -16.3244 -6.56624 14.8711 -3.45285 0.801097 -3.38899
973 1 -12.8388 -4.01491 17.888 2.90692 -2.70538 -2.04259
975 1 -10.8381 -10.3333 7.10732 -5.21071 -1.76009 -5.10327
976 1 -17.9466 -7.06225 11.2965 -0.869758 -4.37773 -3.98865
982 1 -6.33242 -8.57595 4.67147 -1.66552 -0.406719 -3.49662
983 1 -20.2712 6.74101 16.9185 -1.37184 -0.000386773 6.69691
410 1 -15.2787 11.2131 1.40719 -3.25192 0.920576 -0.984586
987 1 -22.3804 -18.2223 11.4422 -0.21539 -0.682044 1.03092
988 1 -10.0777 -23.6954 8.81587 -1.23961 -0.73708 1.2226
991 1 -6.01197 -7.98021 7.33717 -1.77488 -0.22992 0.729393
3591 1 -6.68363 -10.546 23.0382 -4.4898 2.16716 -2.11108
998 1 -2.15426 10.296 10.7628 1.8174 0.415637 0.680242
999 1 -21.9348 10.3892 7.01256 4.11411 5.90984 3.65075
1002 1 -13.7504 -15.9189 4.48722 -3.00604 8.35831 4.19477
1006 1 -22.9464 10.1806 17.9573 -2.98355 -0.687332 7.57171
1014 1 -20.351 -22.9947 3.40266 1.26783 1.86016 -0.679272
1016 1 -22.3739 4.08033 6.98866 -4.48391 -0.0486075 -2.41501
1017 1 -9.6227 1.77357 15.7555 -0.0250905 1.24708 3.68658
1018 1 -21.7868 -20.045 7.07381 1.24155 3.88515 2.99293
1020 1 -18.9056 -23.3273 10.1133 -0.82632 0.143967 -0.91001
1027 1 -22.3061 -4.22102 12.5109 2.11303 0.0451365 -2.26304
1033 1 -4.39464 -16.0519 1.30215 -1.81511 2.67215 -0.334667
1037 1 -12.5684 -18.5666 18.5203 2.01007 -0.959685 -3.52696
1038 1 -2.23648 6.64503 11.5412 0.0795172 -0.99663 0.0895333
1045 1 -7.30152 -2.5099 23.2034 4.07172 -2.16454 1.51706
1047 1 -17.5866 3.18164 20.3235 -0.967659 2.60388 -3.42781
1060 1 -18.1437 -10.9838 7.30467 -1.41928 -0.718257 0.345521
1062 1 -8.16531 -0.992318 10.0958 1.40076 1.15307 3.36529
1067 1 -20.4897 5.53069 8.8822 -0.220472 -4.03471 -1.28073
1070 1 -7.10772 6.63285 10.4053 7.41188 -0.0209799 1.0582
1079 1 -16.4204 -0.611378 11.0732 -1.08096 4.42346 2.71578
1089 1 -16.2117 6.35546 15.8099 -0.390181 -1.3617 -3.18201
1091 1 -15.1975 10.4047 6.79613 -2.39323 5.98414 -2.94125
1098 1 -11.8996 -4.58467 20.5394 -2.91015 0.605479 3.28047
1104 1 -22.7008 -1.77108 7.92878 0.0738228 1.9381 4.11603
1106 1 -17.1288 -18.6875 5.69092 1.37379 -3.28976 2.38453
1109 1 -18.2714 -10.2257 4.59738 0.517517 1.83398 -2.10421
1112 1 -2.64596 -14.5175 19.4999 0.858988 -1.27672 6.38584
1114 1 -19.7129 -4.46184 11.4126 0.287142 5.31864 1.14532
1116 1 -14.9385 0.1466 7.59814 0.808051 1.51735 2.47482
1125 1 -23.3781 8.88823 4.9115 -0.896771 -5.96903 1.7411
1138 1 -22.5835 -22.4054 5.22863 -2.63274 -0.531693 -0.593814
1139 1 -6.01422 10.3222 3.72425 1.06387 0.91844 -1.35249
1141 1 -18.9597 8.69899 11.1271 -3.22234 -4.47443 -1.16906
1147 1 -8.07602 10.0294 1.61334 -3.07034 -3.35298 1.77236
1148 1 -11.5042 8.56025 11.1582 -2.24899 3.14005 1.88229
1153 1 -3.8949 -19.6223 1.32823 8.06002 1.53426 -1.16089
482 1 -24.4614 -2.96029 20.2849 1.26728 -2.40342 5.08466
1158 1 -18.1315 0.554912 18.7965 -1.65564 -4.11567 -1.90389
1163 1 -17.2794 -21.7122 13.7998 -0.701059 0.173884 3.145
1164 1 -19.8033 -15.3162 10.3697 1.73649 2.05656 2.02003
1176 1 -0.910594 -10.4566 14.7421 0.616219 -1.70059 3.00354
1178 1 -3.98149 7.10614 7.21615 1.27687 -2.06133 3.87519
1205 1 -3.86464 -18.6016 11.1176 0.894438 2.87502 3.65706
1211 1 -16.9956 -12.0049 11.3904 1.73691 -1.44376 1.54251
1223 1 -23.3167 9.28382 11.1716 -2.39145 -1.5539 0.265419
1236 1 -5.23756 -22.2289 16.8189 4.0896 -0.46633 -0.823922
2943 1 -24.2905 7.16452 9.31115 1.55397 -0.916428 2.0854
1240 1 -5.89624 -23.3721 2.82712 0.679984 1.58685 -1.88611
1244 1 -16.6343 1.7285 9.35762 0.501099 1.10119 -1.35067
1246 1 -6.81441 -14.9621 4.93175 -0.664787 -3.58989 0.698945
1254 1 -21.5287 -18.4557 4.86027 5.93648 -0.741537 -0.899304
1255 1 -5.39382 -10.7066 8.73626 -2.02404 0.10813 0.0983798
1258 1 -17.4619 8.5592 20.9723 -0.723681 -5.09794 -0.880927
1272 1 -21.1895 9.47297 16.1299 1.02237 1.39309 4.29708
2737 1 -21.329 -18.3414 0.518618 2.27443 -3.5105 2.52833
1296 1 -7.33898 -11.3058 6.6557 -1.79847 -0.68443 -3.05485
1305 1 -3.9959 3.84737 8.8181 0.997624 4.8112 -0.968992
1308 1 -17.9507 -3.31631 7.23125 2.6858 -2.59697 -0.797484
1312 1 -16.9592 -7.66133 3.77936 -6.77325 5.45007 -2.72949
3105 1 -24.2554 -6.47135 20.6867 -2.94478 -3.18163 2.59219
1361 1 -7.30147 -21.6478 4.62219 1.29336 -0.695401 1.7646
1367 1 -9.41186 -13.3577 14.8709 -3.50983 -0.707878 -1.03768
1373 1 -13.8536 -8.80855 13.0793 4.7846 0.373772 5.90306
1379 1 -19.1689 -16.7674 5.30653 3.30546 0.0797504 -1.41394
1386 1 -13.3285 7.74519 2.17043 -1.05982 1.85684 -2.32047
1393 1 -0.8854 -4.52243 1.50987 -5.88264 5.71422 0.402004
1396 1 -18.1481 -7.98296 8.63018 2.96693 4.78451 4.22446
3241 1 -0.876715 -19.5063 17.22 -0.275219 6.68938 -0.854265
1415 1 -7.65567 -22.0589 0.970397 5.20958 -6.54804 5.55105
1416 1 -22.0091 -7.69617 9.73933 -2.86565 -2.49355 1.21068
1428 1 -4.99113 -17.711 20.8827 -1.4315 -4.09224 -0.0739131
1429 1 -20.4785 -15.548 7.44017 1.94634 -1.64439 -4.92192
1432 1 -11.4251 8.74061 22.9441 -3.00469 2.76772 -2.39537
1434 1 -22.9182 4.9916 21.6534 -1.56407 -2.4299 3.02703
1441 1 -18.2289 -15.152 18.9652 1.86801 0.84984 1.23981
1448 1 -14.6717 1.93384 5.17839 -1.43932 -2.15058 -2.87788
1462 1 -9.56483 -18.5065 8.833 0.24242 -0.00181328 -0.700324
1470 1 -5.04842 -11.0497 4.99574 -1.07365 -4.57234 -3.5517
1484 1 -7.13305 9.63545 6.40444 -4.80178 2.48916 1.17502
1486 1 -18.146 -4.74214 16.4049 0.677791 1.30432 5.83127
1488 1 -18.1578 -16.3093 12.3912 -5.65405 2.87513 0.815451
1495 1 -20.6317 -9.3496 19.9886 2.89985 1.31434 -4.53924
1498 1 -13.0277 5.39518 12.5165 -1.44543 -3.89851 4.61969
1994 1 -24.2846 -17.9436 4.24371 1.24495 1.25274 7.61301
1513 1 -21.1907 0.320504 18.1621 -1.4727 5.42244 0.644135
1515 1 -8.46912 -21.8657 21.318 1.32017 0.933441 -5.04749
1864 1 -6.06338 10.9548 19.3744 4.11021 -1.21891 1.9551
1521 1 -7.73748 -10.1522 17.369 2.16646 -1.45302 0.455478
1523 1 -6.80001 5.4834 12.9852 5.03137 2.5935 0.00975265
1525 1 -9.3647 -7.22845 0.769763 0.957953 3.70823 0.287549
1529 1 -7.04505 0.853828 11.9367 -1.52573 1.32088 4.13369
1534 1 -15.2694 -8.01943 10.6908 2.63788 -2.86947 -2.10282
1542 1 -21.021 -4.2698 17.3383 -4.19988 0.902711 3.10085
1545 1 -8.19624 -15.7127 14.8775 0.528054 1.2343 -8.86459
1546 1 -14.8413 -13.497 20.4833 2.20072 -4.63085 -1.1754
1560 1 -19.9915 -18.2798 19.803 -3.98691 -4.15553 -1.94296
1563 1 -2.92558 -5.72685 12.8001 -6.82083 -3.66006 -1.63599
1572 1 -2.15828 -16.4307 12.1382 1.99959 -1.40097 1.79166
1573 1 -10.5561 -11.0804 18.3733 -0.220097 0.625684 -3.88468
1581 1 -6.51294 -5.81614 11.4811 5.5087 -0.154583 -4.91089
1584 1 -6.4734 -4.01535 14.0616 -1.89762 -0.675774 1.60505
1585 1 -8.77034 -12.7907 23.0471 0.723693 -0.940507 3.20399
1586 1 -17.9841 -21.117 0.761561 -3.65951 4.24339 -0.0829139
1599 1 -22.6292 -4.16952 9.61804 0.947272 -2.25107 0.653632
1612 1 -22.6814 -18.9002 15.357 -4.57378 -1.91466 6.18326
1614 1 -15.4148 -12.5868 1.68303 -1.05152 1.83041 0.32278
1621 1 -20.1574 3.33148 12.1521 -2.11466 2.21287 -1.98328
1623 1 -10.1956 -16.3112 16.8522 -1.22986 1.77922 5.22794
1629 1 -4.62887 -23.8635 19.2359 4.29658 1.43444 1.88706
244 1 -20.7406 10.9851 23.112 -4.04418 -2.98275 0.770648
1644 1 -19.156 -1.42237 10.871 2.25155 0.0441825 -4.73214
1659 1 -5.68766 -23.6446 7.39754 1.1029 0.429518 4.69143
1665 1 -5.23347 5.98237 18.0146 -1.38202 -0.201828 -0.401553
1667 1 -13.554 -2.36876 7.8537 -7.86121 0.656592 7.36855
1671 1 -14.853 9.01953 21.5362 -3.13993 -2.74402 -0.304411
1690 1 -6.60395 -23.5309 11.7001 -3.19988 2.93944 -4.23315
1691 1 -17.279 -13.4604 6.02575 0.571092 -0.956164 1.68074
1697 1 -11.4762 -22.6899 6.48031 1.80836 0.451635 -0.420748
1704 1 -10.7781 -11.7021 4.54955 0.669951 0.477155 -2.76369
1707 1 -10.3089 -8.91372 16.217 -0.532302 0.266975 -1.77035
1711 1 -3.05698 4.7441 1.23291 1.50733 2.08816 5.10356
1720 1 -3.26444 -23.0954 8.90099 -5.66722 -5.28569 1.18555
1729 1 -13.9558 7.12165 14.5137 0.651508 -2.76064 -0.903292
1733 1 -11.3671 -16.5936 8.50329 0.73045 -3.64837 -5.04038
1739 1 -6.92841 -20.0549 17.1551 -3.24939 4.05551 0.239048
1756 1 -16.1423 4.44676 8.04423 0.5092 -1.10682 -0.468895
1763 1 -3.82404 3.1012 13.2453 0.546348 -0.865706 -4.51796
1766 1 -19.0544 0.915365 16.1205 -0.362716 0.100668 2.10766
1770 1 -8.88694 -5.47526 21.0981 5.12397 -0.928142 4.01645
1777 1 -23.7451 -11.0171 16.9512 0.476404 1.06761 1.74375
1788 1 -15.656 -15.7757 17.5393 6.2001 -2.07545 -4.21382
1792 1 -14.7611 5.86716 6.0155 2.04046 -2.49596 4.99118
1807 1 -19.0591 -10.158 23.2688 -2.7476 -3.41429 -0.792577
1813 1 -16.3159 7.76574 18.1882 -2.27183 3.43643 -0.785417
1818 1 -22.1192 -9.49223 6.55733 -0.777195 -6.03387 2.17985
1819 1 -13.6928 -11.3922 19.0287 -1.99044 -3.60943 -1.13247
1824 1 -17.0273 -17.9213 8.43187 -0.637352 -0.702212 0.0590957
1832 1 -22.8769 -13.1041 23.0262 -0.936285 4.67088 -0.247892
1833 1 -10.7918 3.53576 18.1823 4.9442 -5.29651 1.11931
793 1 -24.7849 -10.6803 1.90832 -3.15056 1.13382 -4.33523
1844 1 -5.77842 -2.58032 5.08693 -1.10382 -2.26652 -1.63036
1865 1 -7.88052 -4.49127 6.29968 8.25605 1.85103 -0.932724
1868 1 -8.11771 3.67041 17.3766 -3.06229 -1.12165 -0.0779238
1870 1 -18.3789 8.97173 14.0819 -5.76571 0.655114 0.414331
1877 1 -14.7701 -5.76983 8.98108 -2.86502 -0.117696 3.90146
1882 1 -9.55819 8.19546 18.3771 -0.761608 0.0729087 -1.7901
1889 1 -12.3546 2.052 9.67821 -0.604901 4.28684 -1.6768
3045 1 -1.73197 -3.64343 4.54641 0.110625 1.8259 -2.09453
1895 1 -19.6596 -7.46113 16.5285 -0.601075 -2.04817 -2.87744
1900 1 -11.3728 -0.0876007 3.81286 -1.36436 -5.55654 5.08969
1904 1 -9.49375 -21.9003 17.5737 1.18315 -2.70141 -1.75145
1156 1 -18.5818 -12.8111 24.2988 0.0355499 -4.43855 -3.01073
1907 1 -21.819 -8.94341 14.1061 2.77891 -0.584626 -8.11844
1293 1 -7.56275 -2.51464 0.8296 1.37103 6.56778 5.77057
1910 1 -7.67493 -11.0608 14.6424 4.59884 5.79125 -1.27935
2199 1 -18.0911 10.8243 1.15759 -0.597645 -2.07425 -2.46642
1940 1 -20.4023 -23.8809 6.10425 0.010011 2.91637 4.58616
1945 1 -23.2964 -19.6358 22.1326 -0.597035 -0.556704 1.27559
1951 1 -5.34047 -15.7438 14.1283 1.41708 3.37688 0.921917
1955 1 -12.9955 -17.9925 21.9632 3.40158 3.63993 0.923592
1956 1 -4.5393 0.397736 7.39597 0.111631 0.878885 -3.37769
1967 1 -15.839 -23.2379 18.2776 1.45562 -0.0234155 4.05116
1969 1 -4.15779 -7.65762 11.3004 2.80981 0.291192 2.73079
1972 1 -3.39485 -7.40196 8.62152 2.25048 1.49444 0.838262
1982 1 -20.1085 -3.32049 22.5259 7.19869 -0.668085 0.575849
1987 1 -20.931 2.59413 9.16832 -4.53625 7.50373 1.23848
1989 1 -11.2215 -15.2406 11.0261 -0.853566 -4.19831 1.86578
1991 1 -22.7609 -22.436 21.4263 -3.86152 3.61322 -1.20632
742 1 -7.09971 -22.4481 24.0957 -0.42316 6.65281 0.740529
1999 1 -2.29088 -12.1753 22.8682 3.45546 -5.14442 1.16001
2010 1 -8.19893 2.22093 23.5051 0.32033 4.16399 5.41602
3404 1 -18.5801 -9.90084 0.401206 1.27242 -0.34874 2.35414
2014 1 -9.0725 -9.03977 12.6639 3.1501 -0.984609 -2.59628
2018 1 -16.5553 -1.23523 5.7897 2.13515 -7.33271 1.35127
2023 1 -20.9687 -11.5073 8.31097 -0.483898 4.46564 1.24986
2032 1 -9.09875 4.94038 6.30057 1.01897 -1.6786 -1.93882
2037 1 -15.8868 8.10347 11.3011 -5.00994 0.680253 0.252107
2041 1 -13.4494 -12.9402 22.7936 -0.52195 -0.791659 -2.14427
2047 1 -6.98889 -13.88 7.73134 2.44979 -3.13453 1.11838
2064 1 -13.9139 -17.7915 11.3717 0.286918 0.641425 3.01353
3855 1 -3.94527 -6.0856 24.2536 0.196202 -1.13204 1.21048
2071 1 -21.1537 -13.4805 20.9352 3.11817 -1.29571 -0.658242
2072 1 -19.4523 6.24247 21.0885 -0.214453 0.198733 -5.06561
2075 1 -7.5775 -15.3771 22.9263 3.64408 0.348966 -0.372857
2077 1 -17.4645 -5.02288 5.01707 -2.49237 -3.77889 -1.70119
2086 1 -11.1306 -14.4414 6.95916 3.89408 0.0389501 1.12634
2091 1 -9.65962 7.6172 13.2122 -3.91998 -2.31525 -1.02367
2095 1 -21.0581 -9.14775 3.90317 -2.33872 7.77133 2.74383
2097 1 -4.3199 6.44994 9.94987 -0.830402 -3.01693 -2.11806
2100 1 -2.06521 -4.64128 22.5162 3.41592 -1.91933 -1.2577
2101 1 -23.7081 -7.92489 18.2007 2.59046 1.86576 -5.73956
2104 1 -22.069 -4.59481 20.8723 0.188186 3.83542 2.74812
2108 1 -10.843 10.276 2.29523 4.62051 2.04716 0.212118
2109 1 -4.63585 7.58877 20.3682 -1.56215 5.39391 5.69786
2112 1 -10.8777 3.66306 11.727 -2.4421 -2.8629 -1.938
2113 1 -17.2793 -3.38708 21.1259 -1.09787 2.05315 0.642779
2125 1 -2.26648 -14.8544 16.1995 7.1032 2.39301 3.93698
2129 1 -13.1411 -24.185 13.6071 -1.51064 2.70065 -2.73293
2133 1 -13.5571 -13.0081 6.70472 1.47292 -5.21647 4.97308
2136 1 -4.7133 -21.0848 6.04186 0.12944 -4.08636 0.822827
2141 1 -20.6427 -22.8112 0.312048 -0.480325 3.47282 -1.51054
2142 1 -17.5514 -9.29486 17.6795 2.01381 0.887548 1.80465
2160 1 -19.4648 -1.71192 20.3553 2.87301 0.504413 0.181201
865 1 -0.598483 -22.6887 11.5303 -1.02259 0.716943 -1.2869
2171 1 -3.86959 2.85321 3.2504 0.80604 1.42799 0.907136
2181 1 -16.7098 -20.9854 21.5169 -0.264854 1.77589 2.36693
2182 1 -2.4409 -0.114874 10.6888 -1.05007 1.11228 2.07038
2188 1 -13.248 4.43018 8.43483 -0.352879 1.65042 3.52348
2295 1 -13.805 10.5878 24.0343 -2.76249 9.4355 -0.726018
2200 1 -3.41661 -22.2535 2.29064 2.0665 2.68819 2.7417
2218 1 -17.9923 -6.26059 21.0113 1.72997 -2.58806 0.416369
2219 1 -11.6301 -23.2432 16.2661 -2.32169 -0.322205 -4.98594
2239 1 -16.255 -9.62167 22.8018 1.97602 -2.86128 -0.914154
2242 1 -11.0618 -15.2986 19.6475 -0.349511 2.59849 -1.33717
2153 1 -7.15365 -11.1083 -0.00390432 0.172712 2.16279 -4.72686
2259 1 -21.8876 -9.30218 22.563 0.088781 0.819063 1.07069
2265 1 -2.12569 1.73521 18.8417 -1.62114 -0.164429 0.0122606
2266 1 -21.8369 8.08584 13.2549 4.01159 -1.0378 -4.41192
2273 1 -22.0792 -21.3825 16.3231 1.15532 -0.777204 1.44267
2274 1 -6.16626 0.0337688 19.4502 0.908771 3.66691 0.890599
986 1 -1.19064 4.09309 12.1568 -1.02565 -2.88198 0.0594128
2277 1 -13.6122 3.84483 22.2852 -0.39294 1.45396 0.243421
2279 1 -12.0854 -0.0983285 6.41641 -3.21722 4.37153 -2.46799
1840 1 -20.9845 -11.764 0.776429 0.66282 -4.20109 -3.13426
2312 1 -19.6855 -21.5351 7.82665 3.29493 1.37207 -1.82129
2314 1 -17.4333 6.10947 10.2746 0.247703 1.29626 -3.29841
2316 1 -18.3413 -11.997 2.56843 0.788727 4.86135 3.39306
2331 1 -15.3893 -15.7177 12.7253 0.608123 0.729708 -0.176156
2346 1 -3.96418 -20.3243 8.72581 -1.90071 1.67825 -0.6944
2355 1 -8.32106 0.174946 1.70666 1.51721 1.58188 0.132043
2357 1 -2.44325 -1.20624 2.58099 -3.14378 -3.93394 -0.282319
2362 1 -20.6286 10.851 13.431 -2.21073 -1.31196 2.71785
2376 1 -16.4408 -0.74911 22.3414 3.40907 -2.61643 -0.662536
1511 1 -23.4981 -5.4258 16.5141 0.0346452 -0.351983 0.681862
2387 1 -11.9047 -6.52467 12.1966 0.744242 1.63791 2.26538
2391 1 -6.82117 -2.44974 7.98967 -6.03942 1.34857 -4.90898
2397 1 -16.1598 -7.25413 19.2233 -1.45248 -0.752867 -4.01813
2398 1 -8.58014 -2.3643 14.2946 -4.23305 6.05486 1.00835
2399 1 -12.5215 -10.6022 10.8762 -4.8785 0.862215 0.260098
2407 1 -13.0231 -13.3492 14.9009 -2.6933 2.29647 -3.53549
2422 1 -15.1172 3.57143 16.202 1.88845 -2.85193 -0.0424943
2430 1 -13.7138 -7.44838 15.8269 -2.52002 0.489869 -2.89088
2436 1 -7.19478 9.10641 17.0179 4.98409 -0.608532 4.25204
2437 1 -13.9212 -4.42462 11.5401 -2.18532 4.27817 0.356569
2446 1 -2.09321 -6.17059 16.1895 0.132774 1.80201 2.18096
2447 1 -0.845664 -12.8979 17.8192 -0.643151 3.1875 -1.65645
2453 1 -1.81968 8.84177 13.22 -0.576287 3.22783 -5.58908
2457 1 -4.59896 1.90332 10.7869 -4.91644 2.19936 -4.69445
2639 1 -0.246791 -8.57995 19.7106 3.77193 -2.12098 -0.28848
2472 1 -19.6843 -0.536525 13.6536 -0.576513 5.70358 5.39582
223 1 -23.2037 -6.41846 0.305352 1.11929 0.238229 2.29804
2479 1 -20.9528 -5.01322 2.59646 4.20823 4.97847 -2.93657
2485 1 -1.31344 -18.8884 4.72866 -2.14505 1.01535 1.87708
2486 1 -3.66562 -18.5348 6.18577 2.70011 -1.63086 4.7217
2498 1 -5.35556 7.35358 4.54652 -2.72821 0.482775 -2.6977
2499 1 -23.7024 -14.3116 9.20064 0.629126 0.333882 1.12294
2502 1 -5.75773 -13.0342 10.5625 -3.77947 5.11675 1.69545
2509 1 -4.03681 -6.92092 3.50792 -3.53981 2.16635 0.288684
2512 1 -10.4251 10.5328 13.0644 -1.44087 -1.36562 -6.49014
2517 1 -11.196 -13.538 17.0381 3.60039 -2.85755 -3.97813
2522 1 -3.76238 9.30166 0.978629 -3.13112 -2.26991 3.0999
2532 1 -13.4815 -16.9735 1.76069 3.22207 0.316827 -0.825894
2537 1 -1.88315 -24.1922 13.826 4.04851 0.674826 -0.357114
2546 1 -14.6345 3.10731 13.1731 -4.06172 0.113518 4.54158
2547 1 -13.1436 -3.84182 5.26506 0.160489 1.01851 -1.52019
2552 1 -1.33972 -14.4408 8.99598 -3.84899 1.12175 1.39027
2556 1 -8.81682 -13.8334 10.9399 -1.88889 2.68096 -5.03762
2559 1 -16.8215 7.34548 5.02545 0.41182 -2.57923 -2.65641
2561 1 -10.2602 -2.58385 11.7464 3.20016 -4.75582 8.44999
2579 1 -10.5665 7.42121 3.13393 -2.99919 4.12409 -5.56802
3015 1 -4.91573 10.9697 7.38496 3.53512 -2.67405 1.92697
2591 1 -4.68554 -23.2052 13.8631 1.66676 -5.28601 2.51989
197 1 -24.1284 -3.32995 23.0912 -4.51602 -6.07989 3.46897
2599 1 -5.92584 2.81602 6.90733 -0.933215 0.588522 -1.23716
2601 1 -1.44566 7.79075 5.87915 4.14816 -2.52545 -3.91074
2612 1 -15.7209 -20.3572 18.6825 -1.59208 2.47291 -3.78142
2613 1 -21.9769 4.92516 15.7317 3.70535 -1.08708 1.47514
2615 1 -3.40611 2.3969 15.9892 -1.30677 -0.847061 -0.244783
2622 1 -1.38605 -18.027 22.521 -2.09137 -1.85596 -1.31531
2625 1 -6.69426 -5.41977 22.972 -0.631168 3.06486 3.61022
2626 1 -2.29303 4.0718 21.9302 -0.132208 -6.20443 2.09621
2629 1 -20.6164 -2.82965 6.15235 -1.58896 5.32741 1.02318
2630 1 -12.5543 -8.9528 17.9033 0.955634 -3.51292 6.14494
2636 1 -14.345 -20.0322 15.5103 -6.90497 -3.3536 0.624575
2642 1 -4.93562 -17.7204 3.60263 -3.35682 -1.57045 -3.26322
2647 1 -11.0142 4.82172 3.99511 -1.65146 -5.38333 2.17225
2650 1 -4.48082 8.92917 14.6951 1.87507 3.24654 -2.54474
2651 1 -16.366 -18.5236 16.672 -0.523561 -0.584997 1.35468
2655 1 -5.21788 -8.94794 1.77559 -0.795987 4.81059 -1.47101
2657 1 -9.74004 -6.98374 6.53221 0.824863 0.818312 -3.58158
2658 1 -6.22602 1.41554 17.0386 -2.18966 3.90487 2.76156
2662 1 -21.3621 -22.5879 11.2162 -2.1309 -4.24112 1.47496
2663 1 -7.94799 8.86852 23.1678 5.45597 3.38643 -1.27727
2665 1 -22.5974 2.0977 0.427674 -0.133262 0.513358 1.03361
1631 1 -23.8062 -19.249 8.98528 -2.38725 -0.758418 1.51931
2682 1 -21.8971 1.45257 13.5932 -0.559687 3.48498 0.983214
2685 1 -1.99766 -7.90458 5.28875 -2.25445 -2.73846 -0.594522
2691 1 -20.1039 -23.1418 20.3646 3.9586 -2.44091 5.62992
2694 1 -4.52888 -11.957 20.0326 1.25364 0.409888 -2.82078
2700 1 -6.71427 -19.7371 2.42436 4.04569 -1.67883 1.19203
2705 1 -2.56305 -5.41563 6.83413 0.766502 1.59862 -1.92876
2707 1 -9.1869 -13.3949 0.625269 -1.10118 -1.38866 -0.235853
2708 1 -14.5357 1.39362 23.7549 -0.918018 3.60157 0.50731
2715 1 -12.4879 10.455 20.5478 1.39348 -1.10237 -8.44642
2724 1 -4.25858 4.63421 5.31404 0.960678 0.220128 7.12754
2730 1 -7.73518 -16.6411 10.5662 2.50417 0.126477 4.68797
2684 1 -23.3845 -11.0555 4.3094 2.94922 -0.189924 -0.950694
2738 1 -6.96341 8.57137 13.3228 -6.74249 -0.995477 0.0768205
2739 1 -13.1817 -7.30354 20.2905 2.6337 5.48027 -0.603118
2741 1 -7.72719 7.15412 2.11081 -2.82422 0.163708 -3.20055
3998 1 -11.6129 -3.54801 0.510214 -0.12878 -4.14101 7.20623
2749 1 -13.8196 -7.99213 22.7887 1.63459 -2.88173 1.54417
3737 1 -0.711857 6.33783 1.27296 -3.74279 3.11958 5.62948
2759 1 -17.7632 -15.1726 8.14693 5.51951 -0.0149923 -3.21714
2761 1 -7.17526 -14.9443 19.1599 -4.97581 0.4762 -1.73559
2762 1 -10.6508 9.16845 8.35946 4.37827 -2.85837 -2.34388
2763 1 -5.29518 -11.6301 17.3282 6.46458 0.942469 -0.377879
2775 1 -3.13585 -19.3486 15.2827 -0.539063 2.18393 -2.75452
2792 1 -6.9401 -5.59927 3.84835 2.18386 0.269739 -0.51719
2793 1 -2.08415 2.17796 7.00151 1.92109 -5.89041 0.41957
2812 1 -9.96918 -1.66294 22.7928 3.74918 -2.32667 -1.66705
2822 1 -15.4982 -3.35473 3.86462 8.06289 -3.78216 -0.813931
2830 1 -22.0723 7.40393 0.747476 -0.591775 -1.49823 2.76034
2833 1 -21.9906 1.74595 5.29748 -4.35684 1.96001 1.03403
2834 1 -10.0932 -16.972 22.1156 -0.648635 0.598076 6.85075
2846 1 -22.5064 0.269701 2.74572 0.904653 -2.30531 2.20994
2849 1 -21.64 -24.0218 13.6689 1.96772 2.98931 1.44174
2860 1 -21.6948 6.68672 19.4204 0.951535 1.27072 -6.15067
2869 1 -20.0419 -16.6024 17.1358 -5.76039 -2.1155 -1.41273
2873 1 -10.3748 -3.85552 4.68342 -0.559443 2.95358 1.13486
2880 1 -1.91564 -0.170986 13.5643 0.353372 -1.07147 2.51655
2882 1 -21.0018 -16.2402 21.9462 1.78227 -1.46517 2.50887
555 1 -15.5385 -15.0309 0.430916 -0.272298 1.54964 -4.88204
2894 1 -7.24699 6.08435 15.9954 -3.38754 0.320521 -2.16426
2896 1 -13.6604 4.68815 18.3978 -1.4097 0.615311 3.95444
2899 1 -4.33638 -20.9589 19.3744 -0.700549 -3.67991 -4.39508
2903 1 -15.1096 -13.6111 4.41692 -2.28812 2.81917 1.53493
2910 1 -13.6182 8.06584 18.9441 -0.18648 -1.28593 -4.89552
2917 1 -8.12956 7.27915 5.1315 -1.20185 0.429269 -2.28403
2923 1 -13.4419 -0.125831 19.4586 -1.87476 3.8445 -2.28417
2954 1 -16.022 -3.18262 9.40491 0.555591 -1.84 4.53953
2966 1 -1.82998 -23.8294 18.8032 2.21857 -1.19464 0.838286
2968 1 -2.34151 -11.7644 0.656673 7.20889 1.80743 -4.13014
2969 1 -4.84216 -2.23326 17.8456 -0.715219 -0.578884 2.58003
2981 1 -12.4903 8.77855 16.2375 0.49141 -4.04804 -1.10576
2982 1 -12.716 -6.25903 6.86988 -4.32088 1.07173 0.171574
1239 1 -1.30831 -23.6642 6.86304 0.116879 -8.4514 -5.14665
2985 1 -12.6672 -13.2473 12.1749 1.09241 2.1073 3.83814
2997 1 -6.45138 -17.7685 6.25889 -3.16806 0.213437 2.9778
255 1 -24.0076 -21.9279 9.88153 -3.95136 -0.722489 -2.05168
3009 1 -14.4555 -22.5295 9.36628 2.53862 3.98863 -3.81517
1048 1 -1.32599 0.292878 16.4876 -1.41054 -1.21685 2.89842
3017 1 -13.7979 6.93692 23.0338 -1.75926 -1.24853 0.424977
3019 1 -20.3437 -20.0299 12.0159 5.50438 1.63954 0.922504
3020 1 -13.7367 -10.7522 8.24079 0.419258 2.90635 4.1402
3033 1 -11.8515 2.97686 6.2654 1.35131 -2.46447 4.6818
3037 1 -3.16303 -9.95145 7.14211 3.76324 -0.346338 3.66871
4000 1 -17.8207 10.4098 23.4434 0.335383 0.206699 -5.29546
3074 1 -8.52767 -9.07991 8.39531 -1.95166 -4.64525 -1.52541
3081 1 -18.2567 6.37215 7.15165 -2.91206 -4.8515 2.896
1906 1 -18.6131 -24.0608 12.9636 -1.29934 1.08846 -2.83839
3084 1 -16.0248 -23.7983 7.19056 -2.12088 -3.45911 -2.17784
3087 1 -8.63946 -21.3045 12.0691 -4.53703 4.87953 -1.14351
3091 1 -3.39818 0.320874 22.6483 2.75794 -1.82353 -5.47193
3092 1 -8.48536 -8.17086 20.6936 -0.755498 0.667778 1.79957
3098 1 -10.2595 -18.4219 4.83263 -2.01306 -2.62052 2.13419
1890 1 -23.2699 7.19828 23.5893 -0.731027 -4.75237 -1.53829
3104 1 -20.5654 -7.19158 7.47555 3.80337 2.66694 0.849787
753 1 -17.1754 -17.9275 23.7335 1.85496 -1.78335 5.16714
3119 1 -8.96765 -9.4518 4.72736 -2.57112 -5.72947 1.67622
3121 1 -2.27893 -22.3245 16.2095 1.64304 0.379508 1.8323
3129 1 -2.51997 -10.9815 9.70508 -1.36003 1.64476 1.86862
3136 1 -17.4556 -21.6738 6.06292 -1.24441 -3.06341 5.16377
3147 1 -1.58625 -18.2544 0.965457 4.1076 3.73915 1.96553
3155 1 -4.96609 -11.8478 2.04672 -0.570733 4.2852 -3.00794
3164 1 -20.2147 3.46566 22.0727 -5.03895 8.39808 -1.53326
3168 1 -18.9011 -19.8069 17.4906 5.31142 3.87961 -3.44766
3172 1 -8.89553 2.15723 6.18455 0.793218 0.580909 2.7933
3390 1 -24.007 -23.5313 15.1424 1.23054 -5.14175 -3.04412
469 1 -24.2381 -13.1207 12.3995 -2.43542 2.28739 -0.0561525
3187 1 -21.0745 -14.5833 2.02402 1.2983 -3.31324 -3.13564
3194 1 -18.2506 -7.27687 1.34455 -2.16268 -0.260956 -0.692846
3195 1 -16.941 0.871666 3.81415 -1.51088 -1.11484 -4.90824
3197 1 -3.19693 9.28805 3.9021 -0.654859 -1.81649 4.68154
3201 1 -15.3614 -3.26387 19.135 5.78976 -0.462061 -0.197329
3204 1 -16.4769 -10.1946 9.41933 0.12538 -5.89751 -5.69179
3220 1 -4.13154 -9.12128 17.4348 -1.56711 -7.59812 0.26929
3222 1 -14.6954 -19.5949 1.92165 -1.05364 -2.3847 -0.309167
3223 1 -24.339 8.06552 18.8849 0.498539 1.56623 0.875496
3225 1 -9.3789 -6.78993 14.7304 -0.20884 -3.47721 0.458194
3237 1 -4.22835 -14.2994 23.4968 1.23624 -1.22156 1.32675
3239 1 -13.9959 -17.8948 8.63022 -0.851064 -3.60277 -0.771167
3257 1 -12.6509 6.0609 20.5991 -1.56434 -1.3603 -2.817
3258 1 -20.2351 -6.41407 19.3947 -0.343003 1.81504 -0.405104
3099 1 -20.2634 7.31975 23.7578 1.83125 5.19902 3.96379
3277 1 -2.23104 -16.1448 3.31164 -1.1356 -1.12163 1.34205
3281 1 -4.93059 -15.7098 11.3979 -0.918744 -4.10689 0.66424
3283 1 -4.60934 0.392459 14.3626 -2.36241 -0.278555 0.759603
3287 1 -4.97653 -14.4689 17.6662 -1.81347 4.29954 -4.01034
3289 1 -16.5602 -21.6084 10.8613 -2.8897 -0.479051 -1.7449
3296 1 -17.0718 -13.445 16.7903 5.64903 -0.849154 0.67289
3302 1 -18.9619 -11.5898 20.5234 -1.84667 0.786547 2.15294
859 1 -14.3073 -7.57887 0.620027 0.282892 -1.71216 3.41231
3312 1 -23.8409 6.35667 14.1603 -2.37077 1.68773 2.74951
3318 1 -10.8277 0.637773 18.3979 -6.54697 -2.18222 -3.14094
3321 1 -9.42135 -18.1838 19.24 -1.64026 -3.08337 -1.60502
3332 1 -4.79944 5.64222 22.5627 -0.270255 -1.08672 2.81628
3337 1 -15.3528 10.371 9.56799 2.04235 -3.669 -3.24916
3348 1 -9.65354 -19.4277 2.34578 -1.57735 -1.63588 -0.355046
3350 1 -4.08382 -7.59187 14.8538 -1.98608 1.245 4.80037
3351 1 -21.3143 -9.63488 17.1147 -0.596915 2.27501 -0.467526
3353 1 -22.9701 4.19194 18.4207 5.68193 0.115785 3.98427
3360 1 -7.4084 -17.1208 17.2572 1.29914 -0.00367167 6.50444
3371 1 -8.57032 3.21196 13.457 3.56781 -2.00596 -3.34951
3376 1 -15.5834 9.65464 13.9115 4.63381 -0.256927 -2.46175
3983 1 -21.4613 8.37764 9.16374 1.98555 0.612841 3.1903
3387 1 -18.3611 -3.31735 2.62021 0.116692 -1.31951 4.10694
3388 1 -21.3282 -2.80836 14.897 -0.317732 1.44449 -0.0319884
3391 1 -9.27018 -14.0531 3.45736 0.957561 -0.707949 -0.461604
3394 1 -12.5008 -1.13728 13.0684 0.203618 -2.1992 -8.48023
3397 1 -4.38434 2.18761 20.5889 5.25093 1.54729 1.37821
2592 1 -0.689782 -17.4868 8.69715 0.652651 -5.83094 0.693899
3409 1 -3.13451 -18.2114 18.8211 0.640278 -0.763933 -0.987543
3410 1 -18.7344 -8.19379 13.8584 4.82132 1.26084 0.141096
3411 1 -5.9112 -5.32117 20.0711 -1.81005 -2.4286 -2.54202
3417 1 -22.621 -10.37 10.2313 0.624531 -0.231203 -0.498079
3419 1 -11.9643 -11.7252 0.487802 4.962 -3.1869 2.0908
3420 1 -19.1063 9.27181 7.76632 1.52743 4.33468 1.53408
3423 1 -13.4942 3.17024 0.940897 5.12656 0.938121 0.701688
3179 1 -0.490676 -0.390435 19.8742 0.849274 0.638013 -1.7501
3426 1 -19.8077 -6.5954 4.52171 -5.85497 0.244273 -1.3562
3430 1 -13.9996 -16.1638 19.8018 -2.08017 0.175021 2.09122
3432 1 -2.42682 9.6132 7.97298 -3.81132 -0.0136877 -0.53812
3436 1 -4.45927 8.81611 17.4974 -3.79148 4.77135 -4.21671
3438 1 -19.4036 9.32271 3.33047 4.2767 1.0221 1.42397
3442 1 -7.6203 -0.239115 4.49299 1.2581 2.97317 -0.0456969
3448 1 -19.6478 3.65587 15.1683 -2.73073 -5.14345 -2.28149
3461 1 -13.4811 -24.1468 19.9544 3.06851 2.21163 -6.94392
3464 1 -17.2644 -18.7043 13.9242 1.21828 0.0816612 3.75932
3468 1 -7.54628 -7.9824 23.4191 -4.76802 -5.72926 -2.03148
3469 1 -1.63811 -7.31436 1.79282 -9.48662 -2.54216 -0.413041
3475 1 -23.6817 -12.9836 19.1877 6.48163 2.20375 -0.824588
3490 1 -17.3923 3.26531 5.58593 -0.715982 1.36883 1.99791
3494 1 -16.5807 4.00321 23.0199 -0.289339 0.528948 0.425533
3497 1 -16.7308 10.504 17.853 2.44418 -1.91767 1.80334
3510 1 -12.3086 4.88486 15.8869 -0.20307 -0.951886 -2.95468
3512 1 -19.5913 2.4865 3.54515 -3.52654 -3.08907 1.35712
3519 1 -2.79136 5.25959 16.281 -0.443502 -3.19114 0.22472
3520 1 -5.14167 -15.0371 21.1278 0.15411 2.15836 -0.0421794
3523 1 -12.7793 -20.5375 8.38612 2.93845 3.82161 -2.68243
3529 1 -21.6994 8.76783 21.3595 -0.385112 2.64447 -1.23288
3549 1 -10.4478 9.54208 5.25306 -5.65444 -1.11386 -2.20254
3556 1 -9.16604 -13.18 19.9265 1.97838 -0.952372 1.88725
3566 1 -10.8452 -15.8285 4.36559 -3.2026 2.44048 0.166855
3581 1 -13.315 9.03463 4.96481 -1.36827 -4.30548 4.94427
3582 1 -15.2826 -23.0074 15.4377 1.8536 -2.71953 -2.1737
515 1 -1.45301 7.9393 17.3242 -0.509012 2.95627 -1.16595
3595 1 -2.85617 -16.0207 6.99683 -0.425081 -0.0202276 2.15656
3603 1 -5.11786 -0.754019 9.8335 -2.84607 -1.55765 -3.38562
3607 1 -18.1961 5.91279 18.6844 4.12379 5.50864 1.00197
3616 1 -11.3347 -11.2715 22.9871 6.66957 3.57507 2.72969
3629 1 -4.63175 0.0545111 4.34939 4.83779 4.27136 2.6735
3632 1 -14.1216 -15.907 15.2361 -0.0304155 4.53936 -0.393991
3634 1 -1.02741 4.19922 9.08328 0.289028 -4.48779 3.43179
3642 1 -3.86279 -14.0124 5.11291 2.13263 2.07173 0.31595
3651 1 -9.90281 6.20105 10.6686 -1.64317 -4.71397 -0.0274626
3656 1 -10.9773 -20.4921 19.9023 -0.147949 -1.38847 -3.75695
3668 1 -14.0333 -2.38759 21.5124 -3.63786 -1.69622 1.58769
3979 1 -9.45089 -23.1892 4.30775 -3.0272 0.213877 -5.92977
3673 1 -5.44648 -22.5702 21.7469 -0.995641 -2.4546 5.31623
3678 1 -18.6535 6.28602 14.305 -4.51604 1.37656 -4.64302
3681 1 -7.42621 0.0846242 14.4429 5.62531 -1.46215 0.00547205
1912 1 -16.3876 4.19684 0.376762 2.86149 1.15204 1.10415
3695 1 -7.39624 -5.32769 0.937444 0.611658 -2.85833 1.48159
3698 1 -22.6628 1.97388 16.2413 3.01294 3.3374 -2.72588
3699 1 -9.26673 -5.40745 12.0699 -1.30915 -0.377161 -1.07778
3710 1 -6.87278 -7.63981 18.45 3.52422 0.447912 -3.5444
3714 1 -12.4033 -0.0018617 22.2856 -4.71313 3.48011 0.707822
3718 1 -18.5833 6.68245 2.80467 -2.35456 -1.72646 3.02493
3738 1 -6.79177 -6.32014 15.853 2.4316 3.16533 2.03957
1608 1 -24.7 4.72186 8.45582 -4.75191 -1.92423 3.24643
3751 1 -4.84276 -1.85976 1.16934 -0.443373 3.1621 1.34621
3754 1 -11.0106 6.24458 8.1153 -1.27294 -1.26694 1.77529
3767 1 -10.3973 -22.1388 1.8413 0.128403 4.95174 3.25273
3769 1 -21.0047 -17.9317 9.02211 5.2166 2.36809 -3.08008
3770 1 -7.06911 -5.85452 8.66324 -4.07939 1.51362 0.319622
3779 1 -9.96852 0.557531 8.42468 -4.69816 -1.11248 0.19713
3781 1 -4.7616 -4.35363 8.5824 -5.1272 4.7773 0.431896
3792 1 -10.7284 -8.56729 10.3381 -0.475426 4.71875 -3.92378
3797 1 -15.0573 -14.9881 8.25371 -5.07425 2.0959 -3.18553
3810 1 -18.3873 -3.18522 14.0283 1.56287 -1.17327 1.61685
571 1 -0.609775 -13.2487 20.9718 5.26203 0.102212 -0.16421
3816 1 -14.3409 -8.71811 3.31755 -4.67395 -1.85344 2.56369
3840 1 -10.584 -22.8443 13.4535 1.57377 2.82874 3.47852
3843 1 -1.38591 -17.0718 14.7168 -3.10722 -4.95371 -2.73179
3844 1 -22.2545 -13.4807 6.85976 -4.56487 4.41056 0.0484064
765 1 -24.7852 11.1586 7.93498 -1.64019 -2.32561 1.32235
3861 1 -17.394 -13.7824 21.4997 -2.98931 2.12108 5.37678
3863 1 -14.0656 -3.36358 14.1644 -4.15982 0.555081 -2.02471
3403 1 -14.1726 -23.4288 0.285213 1.58107 2.91079 -0.325609
3869 1 -7.17169 4.48862 8.74449 4.59827 -2.04665 0.406221
3873 1 -4.04252 5.97507 13.8084 1.11624 -0.851544 2.98468
3876 1 -23.8702 -10.885 21.4513 1.26535 3.77747 -2.87451
3893 1 -7.03738 10.8921 11.378 -0.220494 0.43858 4.6109
3903 1 -18.7625 -14.5549 3.64617 2.27934 1.3739 -0.462983
3907 1 -21.3332 -0.106131 9.77611 1.85603 3.22964 -1.25088
3912 1 -8.38046 -9.54997 1.92665 2.48747 -4.35959 -3.3402
3785 1 -3.48721 -21.7038 23.6261 -3.96954 -0.625653 0.243339
3920 1 -11.1186 10.494 17.8682 -2.54446 -0.368587 2.41868
3924 1 -9.833 -5.8742 9.20996 1.39428 -1.73102 1.73986
3925 1 -23.6851 4.07928 2.025 -0.792596 -2.83252 -0.939107
3931 1 -1.12871 10.6843 1.86215 0.579143 0.36147 -1.29002
3933 1 -2.69672 -10.1072 20.9761 5.10492 1.48752 0.0888993
1908 1 -16.3828 -5.53169 0.360355 3.0298 -1.39165 -5.15026
3943 1 -20.1535 -20.1051 2.63292 -5.14628 0.273722 1.41075
3965 1 -5.60538 0.876226 1.75245 -2.21333 -0.0149809 -1.97377
3971 1 -5.1615 -1.5443 21.6863 -4.22981 3.9582 -1.13073
3686 1 -23.647 9.89827 0.438005 -2.17869 -2.98268 -2.26505
2114 1 -0.510512 -24.258 21.1783 -1.39513 -0.683618 2.25173
222 1 -11.8886 -8.75667 0.564489 -0.0656905 -2.88071 -3.07727
3913 1 -7.96092 5.02406 0.11411 -1.05742 0.908334 3.1216
505 1 -1.62858 8.72375 24.0912 -4.47805 2.50495 -0.920135
1519 1 -11.2332 -17.9175 0.557577 -0.483388 4.26573 0.543048
2922 1 -16.9356 -20.6022 24.2453 1.7321 -2.54487 5.81258
1811 1 -0.538229 4.19449 19.7699 0.989793 4.08543 2.6636
1409 1 -0.418348 6.28025 22.946 6.12166 -2.37345 -0.449068
121 1 -6.34756 -17.6272 24.3191 1.84646 0.429936 1.7374
553 1 -11.6692 6.30557 0.304184 3.80565 -1.71128 2.13388
3941 1 -17.4836 1.57872 24.2684 -3.72769 -3.69231 2.72593
944 1 -16.3221 -3.44447 23.8516 -2.22902 -2.40089 -3.96916
3224 1 -4.87136 -6.81881 -0.131497 3.97835 1.40994 -4.06886
2252 1 -23.8173 -12.7058 -0.330367 1.8408 -1.44043 -5.29758
1510 1 -15.631 -10.2592 0.228455 -2.73926 2.88551 0.605598
32 1 -9.52648 12.6933 -20.6596 -0.684012 2.57571 -0.798865
36 1 -12.6902 19.4784 -18.3181 0.346557 -3.56876 2.50776
45 1 -10.7422 12.9148 -3.19258 4.75336 -0.502229 -3.39017
1034 1 -14.6971 12.1069 -9.54963 -4.08396 -6.27877 1.0758
67 1 -14.9626 23.4051 -12.1725 -3.34954 4.9499 -1.906
4062 1 -9.04504 36.9295 -0.176734 1.62987 3.3683 3.82322
70 1 -16.1729 14.7311 -16.5433 -4.11229 -0.665769 0.87759
422 1 -2.95977 15.4343 -24.1125 -1.40226 0.239287 -4.2139
78 1 -19.3703 13.1675 -8.53692 1.45179 0.47962 -2.6381
80 1 -13.9009 14.2603 -13.7054 2.50528 3.85462 -0.447978
83 1 -22.3576 11.6539 -1.37701 -3.58635 3.07379 2.6765
88 1 -9.39537 22.2036 -19.2915 1.20093 5.76262 -0.212805
109 1 -12.7159 16.5857 -14.5183 -2.19119 -2.87185 -1.48315
130 1 -9.46905 16.9214 -19.5924 0.56393 -0.470912 3.68542
154 1 -9.22706 21.2016 -5.93902 7.15428 -0.380777 -5.03855
172 1 -19.8968 19.8586 -18.8873 1.9669 1.83217 -0.533443
176 1 -3.12801 22.3554 -3.82322 -0.528599 -2.46106 -7.4279
209 1 -7.01723 16.5748 -15.3915 -5.8904 0.46965 -0.447576
210 1 -19.2176 11.8938 -1.33551 2.30323 1.60133 1.363
212 1 -15.6434 23.9514 -4.30347 -3.30376 -0.543618 -2.07958
4182 1 -1.66504 37.4622 -0.863519 -4.80345 -6.47766 -4.86629
245 1 -9.93363 23.9007 -11.901 -3.76374 1.81109 -2.69563
267 1 -11.7755 20.7811 -10.7728 1.30302 -0.251925 0.808885
268 1 -20.8414 17.6476 -12.7528 4.00634 -4.42309 -1.96719
286 1 -5.60491 17.8324 -0.694753 1.35915 1.11012 -1.01649
301 1 -6.09422 20.8291 -21.9405 -4.22847 -4.04895 -5.61294
3473 1 -24.4552 24.4066 -20.7154 -3.99016 -1.67689 -0.956744
374 1 -5.71482 18.469 -12.1715 1.42193 4.91763 8.42741
394 1 -9.30355 11.2719 -5.39616 0.293752 -3.28769 -1.47539
4205 1 -2.86574 39.7373 -1.70701 0.761286 -2.25734 1.60933
3116 1 -11.897 15.7939 -0.806867 2.76613 4.03112 1.3168
439 1 -1.6947 23.41 -6.2945 2.93163 -4.73882 1.04133
440 1 -9.98738 15.2593 -14.1542 2.87944 -3.22051 -0.196167
489 1 -12.4261 22.7547 -12.7469 -3.35953 -4.75321 3.9009
3235 1 -7.10953 11.7095 -11.6003 -3.30769 -1.9901 1.28455
521 1 -9.89707 23.3458 -7.6372 -3.69549 -2.28031 2.44885
526 1 -20.651 15.258 -4.80341 5.79232 -0.396374 3.32451
527 1 -4.13527 13.6957 -7.98359 1.32159 3.83903 -1.53451
528 1 -15.0615 16.0117 -11.6197 -1.40326 1.87374 -0.861569
556 1 -11.2896 16.9248 -3.30737 -2.86882 0.931362 4.48474
567 1 -21.0276 21.7541 -2.81099 -0.109607 1.51843 -0.667669
569 1 -7.59778 23.4474 -16.5019 1.62769 -7.20244 5.51617
612 1 -4.34446 12.3436 -13.0751 -4.19295 -2.91745 4.01149
617 1 -12.9258 22.4004 -18.4006 -0.448652 -3.16049 4.20775
621 1 -7.2474 14.0189 -14.1175 -4.5019 1.15256 -1.28801
4198 1 -1.89646 41.9804 -7.85837 5.71532 -1.17914 5.83136
673 1 -1.59769 18.1454 -24.2348 -2.77621 -3.2838 -3.81841
682 1 -3.92647 16.4361 -7.93351 5.74245 6.29434 4.62371
697 1 -20.9941 15.7056 -20.2114 -3.20326 4.3718 -0.45439
723 1 -22.6776 13.4238 -5.29469 1.3132 2.77437 -6.16924
724 1 -8.92511 21.545 -10.7102 4.47958 -6.71598 0.644489
728 1 -10.7552 16.5441 -8.27481 -1.94833 -3.82719 -3.5851
731 1 -11.8057 12.1698 -23.1948 1.58172 0.46303 2.25328
757 1 -18.4381 13.5689 -4.59519 -2.08631 -4.74403 -0.425035
4221 1 -3.23806 44.2248 -8.4874 -0.94853 2.94136 -0.879656
766 1 -11.1062 17.6306 -16.6652 -1.86611 -3.67899 -2.7699
1816 1 -0.894929 17.3712 -11.678 -0.819648 -2.63151 -3.71115
4170 1 -2.17127 37.2188 -5.59241 0.00451333 1.16503 -0.749223
792 1 -23.3648 14.9488 -8.10581 -4.0944 0.291685 1.94072
799 1 -10.4528 19.4429 -2.30729 4.48628 1.4708 -1.04475
809 1 -5.55611 23.5496 -18.5333 -0.478776 4.51306 0.078871
813 1 -15.3751 22.5484 -16.9017 -2.44669 3.42151 -3.72323
839 1 -22.4393 19.2386 -10.9271 -2.45986 6.78002 -5.70809
848 1 -5.11748 15.8692 -13.0576 0.722809 0.162162 -0.485286
851 1 -22.4941 16.2106 -14.745 2.20236 1.85165 -2.91545
855 1 -16.7721 21.9626 -20.8732 3.52663 -1.17119 -4.83591
4230 1 -0.960604 46.2058 -0.411179 0.452663 1.93612 -1.72434
87 1 -0.964041 16.4671 -8.25522 4.04524 -3.83521 3.37557
903 1 -7.19237 23.4585 -20.7683 2.87628 1.55573 -0.948029
912 1 -15.7831 21.9502 -7.78829 2.58908 1.53159 1.33345
934 1 -3.38952 17.6287 -22.0056 1.96309 -3.90442 3.81303
955 1 -10.3635 19.5407 -20.1137 -0.36688 -1.19134 2.51892
963 1 -16.1719 25.7307 -13.3674 -1.3482 2.55649 -5.15281
968 1 -1.55591 23.6044 -15.2624 3.72879 -1.07904 -2.38807
984 1 -15.418 16.8944 -4.95665 0.21625 -0.513793 -1.31723
3230 1 -24.1559 13.5354 -23.5755 -0.9649 -6.18279 2.92794
1044 1 -4.06023 21.2362 -11.3646 -1.6767 1.01907 -0.0369607
508 1 -1.09853 21.6887 -10.8728 3.96937 -6.15261 4.52669
1071 1 -18.8079 24.415 -13.2761 0.9525 1.10528 -1.70651
1074 1 -10.5091 12.8486 -16.1115 -1.7223 -0.722575 2.03461
4218 1 -1.66941 46.4134 -5.20459 1.23462 -2.90281 -2.25289
1094 1 -22.7593 17.1922 -23.4749 -3.63788 0.274752 0.384798
1095 1 -6.82506 21.4498 -12.4871 -1.48047 0.822227 -1.79596
1122 1 -8.05684 23.0958 -2.70044 -1.18223 -5.96597 -0.865018
1124 1 -1.94727 14.2493 -16.2801 0.261644 -3.08306 -0.480214
1130 1 -2.41794 14.4067 -13.3339 1.57722 3.64776 1.59743
1187 1 -13.8238 17.4323 -8.26242 -0.159941 -1.75267 -1.91035
1210 1 -3.69449 18.6202 -5.90603 0.808861 -1.20343 -2.76601
1232 1 -20.0579 15.7539 -23.0916 -1.76668 2.20409 -1.28891
1265 1 -9.31786 13.1664 -10.6092 -2.34957 -5.08109 -3.62762
1277 1 -10.6164 22.1465 -3.52562 1.87114 0.660951 1.06292
1279 1 -18.9535 15.3278 -13.1391 -1.74098 -2.03238 -0.291472
1292 1 -5.32528 18.6276 -3.41519 -0.94644 -0.208062 3.97688
1311 1 -3.41407 17.9072 -13.9741 0.485152 -5.97987 1.56649
1327 1 -9.05597 20.5384 -22.5574 1.67177 0.282784 0.440474
1330 1 -8.99672 15.4538 -6.60609 -0.187069 0.705269 -0.5399
1335 1 -14.8616 25.2251 -15.7558 -3.5607 3.53523 0.487102
1368 1 -18.6246 17.8182 -1.61853 0.229892 2.01658 -5.1511
1400 1 -12.1791 14.8827 -23.5931 -2.34697 -5.60486 -0.11639
868 1 -1.2662 17.5662 -5.24051 -1.18133 3.91749 -5.68545
1420 1 -11.7483 19.5249 -22.6005 -2.63277 -2.25646 -2.59221
1440 1 -24.3291 12.9108 -3.04449 0.286263 3.39474 0.616356
1465 1 -21.435 22.7912 -13.9661 -0.141128 1.8437 -0.857502
1476 1 -20.7827 12.9783 -20.7996 -0.176716 -2.69076 -4.41304
1481 1 -7.41989 15.6729 -1.98519 -1.05393 1.28972 -1.21145
888 1 -8.25381 11.4366 -16.7104 0.405387 -2.7399 1.71622
1507 1 -20.0383 20.2491 -7.24664 2.07749 2.09655 -3.86311
3719 1 -1.34977 13.8517 -6.70136 -4.99551 -2.6719 -3.47726
1537 1 -2.72202 24.1189 -17.8884 3.91795 -0.635294 -1.21592
1544 1 -5.01515 20.633 -19.1507 3.0745 2.75596 4.88991
1553 1 -10.037 20.2809 -16.144 -0.204296 -2.40563 -2.17297
1565 1 -7.80164 15.5794 -11.3015 3.27717 -1.17569 -4.05339
1579 1 -6.0107 13.2845 -5.67839 1.54726 1.89035 -2.25173
1609 1 -22.8737 17.7491 -20.8526 2.91608 2.60198 -1.6309
1610 1 -12.0564 20.496 -14.3834 0.81473 -2.52905 0.405381
1637 1 -2.64465 19.5988 -2.52341 -3.21119 2.38939 -4.05971
1643 1 -7.30396 22.941 -8.74171 3.43941 0.409622 1.11198
1692 1 -2.14598 20.6445 -7.06814 2.2963 -1.35011 1.33748
2081 1 -24.0214 18.6286 -15.4812 -2.35176 -1.22484 -3.36587
1734 1 -7.82217 24.8384 -23.366 2.66187 1.87427 1.88018
1764 1 -15.0869 18.1829 -13.4567 0.222045 -0.985356 -0.713396
1803 1 -15.3504 15.0025 -8.90281 -1.79446 -2.31602 -5.56969
1817 1 -1.68675 18.429 -18.272 0.825247 -1.17724 1.51199
4173 1 -3.30267 34.7613 -9.2287 -3.4503 3.53736 1.44514
1899 1 -6.38251 20.2271 -5.59834 -2.37439 -2.64022 1.55881
1933 1 -2.51891 19.8975 -20.4269 -0.21233 -3.10844 4.80919
1947 1 -17.9934 12.9517 -14.941 -7.99611 -3.61274 0.994144
2002 1 -21.6191 21.7319 -9.5145 3.19132 2.42307 -0.168872
2007 1 -11.447 14.0358 -12.2363 -0.831453 2.95561 -0.230793
2551 1 -6.1634 11.6006 -15.1999 1.1559 0.22896 3.44099
2062 1 -17.6069 19.7018 -8.74713 2.82627 -3.35049 -3.51265
2076 1 -13.859 23.8965 -9.36737 4.1125 2.47406 6.71324
3780 1 -24.5712 18.8748 -18.6563 -4.12434 -2.85802 -1.80024
2092 1 -18.3335 22.5898 -23.0435 -3.25368 -1.20078 -4.18196
2093 1 -3.6878 13.3381 -2.13351 -1.3235 -4.15209 -3.24924
2154 1 -10.4688 17.2455 -23.7426 -1.55687 0.187382 3.34947
2156 1 -21.4668 17.7529 -8.51837 -5.48606 -4.27892 -1.47788
2166 1 -14.5425 20.025 -15.9561 0.988521 6.28404 -2.35648
2223 1 -19.9915 12.924 -23.5159 -0.701832 -3.34126 0.36077
2224 1 -15.6272 14.0023 -4.21284 -1.58238 3.27919 1.20566
2232 1 -22.6088 22.9403 -16.6269 -1.42398 -2.36174 -4.18936
2249 1 -14.168 12.3835 -15.8822 -0.566013 -4.25925 1.79631
2258 1 -9.63236 15.3418 -21.9064 -2.29159 -1.29535 -3.71635
2275 1 -12.3138 24.4537 -14.8862 1.04665 2.7888 0.631638
2284 1 -20.96 22.9885 -22.65 -1.78569 3.8994 2.05662
2289 1 -3.7255 13.8036 -21.9855 0.411359 -2.67655 1.39894
2303 1 -12.0791 18.4629 -12.3959 -4.98488 3.16792 -0.841997
2313 1 -7.9379 13.4803 -18.4557 -1.60387 -1.87999 -0.58029
2352 1 -1.73323 20.6669 -22.9455 0.411984 -2.28842 0.124173
2382 1 -14.3395 17.2792 -16.8605 -0.0885995 2.38691 2.78784
2401 1 -18.4182 21.1809 -3.71632 1.46602 -1.27901 -3.16593
2421 1 -24.6227 17.6783 -7.91545 3.20336 -3.17809 -3.57477
2431 1 -19.0621 18.015 -10.4785 2.97715 -2.36836 2.47513
2458 1 -23.5372 23.3769 -2.42404 -0.872265 0.195739 1.91995
2459 1 -19.495 15.8932 -7.23016 -0.399635 0.283022 0.218227
2461 1 -21.2463 17.5593 -2.98009 -2.45145 3.40361 0.0526454
2471 1 -2.50101 23.5998 -22.8178 2.31077 4.77345 -0.24786
2533 1 -13.3436 22.9705 -2.25094 1.24658 1.45887 4.26389
4181 1 -2.86663 34.9042 -1.79521 -4.46544 1.62637 -3.13229
4112 1 -5.23329 44.4419 -0.478741 0.66951 1.10593 -0.816816
2570 1 -21.1316 15.7449 -17.0868 1.548 -4.08166 -3.98349
1698 1 -9.22567 11.5561 -1.01807 -1.22589 -3.06896 0.479458
2603 1 -23.001 19.6259 -6.35434 -5.61059 1.92899 -0.4559
2611 1 -21.7277 24.6389 -20.5399 -0.181986 -1.54116 0.510292
2614 1 -12.3579 13.2345 -18.0803 8.9263 0.00647823 -0.526069
3929 1 -1.89679 11.6785 -8.62187 5.09729 -2.20772 -4.13931
2623 1 -20.3375 18.7216 -23.2688 1.7993 1.29261 -1.2116
2624 1 -19.0815 18.2985 -5.32925 -1.16131 0.655367 0.870581
770 1 -4.41673 21.7409 -24.0362 3.7319 -1.96937 -0.173113
2649 1 -18.4865 20.7268 -11.4384 0.550821 -3.50932 -0.40386
2699 1 -17.4113 14.0422 -1.75197 -0.387699 -0.159229 -3.55325
2702 1 -6.91103 18.2941 -19.6279 -1.83783 -4.52421 6.1484
2722 1 -10.8463 19.5112 -7.22362 -2.08867 -4.17507 -0.745128
2750 1 -14.02 22.7633 -20.8623 -3.64993 3.03476 -2.81712
2752 1 -9.46145 18.546 -9.9029 0.080282 -1.94546 -0.87349
4193 1 -3.07205 39.7199 -4.42232 -3.53608 1.80104 3.79322
2468 1 -20.081 47.1777 -5.7127 4.42153 3.18757 1.5713
2772 1 -13.7127 18.536 -20.8853 -2.67897 -3.28913 4.24909
4206 1 -1.38799 41.9416 -0.74477 1.82905 -1.38354 -0.827982
2804 1 -17.894 15.4277 -10.4282 2.82663 -3.8839 0.273525
2806 1 -4.20743 19.2915 -16.6695 2.16423 -1.70112 1.03928
2807 1 -22.1988 15.983 -0.757204 3.85865 -2.63572 -2.5016
2836 1 -12.8901 17.9819 -5.36805 3.0593 0.217725 1.13889
2866 1 -19.7506 23.3183 -7.71656 -0.985591 -5.1972 -1.45582
2867 1 -17.5532 16.9237 -14.8802 -1.4542 -0.41821 -0.109763
2870 1 -12.4567 16.3394 -10.5934 -0.62311 -4.42687 1.35042
2878 1 -18.9357 21.6726 -14.1464 -3.02922 -2.58801 -5.88012
2881 1 -16.18 14.7104 -21.4527 1.113 -1.52513 2.4509
2897 1 -3.45639 15.8065 -0.949589 1.8709 -5.07746 -3.01905
2904 1 -6.60454 12.9883 -1.50383 3.19081 2.55756 -0.57953
2907 1 -17.7517 22.6609 -5.78236 -3.62452 9.1687 2.51312
2952 1 -12.1792 22.9924 -22.988 -5.13821 -0.0957446 -4.30325
2956 1 -14.9323 19.2701 -1.8187 -0.574368 -2.42202 -3.21955
2959 1 -17.8053 17.3686 -22.1285 -1.48726 -0.287571 -2.96781
4229 1 -2.71968 44.2723 -1.40886 -4.08002 1.93195 2.04823
2976 1 -21.3112 19.7408 -14.7461 -0.456341 3.87428 -0.663264
759 1 -0.191763 12.6087 -10.8809 7.84756 4.02038 3.127
2986 1 -6.20545 17.7927 -22.3423 -0.901581 3.48296 -2.29812
4197 1 -3.4167 39.764 -8.95037 0.77968 -0.407885 -0.0716654
3021 1 -17.1089 22.9591 -2.05445 -1.65135 5.2825 -2.127
3030 1 -15.6979 20.58 -11.8949 3.90365 -0.133331 -4.47424
3044 1 -5.60671 15.8022 -4.25239 -2.78376 -3.9852 -1.99798
3052 1 -21.5183 13.7713 -13.9275 1.9976 0.736991 0.419762
3060 1 -21.5026 22.3049 -5.46439 3.06654 -0.60375 2.77057
3061 1 -10.6773 23.2576 -16.7633 1.36381 1.34535 -0.214055
3062 1 -9.15367 15.4011 -16.9716 4.25603 -0.343664 0.666846
4217 1 -3.26209 44.4365 -4.16544 -1.4767 0.384592 -2.60771
2983 1 -6.91796 12.9118 -24.0198 3.78075 -0.247625 1.73057
3115 1 -19.415 18.2816 -16.5622 0.340129 -2.55094 5.92416
3408 1 -17.1026 13.0224 -23.8077 0.422152 -1.80037 -3.99266
2754 1 -11.6098 24.5793 -0.475768 -0.395959 3.70317 4.08977
3133 1 -2.0713 14.8858 -10.6072 1.8123 -0.568077 -4.87755
3152 1 -13.5331 15.6342 -21.3576 3.50231 -1.62923 2.2993
3165 1 -6.00366 21.071 -15.428 -0.988143 1.06584 -1.9419
3171 1 -6.58952 14.8365 -22.1124 -1.08988 -5.97318 -4.49747
4222 1 -1.71413 46.5692 -8.07465 4.06967 0.0701306 2.50227
3185 1 -16.1153 19.484 -21.9837 -1.30993 1.75282 -2.6521
3188 1 -19.843 12.9354 -11.4351 0.770699 1.09504 1.67476
3190 1 -22.2197 20.1957 -17.4038 2.74334 -5.54496 -2.46647
3218 1 -5.43519 21.1692 -8.00402 -3.0371 -0.113636 -2.65218
3226 1 -23.2214 22.6078 -11.6392 2.1952 -2.45745 -0.904603
2731 1 -24.1371 22.0503 -7.94159 -1.69363 1.23143 -1.25859
578 1 -23.8056 21.9243 -21.9126 -0.390331 0.170694 -0.796767
3255 1 -18.8211 12.3829 -18.8094 4.15476 0.305038 0.636219
3256 1 -6.78247 17.7446 -9.54504 -1.6005 4.49276 -0.206442
3299 1 -13.8207 22.2411 -5.66568 5.33944 -3.74563 4.51842
3308 1 -16.9358 18.6623 -3.52308 0.441032 0.980213 -0.0590878
3330 1 -7.98929 19.2266 -14.2717 -0.534567 -1.52573 5.39455
861 1 -24.1528 21.2169 -13.9322 -0.571602 3.17872 2.46331
3383 1 -20.5006 23.8155 -18.2228 -0.37444 3.77245 6.81591
3393 1 -12.3788 15.836 -18.7844 -0.557007 -1.85237 -3.75872
2617 1 -4.25283 12.8002 -17.3893 2.8304 -8.2153 -6.38989
3435 1 -3.4161 21.7762 -14.0546 2.11388 1.29908 -0.0617425
3462 1 -12.3416 21.6281 -8.03221 3.34396 -0.242556 -0.22094
3480 1 -23.8977 23.642 -5.44847 0.41137 1.76643 0.418185
3499 1 -21.437 20.1988 -21.3387 -2.88233 5.37843 -3.66706
3501 1 -16.8706 17.1924 -7.31548 1.24868 -1.30908 -2.67362
3502 1 -5.81369 22.9256 -4.63738 -3.0095 2.86655 -4.0084
3506 1 -23.4088 19.7069 -3.45262 -2.51471 2.77528 -4.38479
3514 1 -4.27122 18.9214 -9.47999 1.50317 -2.93383 1.93489
3525 1 -17.3301 11.9273 -21.2041 -3.9578 -2.80471 0.265975
3532 1 -8.16262 12.8435 -7.72101 -2.1871 0.963783 4.28864
3540 1 -1.59888 12.3668 -4.16892 3.43982 -2.47489 -1.98524
3543 1 -16.7545 13.08 -6.94949 -6.85847 0.212752 -1.22252
3544 1 -7.6416 20.2285 -2.67427 3.01044 0.875043 -0.952971
3553 1 -9.346 15.2491 -3.98081 -0.230214 -4.47928 -0.854001
3560 1 -17.6499 14.9536 -18.7973 -0.962975 -3.77752 2.10013
3600 1 -19.3436 23.3742 -10.5647 2.8381 -6.14679 -0.0305997
3611 1 -17.5403 20.3996 -16.1819 -2.64668 -2.60503 0.91806
3612 1 -2.90018 15.1322 -4.40521 1.74056 -0.342527 1.6817
3620 1 -4.99138 14.0065 -10.659 2.75519 0.207196 -0.318024
3655 1 -7.62349 23.8579 -13.6761 0.688016 -3.5088 -0.22722
3675 1 -14.4337 19.9306 -9.36977 -2.16348 -0.123908 0.940111
3717 1 -3.16836 16.3692 -19.5449 -0.201851 -1.54277 -0.204373
3653 1 -1.51483 17.0294 -2.46933 -1.9624 3.88466 2.36732
3721 1 -1.42313 19.0742 -9.33337 2.65233 -1.23922 0.405911
3725 1 -12.9614 20.2782 -3.52312 0.903591 -1.10632 2.02458
3736 1 -22.4908 13.5822 -10.5142 -1.05241 4.63891 0.504962
3747 1 -18.0466 22.1192 -18.527 -1.77215 -3.44699 -0.550596
3752 1 -20.4996 13.0481 -16.3234 1.34794 -1.06187 0.245282
3791 1 -9.47203 17.5402 -12.6556 -1.15124 -3.12025 -2.7624
3805 1 -5.38746 16.8295 -17.7853 -1.81442 -1.51033 0.355188
3807 1 -7.60036 20.4654 -17.8015 -2.2524 -0.601851 -2.16994
3826 1 -1.40048 16.979 -15.8542 -1.34927 -1.33463 -1.59895
3828 1 -18.7767 17.4959 -19.6348 0.408791 -5.12556 1.83748
3831 1 -2.63355 22.3946 -0.967529 -4.65148 -1.66798 -0.495886
2053 1 -24.263 11.4804 -18.1541 0.381757 2.6436 1.22675
4194 1 -1.88788 42.0192 -5.02199 -2.71654 -0.194564 -3.48752
3901 1 -16.4171 13.4959 -12.5743 -0.594242 0.130865 -4.68649
3910 1 -6.6716 17.1081 -6.77742 -0.0130737 -3.69261 2.01529
4174 1 -2.21646 37.3157 -8.69709 2.16146 0.958728 2.50965
3940 1 -3.29643 22.79 -8.92804 -2.80906 5.11458 -3.00351
3956 1 -13.2572 12.0908 -4.1888 1.14584 -2.95159 -3.88606
3978 1 -1.27906 19.9599 -13.1338 -0.889919 0.465256 -0.992549
3984 1 -5.41358 14.4103 -19.4062 2.68143 -3.07217 -2.75033
4001 1 -10.3977 24.8321 -5.03725 0.888122 -1.7488 0.377241
4002 1 -9.54287 27.4175 -5.7772 -1.24564 0.457962 -0.326915
4003 1 -6.84365 27.869 -4.7136 -0.417216 1.93629 1.98007
4004 1 -5.74154 25.3983 -5.62866 1.20218 2.35078 0.746845
4005 1 -11.1438 25.0986 -9.56229 2.74336 2.23916 5.56761
4006 1 -10.3927 27.5267 -8.45727 1.53327 -1.96116 1.74875
4007 1 -7.53242 27.6152 -9.33046 -2.89505 1.98482 -1.11243
4008 1 -6.31197 25.4486 -8.18529 -1.60091 1.66555 2.80908
4013 1 -9.60446 25.475 -2.31829 -1.44108 4.25716 -5.34733
4014 1 -8.66088 27.4787 -0.752604 0.66089 1.6198 -1.06815
4015 1 -6.32237 27.8249 -1.92579 0.556224 4.90501 0.999177
4016 1 -4.20694 26.3417 -1.21919 5.36585 1.77626 -0.884831
4025 1 -10.2753 29.7179 -4.47272 3.55779 0.0171851 2.74483
4026 1 -9.50116 32.2901 -5.3182 -0.31582 -2.46955 -1.40454
4027 1 -6.82613 32.2751 -4.37457 1.03682 -0.228386 3.79977
4028 1 -5.91381 30.291 -5.9034 0.428378 -5.18213 0.509803
4029 1 -11.7549 30.1384 -8.84516 -2.49964 1.95268 2.31086
4030 1 -9.96565 32.3525 -8.09414 -1.33632 1.73028 -1.52472
4031 1 -7.45814 32.5269 -9.15695 -1.5972 -5.07384 -0.607462
4032 1 -6.27681 30.1128 -8.65998 -5.6203 1.75061 -0.358437
4037 1 -9.88183 29.8445 -1.69795 -6.19284 -0.618859 2.50008
4038 1 -9.12311 32.2734 -0.344345 1.84785 -1.8473 -5.80025
4039 1 -6.59116 32.2955 -1.68005 -3.38145 4.69158 0.191929
4040 1 -5.16114 30.0039 -0.88752 1.63897 -0.587254 2.91381
4049 1 -10.0325 34.8666 -4.00473 2.62303 -3.02335 0.278669
4050 1 -9.19172 37.459 -4.62662 5.77651 4.58638 -4.21287
4051 1 -6.52032 36.6697 -3.9051 5.02663 -0.00278866 -1.78851
4052 1 -5.41001 34.5729 -5.36225 -3.66688 0.210317 2.58451
4053 1 -11.3562 35.0927 -7.72617 6.64875 5.64719 -1.76722
4054 1 -9.72909 37.5158 -7.43984 -2.75397 6.52869 1.06079
4055 1 -7.14248 37.2655 -8.5472 -2.34686 -1.24472 0.176864
4056 1 -5.99042 34.8705 -8.29353 -2.11406 4.69703 -5.89303
4061 1 -10.1896 34.7035 -1.25327 2.86549 -0.658447 0.736141
3228 1 -11.77 11.7108 -10.1359 3.00551 1.28842 2.80875
4063 1 -6.47692 36.8921 -1.11292 -2.31768 3.26198 3.19815
4064 1 -5.38119 34.4876 -0.517437 -1.91279 0.980851 2.65453
4073 1 -10.7085 39.5579 -3.43022 -3.43125 -6.78615 1.28815
4074 1 -9.72582 41.9172 -4.5139 1.40022 -2.49505 0.614023
4075 1 -7.00378 41.8429 -3.89611 0.509624 0.258864 -0.101434
4076 1 -5.77248 39.1837 -4.9902 4.05029 1.85471 0.000774762
4077 1 -11.3565 39.621 -8.38252 -1.55127 -1.96532 -1.95977
4078 1 -10.0888 41.9162 -7.35987 -2.42482 2.09589 0.606764
4079 1 -7.43157 41.6088 -8.05522 -1.05154 -0.936071 5.6945
4080 1 -5.66957 39.4916 -7.75473 -5.45186 -2.32438 1.71281
4085 1 -10.1796 39.5446 -0.813424 2.72803 -0.72884 1.08987
3064 1 -3.03761 11.9006 -19.7758 4.14074 -4.46914 -3.83966
4087 1 -6.38374 41.8629 -1.06467 -2.97329 1.97962 -6.16022
4088 1 -5.39288 39.4264 -0.472395 4.27738 -0.687152 3.01814
4097 1 -9.91212 44.7313 -3.96775 6.3108 -0.786883 -2.47795
4098 1 -10.3127 46.2317 -6.35992 3.63837 -0.739455 4.42772
4099 1 -7.40873 46.2374 -4.1286 -5.04873 -2.47961 0.668647
4100 1 -5.72889 44.2033 -5.28277 1.53484 4.38131 -1.94762
4101 1 -10.2672 44.4555 -8.57138 1.82301 0.417739 1.8401
4102 1 -7.78861 45.2927 -9.73892 2.77775 -0.127406 3.5892
2545 1 -12.2823 11.6959 -20.3759 -0.421521 2.08288 0.354288
4104 1 -6.07158 43.9919 -7.96969 3.21475 -0.955407 -1.04146
4109 1 -9.83264 44.5117 -0.969852 -2.33031 1.18524 1.2309
3151 1 -10.5966 47.3806 -14.9663 -1.04685 1.83266 4.61575
4111 1 -6.77801 46.5284 -1.19995 -8.53244 0.965685 1.93921
3080 1 -20.8017 11.5896 -6.36366 -0.464244 -1.67874 -0.556884
4121 1 -2.92941 25.766 -5.02545 -0.503668 3.40381 -4.8712
4122 1 -2.04029 28.0156 -6.31398 -1.56793 -4.97829 -0.134806
4125 1 -4.02043 25.464 -9.6926 0.815696 -1.12443 -0.206178
4126 1 -2.3222 27.6631 -9.04331 -1.92217 -0.781743 2.96384
4133 1 -1.91392 24.9118 -2.3792 0.0115317 4.37826 -0.167818
4134 1 -1.85801 27.8288 -1.55817 -5.31382 3.00757 -1.82672
4145 1 -3.25036 30.1972 -4.78372 3.32483 -0.160605 -3.03591
4146 1 -1.72199 32.2324 -5.69277 0.804716 -0.864782 0.359901
4149 1 -3.58637 30.223 -9.36989 0.53264 -2.67878 0.500108
4150 1 -1.97642 32.3922 -8.54146 -0.0001215 -0.824197 1.76507
4157 1 -2.77315 30.2468 -2.10788 -1.85444 -1.01327 -0.739196
4158 1 -1.39369 32.7752 -1.13053 3.57859 3.52986 3.03157
4169 1 -2.87254 34.7585 -4.63047 -2.95587 -0.999207 -4.05437
2634 1 -4.8161 11.1863 -22.8284 1.84422 -0.782375 6.04437
63 1 -0.820521 11.4204 -16.1389 -0.0620583 -1.57096 1.71253
3041 1 -22.1892 20.1085 -0.607665 -3.64637 0.913536 -3.65254
322 1 -12.5095 12.8975 -0.855932 0.903958 1.13973 2.39889
68 1 -1.02306 14.3079 -20.3414 -1.44004 0.878709 -0.528298
2701 1 -21.7779 22.9485 0.0881118 1.3266 -2.58734 0.774643
587 1 -19.5511 46.828 -9.70124 -0.427916 -2.84792 -0.117854
3124 1 -13.3739 11.6057 -7.05928 -1.86639 -1.46539 -1.69486
2580 1 -23.6101 12.7693 -20.5213 -0.00083343 -0.839383 -2.35816
1880 1 -1.22331 24.1116 -20.3433 3.7788 -6.22932 -4.19628
2172 1 -0.79238 20.5353 -4.36269 -1.50558 1.84683 -2.28986
1314 1 -16.1047 11.3448 -17.7818 0.424451 2.26065 -3.67217
1516 1 -9.34178 22.7366 -24.1151 3.14426 -0.701552 -2.44248
1054 1 -15.2603 21.5915 -0.245439 0.0527182 1.0957 -2.22218
2 1 -7.13134 14.2724 1.73482 -0.247833 -0.538403 1.34387
19 1 -14.58 22.1643 19.4189 5.60467 3.94319 3.54877
26 1 -1.53025 14.222 9.99924 -1.42315 1.54 6.33837
53 1 -2.35516 21.6199 7.86664 0.940118 0.619246 0.613928
69 1 -8.40085 13.1459 8.89239 -6.4496 -0.446067 -0.266478
98 1 -3.99449 14.7266 11.6164 -2.50875 0.521604 2.7342
148 1 -18.5622 12.8296 12.1175 5.01271 2.68192 -1.07615
180 1 -24.1787 19.6804 9.51791 2.87486 -0.384383 2.2051
196 1 -16.4087 21.8076 5.49567 0.927649 0.713385 2.30658
3815 1 -0.505563 18.9279 21.6299 -0.987428 -4.41324 -0.0723745
219 1 -5.9182 22.8819 21.111 0.535544 -0.203867 -0.572794
230 1 -8.09964 12.9178 19.7297 -2.44629 1.31019 -2.71799
233 1 -13.1055 16.1777 11.8752 2.04243 1.16611 3.13912
234 1 -6.25404 18.8934 7.3935 3.37241 5.05484 -1.20014
237 1 -17.7508 21.2901 1.68624 -3.57726 -2.94283 1.98552
239 1 -19.6178 19.0754 17.7661 1.55777 -6.05081 2.0418
285 1 -15.721 18.4136 14.8841 3.55578 2.79621 -0.34953
337 1 -19.3883 19.1564 0.711909 0.711734 -0.0576231 -0.268766
350 1 -23.0415 17.3204 22.166 1.93777 -3.4507 8.13869
372 1 -8.53514 21.9562 7.43898 -0.453036 -2.53194 -3.3283
3928 1 -17.8399 15.6231 23.8227 -7.86465 -1.70086 -4.56869
2426 1 -0.96818 17.0362 19.4099 6.01293 -3.59571 7.15153
425 1 -20.293 13.3491 17.8039 -0.302275 0.304552 -0.591123
453 1 -17.1402 13.7295 8.32419 4.22535 0.631905 0.419937
456 1 -4.12891 14.4688 22.012 -2.25465 0.0643957 0.799383
514 1 -14.2532 19.2422 19.2892 1.66691 -3.76495 -1.29548
1167 1 -0.968433 14.76 17.5831 3.76367 3.71527 2.50381
577 1 -7.66445 22.6571 0.245741 -0.703356 1.30772 1.28295
583 1 -21.7711 22.1253 11.8169 1.98232 -2.5898 4.29448
1917 1 -23.0252 23.5258 18.2495 -0.178193 -2.71082 -2.08309
588 1 -19.0371 21.2531 6.20927 -3.87202 4.06576 -0.780928
590 1 -5.19997 18.0909 21.0354 0.336923 0.630332 5.5164
600 1 -20.8696 24.3713 16.7242 -1.62829 3.14603 -2.5685
630 1 -23.0753 22.2915 9.42949 2.50526 1.73377 0.562274
641 1 -13.9902 18.03 4.79033 3.6657 0.21866 4.2068
668 1 -9.20987 12.3854 17.0083 2.10661 0.983664 -3.04836
693 1 -8.35207 22.6994 3.03465 0.910453 4.08138 0.589032
729 1 -13.9839 14.3791 15.9424 2.06091 1.65807 2.75028
734 1 -18.7832 23.7499 20.1362 -2.49581 0.158898 2.60508
2980 1 -2.6527 12.543 0.308108 -0.945379 -2.322 -2.77471
754 1 -14.3668 22.5454 14.6032 3.79075 0.779713 -2.61939
785 1 -2.11021 20.8675 20.211 3.18701 -5.79049 -6.98979
786 1 -21.7274 20.0093 21.926 -5.78518 -2.52711 -0.360694
791 1 -3.43268 22.8271 13.6838 1.15348 -0.290768 -3.13279
2871 1 -15.2631 19.6599 23.8679 0.345755 -0.605556 0.571137
886 1 -3.96097 24.7493 3.73916 0.757945 0.223298 0.090006
2209 1 -23.0661 24.1313 21.314 -1.40565 -1.24848 3.71337
913 1 -5.36793 21.8489 15.4172 2.85908 -1.81026 0.193643
914 1 -23.7138 15.948 10.2585 -5.89917 -0.868395 -0.429599
919 1 -10.21 16.4473 11.004 3.31978 1.12352 -1.03517
924 1 -6.876 16.068 6.17584 -2.58536 -3.09274 -1.99993
932 1 -19.2391 15.3895 14.7003 1.232 -0.0261427 3.10308
941 1 -21.2885 22.9578 7.55419 0.557155 -0.838834 1.25083
947 1 -10.1986 16.2762 18.6421 -2.51385 2.40071 -1.11911
949 1 -2.53317 13.4758 19.8503 -1.85391 -2.2446 -4.2922
961 1 -5.50407 11.6634 0.920082 -0.63476 -0.863229 -2.81821
965 1 -14.3186 13.1152 7.33068 1.06088 5.72781 -4.10041
985 1 -17.8078 17.4762 11.8133 0.845203 0.00817214 -3.19699
1005 1 -14.7153 16.1172 1.33269 5.67313 0.350921 -2.31352
1055 1 -8.42184 16.3951 14.9033 0.119737 -1.08656 -3.37889
1056 1 -8.39829 18.582 5.28422 1.02547 -5.07516 2.97999
2811 1 -14.5442 11.3965 4.08653 4.69916 -4.53977 -0.764155
395 1 -9.559 47.0197 20.2152 4.02209 -0.93404 6.0714
1088 1 -22.5517 22.9842 5.09863 1.69051 -2.90592 -1.72025
1110 1 -9.80212 24.1141 8.58872 -0.63381 2.01425 -5.1445
1113 1 -19.2484 18.8261 22.5483 -3.29123 1.46666 -0.0309338
1117 1 -5.46304 13.4588 8.84784 0.160056 1.95835 4.02466
1150 1 -12.8139 14.4457 9.46609 1.40902 1.83402 1.55404
1152 1 -13.9465 13.8354 19.0334 3.31919 -5.54882 -0.611873
1166 1 -15.4201 23.802 17.0694 3.18618 2.99027 -3.37137
4162 1 -0.529733 31.9218 8.9634 0.0619835 -0.189005 -1.78155
1175 1 -10.4597 12.0598 21.3835 4.56196 -0.508151 -1.76458
1197 1 -19.8648 16.0664 21.7552 -2.18047 -4.80198 4.13986
1204 1 -3.12165 22.2908 1.96168 -4.90038 3.78524 -4.74142
1220 1 -21.3874 22.2395 14.7611 2.14793 -1.60881 2.89109
2864 1 -15.0312 11.575 15.9833 -3.7069 6.27598 2.18376
1237 1 -19.1402 20.5311 15.3665 2.38444 4.99076 -0.424796
1270 1 -23.5528 15.4076 12.985 -0.600486 1.41935 2.4352
1285 1 -12.2857 20.9095 15.555 -0.199699 -4.23041 -2.13706
1291 1 -18.9674 15.4337 0.0668682 -4.30105 -0.319621 0.338239
1325 1 -4.48827 14.3206 6.43033 -1.66906 2.62535 -2.17468
1340 1 -20.08 16.2576 10.4061 -2.41641 1.30659 -2.07802
1355 1 -8.78799 22.9051 18.0093 2.20811 2.51457 1.65973
1358 1 -10.1649 23.0681 21.8684 3.42463 3.42487 7.76345
1372 1 -11.8307 12.1969 4.22256 0.485092 1.07078 4.08829
1374 1 -18.0639 24.7834 17.5413 1.19286 -2.65805 2.14456
1377 1 -12.9108 21.1625 23.5743 -0.819248 -4.18486 -0.633122
1385 1 -16.3477 22.8436 12.4183 2.38997 -2.75654 2.13958
1391 1 -12.086 19.6057 21.2148 -0.310184 2.02379 -0.126857
1456 1 -16.8306 14.8572 11.0479 -1.97209 1.23866 -6.59565
1458 1 -20.7309 12.9852 7.51732 1.39684 -0.796094 -0.998926
1461 1 -13.6894 14.8743 22.7519 2.44561 3.96588 -0.01956
3711 1 -12.4957 11.4513 14.6796 -0.562673 -0.535839 1.27641
1500 1 -19.5431 18.0824 13.8361 -5.07257 0.253578 5.39456
570 1 -24.4489 12.5202 17.3721 -2.61942 -1.09255 -2.45259
1575 1 -17.9391 15.5549 4.3569 5.51617 1.11318 5.37175
1606 1 -21.7694 18.5878 6.73937 -0.347326 -0.32175 2.53725
1622 1 -16.4393 21.0267 15.6064 -5.54479 -3.12077 -3.72342
1642 1 -2.22164 22.7925 4.9239 -8.81065 -5.37453 -8.91061
1655 1 -2.05641 13.9331 13.6964 -1.36368 4.86638 5.0212
1656 1 -4.66077 12.7324 18.0621 6.25317 -2.22116 0.479708
1658 1 -17.4407 19.4968 8.0439 -1.96651 -3.14541 0.265014
1668 1 -9.96358 17.9695 7.76536 1.42442 -5.69926 -0.760018
1679 1 -10.0977 21.1546 19.718 1.44574 3.68977 0.00639648
1685 1 -21.9686 14.7965 23.3946 1.57925 0.651559 5.2822
1705 1 -1.76397 24.7651 18.322 6.17136 0.924855 1.62773
1708 1 -7.43559 22.5306 13.5962 -2.72928 -2.32497 2.15599
4142 1 -0.478667 27.7738 6.01335 -2.89286 -0.791627 -1.41833
1769 1 -22.5894 15.8582 15.8017 4.34998 2.63593 0.229909
1784 1 -9.45906 14.3839 13.1016 -0.60044 3.44467 -1.83837
4190 1 -0.964405 36.987 6.03167 2.61568 2.04403 -4.78748
1869 1 -1.54716 23.5581 15.5246 -1.42404 -0.325731 4.93421
1873 1 -10.0136 15.3741 8.59383 1.02849 -2.22005 -3.9532
1885 1 -7.76028 17.0791 22.0414 -0.854833 0.426999 1.24114
1898 1 -22.353 17.9849 13.4377 -3.52859 2.33754 -4.88888
1916 1 -5.52781 16.0944 3.58205 1.91388 1.01124 0.219839
3460 1 -1.29334 20.8508 15.8802 -2.07892 -3.56575 0.312695
3735 1 -7.51705 19.8397 0.457402 -1.77966 -5.53762 2.19894
1963 1 -1.3696 18.1986 1.22004 1.55761 -0.607232 1.05936
1968 1 -22.9729 12.2415 11.8156 3.40502 -0.412647 -1.70515
743 1 -24.5134 18.9238 1.75531 0.67781 -1.76393 -3.61321
2008 1 -9.87798 24.0293 13.257 -2.84527 -0.757696 5.4002
2013 1 -14.0458 22.4785 4.07127 5.5213 5.35218 3.77394
4234 1 -0.261294 46.0005 10.3607 1.79175 3.99344 2.37593
2046 1 -8.06939 14.8032 17.32 1.19457 -1.65268 -3.27166
4186 1 -0.95787 36.8299 8.76593 3.28667 1.61534 1.17082
2082 1 -7.19729 18.2403 2.86234 0.808623 5.74501 -0.971584
2119 1 -9.7613 17.3354 2.16015 2.71508 0.838312 2.26997
2157 1 -3.67527 16.2704 19.5983 2.32378 2.49223 0.124918
2158 1 -17.3149 13.2997 14.7088 4.22489 -2.66797 2.18656
2168 1 -20.0663 18.1216 3.1875 -2.34511 -5.96325 -2.12666
4233 1 -1.93934 43.5452 10.3259 0.185202 1.62865 0.0395063
4226 1 -1.03756 46.35 2.42325 7.8537 -0.60041 -3.23415
2231 1 -11.6328 22.0485 9.28839 4.48961 3.19545 -2.99918
2264 1 -3.8291 18.4524 4.37263 0.854391 -3.9346 -2.25486
2270 1 -5.26105 20.2801 2.44532 -1.32285 -2.75838 1.61657
4209 1 -1.86647 39.1516 9.98436 -6.01043 0.548313 -2.5325
2282 1 -6.09911 23.0405 6.91242 -0.657235 -0.759247 -2.54166
2285 1 -22.3039 16.8581 1.99567 3.59301 -6.07286 -1.95019
2305 1 -14.9115 18.374 12.0941 2.1398 -2.59432 5.94181
2307 1 -15.2169 12.6922 22.7591 -0.0456404 -2.52997 2.52542
2315 1 -11.0002 13.7504 15.1536 -0.670198 -1.60093 -2.33676
2321 1 -3.01178 25.0809 23.1357 -1.6372 3.35121 1.20772
2322 1 -4.33835 20.0155 18.7141 2.34158 2.21843 -0.35117
2334 1 -11.1148 17.506 13.6981 3.56514 -2.4498 -1.23435
2335 1 -3.40224 19.7438 22.6634 0.995839 -0.962939 0.868936
2349 1 -9.7249 21.9435 15.4463 2.38651 5.73049 -1.33464
2379 1 -22.9623 13.3243 9.23541 6.68112 -6.98161 5.42631
2413 1 -5.85179 22.6922 4.21869 1.0279 1.01988 1.63599
1492 1 -12.3077 11.4568 9.74918 -2.09869 -2.52238 0.0260863
4202 1 -1.33089 41.5609 2.00351 0.381259 1.0073 -2.71243
2435 1 -14.4855 22.8973 10.2733 3.76949 -2.37914 -4.76621
2439 1 -14.0145 18.6367 9.38976 5.66503 -3.14907 -0.997302
2441 1 -22.6497 14.1879 19.0416 1.08436 -3.9145 1.20364
2462 1 -12.2268 23.9991 2.09392 -2.14608 5.56037 3.50802
2488 1 -8.6039 18.5899 19.2908 6.12228 0.65605 0.780812
2490 1 -12.2391 21.9969 18.0069 6.69152 2.41523 -0.984209
2505 1 -10.6934 17.1337 21.8381 -0.342166 -2.26272 -1.89008
2519 1 -23.7337 20.6427 13.8304 -0.0598926 2.34736 1.5839
2528 1 -8.95297 11.7096 6.35889 1.28678 -3.51869 -3.25427
2581 1 -6.9799 14.4263 22.1252 0.00634723 -1.61849 -1.37373
2586 1 -14.8069 14.0649 13.118 1.10208 2.12551 -3.34192
2620 1 -9.21164 14.6048 5.69089 -1.51235 2.96195 -1.67838
2660 1 -12.2852 22.7234 12.083 -1.25657 -0.10676 -0.319649
2664 1 -15.5164 17.1184 22.8557 2.99374 -2.6795 -0.39327
4189 1 -2.30405 34.5819 5.55326 -1.47309 1.3143 -0.590032
2710 1 -5.07288 15.3626 16.9462 1.2338 -2.29417 0.693533
2723 1 -5.97078 15.2922 13.9374 -1.6403 -3.22748 -3.33802
2742 1 -15.6429 13.8674 5.01374 -2.53497 -7.17156 -2.85291
2745 1 -11.6201 20.9641 2.60456 -3.26366 -2.95981 1.9648
2769 1 -16.3724 15.7672 15.8597 1.9972 4.29957 -2.91811
2777 1 -13.8787 15.5344 3.84708 -0.598118 3.96331 0.249007
2778 1 -21.9054 16.8685 19.589 -2.30383 -3.92223 1.52692
2788 1 -20.7842 14.2908 12.3722 1.93863 -2.55994 2.46136
2809 1 -11.9354 16.5044 16.1923 3.60169 -4.15256 3.34308
4086 1 -8.92891 41.9665 -0.174596 1.14994 3.00829 -5.12154
2820 1 -15.1869 21.0832 8.07428 2.07996 -3.1102 -3.05491
2851 1 -6.02655 22.3304 18.1008 -1.86546 -3.28165 1.47436
2853 1 -3.17363 23.6785 20.6401 -7.76293 -1.58831 3.39428
3028 1 -15.1388 11.6169 20.1382 3.46651 6.10656 2.61181
4166 1 -0.827872 32.2205 6.1557 0.620839 0.0426291 -0.568168
4178 1 -1.1563 36.9929 1.90693 -0.425245 -0.0973747 4.39535
2895 1 -18.2423 19.1662 20.0494 0.193496 0.783608 -4.11458
2905 1 -17.2343 21.6615 20.7884 0.269111 0.357164 1.87251
2921 1 -18.2342 20.157 10.8381 2.56497 0.425548 -1.09156
2939 1 -11.321 18.5087 4.1291 1.70625 -1.84856 3.98679
2942 1 -22.6608 12.6211 21.629 4.49817 -1.7839 3.53044
2950 1 -20.4842 16.4402 5.50402 1.73733 4.04652 1.68018
2971 1 -2.48891 19.6559 10.0555 0.532358 0.253061 -0.770156
2973 1 -11.7836 14.5953 20.6031 1.25591 -0.539046 5.68176
1068 1 -3.5758 19.6916 0.196451 0.834406 2.76646 2.74274
3000 1 -2.33391 12.2112 16.1719 0.793204 1.22534 2.5479
3002 1 -20.1962 16.1709 17.3262 -0.993081 0.829756 -2.74246
4225 1 -2.39026 44.0575 2.89124 -2.92822 0.233836 -2.92893
2787 1 -15.3084 13.619 0.0400053 -0.264615 -1.45277 -6.13914
4185 1 -1.77915 34.3145 9.65192 -2.26735 4.11752 -4.54696
3042 1 -8.87396 19.3575 14.377 1.00701 -3.06552 1.80461
3056 1 -24.0734 13.0402 14.5476 0.910414 -0.140792 0.372373
3076 1 -11.2273 19.2904 10.2839 1.75387 3.87406 -2.67979
3122 1 -13.1341 23.4834 21.6588 -6.54819 -1.16895 1.83479
3131 1 -10.4003 12.9663 1.34558 2.30061 1.47314 3.13458
3144 1 -1.98398 15.39 1.55827 -2.32159 2.88184 0.634906
3150 1 -22.2391 13.9125 2.93429 3.9723 -1.81555 1.69255
4201 1 -2.53619 39.1409 3.08676 -3.09699 -0.725098 -0.773277
3186 1 -4.47109 20.7746 6.12056 0.602452 1.57279 2.70186
203 1 -24.4123 18.3413 6.93381 3.57361 1.15217 -2.57883
3211 1 -2.46882 17.3053 12.0943 2.71485 -1.74398 5.04575
3214 1 -2.65865 16.1279 15.8308 -1.93124 3.50298 3.06156
3232 1 -23.3252 15.4559 5.14708 -1.09217 -6.95205 3.24096
3233 1 -2.47133 15.8331 7.55392 -0.859219 -1.0504 -5.1669
3245 1 -8.23417 19.8362 9.20193 0.287548 -2.78033 0.769434
3286 1 -16.4084 19.3329 3.80159 1.24433 1.84776 0.514143
3290 1 -13.5208 18.8142 16.5944 0.727714 0.546646 1.89114
3292 1 -22.7182 21.2805 2.0434 -0.619392 -0.674526 -0.353592
3527 1 -1.33833 11.6854 6.22831 -2.20802 8.69182 -0.386673
3297 1 -17.6803 20.8933 23.3415 0.578145 9.61965 -0.176318
3323 1 -4.57173 17.6038 14.2008 -1.92371 -3.85843 1.22089
3325 1 -11.2355 14.8539 3.4878 -2.73171 -1.8326 0.929333
3334 1 -23.454 20.997 16.6947 -2.47485 -1.21609 4.66272
3356 1 -9.81864 21.0446 4.96225 5.10554 1.27729 -0.997473
3358 1 -2.7927 19.878 13.5525 -4.65158 1.08886 2.01661
3359 1 -4.58447 20.963 11.5401 -4.21696 1.69924 0.504446
3361 1 -4.58757 22.6722 9.24922 -4.96738 2.59581 -2.421
3382 1 -21.1544 13.2701 15.101 -1.182 -2.63562 3.27825
3428 1 -4.18044 11.5188 14.0075 -0.778723 1.76441 1.42216
3444 1 -19.1549 13.1652 2.44177 1.50414 0.942302 -6.61567
3454 1 -21.9954 18.238 10.5022 0.914395 3.72252 5.94777
3455 1 -18.6249 14.2654 19.9377 2.08525 -0.52451 2.15113
3459 1 -2.28496 18.4809 17.1655 4.44031 2.44971 0.144251
4213 1 -2.45624 39.5011 5.76445 -2.90854 1.76526 0.534495
3498 1 -18.276 12.8885 5.68311 -1.23285 0.935707 2.37297
3517 1 -5.98277 17.7296 18.1266 2.02229 4.7223 5.61814
4237 1 -2.19268 43.7278 6.01314 1.41807 3.06746 0.60785
1932 1 -1.21211 17.7376 5.61642 -2.31207 2.00068 -1.18244
362 1 -20.7826 11.5686 4.36695 -0.421873 5.2333 -2.02465
3550 1 -15.2466 16.1382 8.45587 0.558158 3.96333 -2.20427
3561 1 -21.2321 20.4298 4.54917 -0.677679 -2.99126 2.69593
3583 1 -16.5848 17.4603 6.28318 2.99428 4.47059 0.986284
3597 1 -3.986 11.8808 4.86419 1.56687 -1.19072 1.32795
3621 1 -9.64354 12.1373 11.0044 3.16437 1.89423 3.23236
3627 1 -4.10183 18.057 8.62998 -4.40769 -2.84535 1.56199
2056 1 -5.58409 24.2685 23.4619 0.560313 1.76966 -1.72907
3654 1 -19.0199 21.8999 12.8083 1.61005 -0.268686 -2.27826
3677 1 -7.00053 12.8149 13.6518 -1.09519 -4.08737 -3.14627
3709 1 -19.3565 15.4336 8.00633 -2.03742 -1.65395 1.32619
4238 1 -0.710345 46.0095 7.42262 1.91871 6.37995 -1.83611
4214 1 -0.676977 41.5265 6.57089 -1.48624 4.2928 4.54493
3744 1 -17.4544 17.1667 1.86242 -4.27075 -1.00963 -0.44978
3766 1 -12.3561 19.8314 12.9104 1.30676 -0.514717 -2.03763
3771 1 -16.0745 17.5107 20.1425 -0.796492 4.34814 2.83654
3774 1 -8.28012 12.72 3.74505 0.649006 -4.26183 -0.882907
3793 1 -14.3253 20.1176 2.10387 -0.331611 -1.06159 -2.76359
228 1 -10.45 19.3734 0.408199 1.43053 1.39038 -2.38537
3846 1 -21.1072 22.0998 20.1246 -0.891028 3.05643 0.130893
3852 1 -6.40179 19.1947 15.8004 0.523332 0.594104 -7.27719
3889 1 -16.3667 15.3154 18.5937 2.4924 3.33124 -0.515427
3892 1 -12.592 21.8093 6.47326 3.18731 -3.89261 -1.57126
789 1 -13.1463 18.1913 0.245654 -1.37048 -3.41979 0.436223
3946 1 -5.83379 16.1978 10.0173 -6.24493 -0.429407 2.06437
3955 1 -7.36615 20.2058 11.8921 0.119099 -1.38964 -3.88896
3966 1 -20.3501 20.0682 8.8174 1.79539 0.177634 -4.21942
3970 1 -6.41732 20.5514 22.8242 -0.4353 -1.25797 3.28404
3976 1 -4.25451 13.7131 2.75493 -0.338872 -5.32072 1.51701
3985 1 -12.3643 18.9916 6.97918 1.11143 -3.88696 -0.132421
3988 1 -22.1243 19.7299 19.0348 2.98823 -1.15927 6.13292
3999 1 -7.46675 17.2947 11.9747 -3.1045 4.5524 6.53995
4009 1 -10.0134 24.902 3.46009 -2.54006 -1.48437 -1.18274
4010 1 -8.90132 27.2665 2.03075 -0.451237 -1.79501 -3.06065
4011 1 -6.28006 27.4034 3.02216 3.31224 -3.25903 -0.0872068
4012 1 -4.15318 26.4266 1.51271 -2.47928 -3.0074 1.51977
4017 1 -8.97058 25.2719 10.8889 5.45846 1.93545 -6.88058
4018 1 -8.09146 27.6105 10.068 0.917756 1.34534 1.30247
4019 1 -5.34074 27.4294 10.2905 -5.36966 -0.313208 -2.10118
4020 1 -3.85375 25.3205 9.53703 0.198567 -2.0366 1.45646
4021 1 -10.0868 25.7958 6.1943 -3.00771 2.33231 -4.15175
4022 1 -8.68188 27.7383 7.19184 -1.33522 -1.07345 -1.8638
4023 1 -6.26671 27.7757 5.73108 0.229254 -2.20882 2.70548
4024 1 -4.65428 25.5135 6.4501 -3.93092 -0.452813 -3.03867
4033 1 -10.0922 29.5095 3.26565 1.02759 -4.64969 -2.00362
4034 1 -9.19715 32.1407 2.47636 -0.604584 2.57518 0.421639
4035 1 -6.46565 32.361 2.79455 3.13212 2.23369 -3.66776
4036 1 -5.11138 29.9404 1.89923 3.40217 3.76808 0.300857
4041 1 -9.3635 30.01 10.6702 1.66956 -2.9969 -2.34446
4042 1 -8.32882 32.4003 10.0867 0.791449 -1.15671 3.72262
4043 1 -5.56846 31.9704 10.5622 -4.17924 0.197436 -0.896235
4044 1 -4.49432 29.8874 9.18654 4.90124 -2.41282 1.77404
4045 1 -10.0571 30.2872 5.89553 0.472054 0.527038 1.05068
4046 1 -8.44669 32.2216 7.26894 3.34976 3.43706 1.04528
4047 1 -5.92565 32.2188 5.69114 -2.49726 -2.96237 1.0882
4048 1 -4.80242 29.7414 6.50396 1.91689 1.20283 4.27848
4057 1 -9.83342 34.4314 3.81455 2.37468 -0.571226 -0.399284
4058 1 -9.30053 37.0897 2.59719 1.48141 -3.01077 -1.33599
4059 1 -6.48655 37.1972 3.23315 2.90952 1.1885 1.44406
4060 1 -5.08782 34.8932 2.20261 -3.34932 -2.19584 0.899052
4065 1 -9.57264 34.8139 11.1095 0.847701 -1.33161 0.40352
4066 1 -8.33329 36.9258 9.95166 1.40273 -1.98789 1.35863
4067 1 -5.50453 36.815 10.2243 1.02565 0.791594 1.60041
4068 1 -4.57006 34.2928 9.46933 0.0476386 -0.58848 -6.26493
4069 1 -9.35642 34.6891 6.46209 -0.69254 -1.16654 2.38734
4070 1 -8.97284 37.2852 7.16005 -2.67485 -2.75038 -1.29519
4071 1 -6.36287 37.1388 6.11534 2.93538 -0.18405 -2.27532
4072 1 -4.82535 34.8362 6.5592 6.16856 3.60158 0.554708
4081 1 -10.9568 39.3445 3.4506 2.74489 0.451515 1.89514
4082 1 -9.50794 41.5783 2.5418 6.15445 1.06637 -2.08441
4083 1 -6.76636 41.949 3.08482 0.200793 0.651794 3.50469
4084 1 -5.31143 39.4955 2.19642 8.30662 -4.84184 -4.22403
4089 1 -9.30999 39.222 11.2242 -3.56402 0.543279 2.36576
4090 1 -8.79758 41.6437 10.1944 0.846082 1.46662 -4.28908
4091 1 -6.22439 41.6999 10.8769 -1.03682 3.1529 3.87983
4092 1 -4.60666 39.552 9.60179 2.49774 1.25177 -0.744437
4093 1 -10.4344 39.2622 6.40597 2.59438 2.13902 -1.56371
4094 1 -9.0899 41.726 7.32534 -0.84052 0.774915 -0.690855
4095 1 -6.58271 41.9479 5.83419 1.75919 -5.11696 0.0706117
4096 1 -5.17955 39.6237 6.70268 -3.06232 -3.98957 -0.560825
4105 1 -10.5491 43.814 3.86606 3.88974 -2.5432 -1.54667
4106 1 -9.22459 46.296 3.13365 5.99782 3.86578 2.64295
4107 1 -6.4037 46.2516 3.44127 -1.31097 -2.86042 -2.55018
4108 1 -5.11191 44.0456 2.24045 -1.35692 2.64324 1.87775
4113 1 -9.58176 44.2658 10.8753 0.790255 1.66396 -0.348602
1518 1 -1.22138 12.8409 23.7668 0.171691 0.926334 -2.37958
4115 1 -5.19714 46.1844 10.9375 1.82687 1.56733 3.17524
4116 1 -4.56163 43.5883 9.65083 0.673421 -5.56508 -1.57525
4117 1 -10.2704 44.1083 6.672 -4.84365 -2.64303 -1.24978
4118 1 -8.97398 46.386 7.43527 2.45195 -1.60563 2.41975
4119 1 -6.108 46.0977 6.48802 5.89178 1.34543 -0.512327
4120 1 -4.77382 43.8085 6.96627 -0.405649 1.52956 0.232453
4129 1 -1.17813 26.1658 3.76652 -1.89883 -5.8095 0.353935
4130 1 -1.58359 27.541 1.23813 -1.17543 -2.23112 2.22311
4137 1 -0.983639 24.7738 9.22308 0.459511 1.20839 -0.540286
4110 1 -9.08643 46.7367 0.322903 0.683805 -0.769829 1.75001
4141 1 -1.6315 25.2003 6.33288 3.37416 2.03674 1.92661
2021 1 -4.28622 11.7187 10.9779 -1.39279 0.517838 2.40893
4153 1 -2.30769 29.9364 2.67804 1.29048 3.51319 -1.29294
4154 1 -1.34601 32.2566 1.51845 1.20379 3.03879 2.36202
4161 1 -1.72191 29.5797 10.0625 3.74084 0.971376 -0.17811
413 1 -24.5995 24.0845 0.460482 -5.19854 -3.69312 -2.47018
4165 1 -2.03882 29.9006 5.50237 2.0022 -0.318794 -3.74982
997 1 -22.483 22.2868 23.3979 -5.14793 -0.493441 -4.73491
4177 1 -2.31478 34.6022 2.72842 -0.774715 4.50232 -0.513528
4114 1 -8.16965 46.6985 10.2319 -1.97352 2.14619 0.720869
2768 1 -4.92611 23.7396 0.349557 -3.61887 5.46149 -2.3426
3637 1 -3.77209 11.8607 22.8647 4.48673 -3.54915 -1.20411
3530 1 -11.7111 11.5595 7.07097 5.64788 1.54461 3.42132
371 1 -11.7953 47.0067 18.0546 3.43888 2.974 2.96552
992 1 -23.4546 11.1342 3.05076 1.87272 -5.43538 3.25393
4210 1 -0.449933 41.4462 9.31493 0.401917 2.12569 0.725403
216 1 -18.5592 47.4244 7.80942 0.94339 0.484775 -1.18959
3193 1 -19.0344 23.3018 0.0935928 2.45472 5.86144 -1.94521
3672 1 -13.8104 11.3539 12.2203 1.35908 2.18968 -0.0562781
3880 1 -8.02176 18.7279 24.3415 1.19183 -1.47045 4.41195
165 1 -18.867 11.308 16.0939 -7.24462 0.57896 -2.65245
2475 1 -18.002 11.284 9.6133 6.08471 -1.3902 -0.88357
3307 1 -18.0413 11.5625 20.5367 3.41362 3.86569 2.10241
902 1 -9.14609 15.5644 0.14789 0.851443 -5.00794 1.46861
1226 1 -21.1677 13.6862 0.173291 1.4742 -3.39568 6.13396
4 1 1.84023 -1.36167 -7.24588 7.9561 2.5198 -1.21969
12 1 20.5117 -6.26077 -22.7319 -0.999421 -1.87063 3.61924
14 1 9.81534 2.54832 -8.14803 0.219708 -4.72381 -0.266658
30 1 21.9566 -1.40697 -22.5812 2.90005 4.21358 0.255263
31 1 5.15026 -15.0014 -19.5342 0.351916 4.55359 -3.28803
33 1 1.61009 2.48314 -12.8928 1.79866 5.47514 0.789285
3 1 4.09253 -9.08743 -22.8988 -4.70958 -1.07822 8.29023
41 1 6.47046 -5.84814 -11.178 -3.87962 0.729901 -3.36141
48 1 6.37065 5.44422 -8.10488 -4.35311 2.68824 1.81919
52 1 14.7474 2.422 -14.8313 -2.79835 5.28461 0.127945
58 1 3.66988 -20.7695 -4.25245 2.55361 -1.03362 1.94663
2080 1 22.0501 -23.4818 -16.2231 1.80067 -2.98136 -4.84006
597 1 24.0142 -22.9276 -12.1169 -0.0882893 4.00499 4.88634
1611 1 4.84731 11.1376 -2.30199 -0.317363 -2.56107 1.4987
3564 1 19.4886 10.9106 -15.1735 -3.67245 0.0636201 -0.842633
94 1 22.3217 1.94343 -11.7666 8.43747 0.402978 3.76353
95 1 2.41715 -3.44707 -12.4621 3.08521 1.74806 0.882108
99 1 16.188 -22.2564 -5.91308 2.00998 -0.297565 0.0258505
101 1 1.0104 -19.0296 -10.3375 -4.49426 0.820391 6.65334
110 1 10.1098 -13.4997 -7.99391 1.11445 0.47629 5.54098
111 1 22.7997 -4.80476 -12.094 0.98898 0.446835 -2.49304
116 1 4.60542 -15.0176 -16.8069 0.676524 5.57097 3.2379
118 1 4.43072 -17.37 -9.81586 -2.84775 0.0715192 0.303639
1647 1 15.7468 11.0581 -18.7352 2.94989 3.03934 0.2266
124 1 22.0795 -19.6678 -15.1108 -2.8006 -1.86241 -1.22657
131 1 2.86358 -7.6886 -20.8654 -4.45425 -2.80537 -0.100495
134 1 18.2308 -8.23805 -22.9285 -0.308248 1.56015 0.897788
153 1 8.84095 -15.4088 -2.29557 0.308311 1.00846 4.04233
155 1 22.8129 -21.3382 -20.5591 0.0690265 6.03093 -4.62542
157 1 11.6612 -14.622 -14.463 -0.340016 2.02445 0.933811
161 1 17.4106 0.425108 -14.6666 -5.36702 1.6675 -0.359668
184 1 4.78619 -23.567 -21.4667 -3.60038 1.03822 0.121613
188 1 7.13524 -23.1221 -3.50114 -1.6389 -0.343293 0.00809746
191 1 3.28808 -4.3015 -22.541 -0.316892 0.742343 -0.826474
192 1 8.21249 6.42252 -4.32213 -6.59652 3.11082 -0.799125
195 1 7.48188 -0.0327744 -9.54132 -5.53648 -0.153489 5.96871
200 1 15.4414 6.95293 -17.1958 -4.49211 4.2729 4.68894
700 1 1.93412 6.62894 -23.303 1.59013 2.09418 -3.41517
214 1 16.9897 -5.53689 -20.4785 1.32399 -2.74065 3.08743
218 1 12.5344 3.88314 -4.58146 1.15862 1.67559 4.38664
225 1 3.2076 -13.6151 -6.82296 6.82653 -1.02056 7.25204
776 1 8.97036 -0.724692 -23.8344 2.596 -0.818768 1.1794
2569 1 23.8804 -18.6808 -12.9551 0.423447 0.779668 1.69966
254 1 6.8105 -12.4671 -9.14138 4.47368 -5.09332 2.91315
259 1 17.3263 -15.6939 -17.6027 -3.10987 -0.822122 -0.125102
260 1 14.0936 8.09029 -3.94723 -4.3874 -0.353875 2.14853
265 1 13.8067 -16.5686 -5.8113 4.45355 3.58244 2.55184
3322 1 13.6449 -11.4284 -23.9681 -2.04221 -0.573408 2.09785
276 1 21.5154 6.75831 -9.40379 -1.96344 1.43052 3.25402
277 1 11.1816 -13.0713 -19.5641 -1.29455 -2.58176 -0.418209
287 1 4.82054 -9.76969 -7.52807 1.41295 -1.89219 3.53211
297 1 20.5221 -8.10919 -7.68774 -3.39703 -0.212809 2.97132
298 1 14.5041 -20.1453 -19.9497 1.24931 5.87915 0.142394
299 1 6.47235 -23.3879 -12.6077 -0.112867 -6.09349 -4.24061
2536 1 23.3649 -19.1358 -24.1728 -4.2658 -2.72834 -0.14618
332 1 10.4859 0.122759 -9.53087 -0.336788 0.478081 -0.0677072
333 1 9.18229 -10.4235 -14.1371 4.3228 -1.20036 2.2615
334 1 4.96322 -21.8887 -2.02398 1.03957 -0.395049 -0.466999
344 1 9.14119 -16.0232 -12.0852 -2.76932 -1.51001 -2.50305
353 1 17.6083 -22.169 -15.338 -4.83176 0.150354 1.23746
369 1 14.4406 8.26368 -14.8677 1.06648 -1.44758 -1.26329
370 1 5.99143 -14.9937 -22.137 0.782588 -0.784303 -8.08646
378 1 17.5178 -14.7052 -4.04363 2.08727 2.36463 0.381123
386 1 17.7831 -2.93265 -21.4663 4.30708 2.77875 0.722468
401 1 21.6239 -17.0107 -5.3535 2.69935 -2.94619 -2.13071
405 1 6.13125 -23.4877 -6.31571 -0.106228 0.0203754 -0.902616
409 1 1.41643 2.47208 -7.32574 -1.44814 -2.24903 3.90505
460 1 6.16623 7.82766 -23.8527 -0.115288 -5.00645 0.968917
424 1 4.69728 -5.69629 -1.80825 -2.44699 -1.10953 2.1492
431 1 11.4454 -6.69773 -15.6605 3.82332 -6.24425 0.211287
441 1 18.2712 2.40133 -4.5176 3.66393 1.23076 -4.42439
445 1 17.917 -9.4319 -11.6143 -3.77626 2.2089 0.434249
446 1 22.4778 -13.6443 -7.02208 -0.212645 -3.36771 4.90667
449 1 14.4707 -4.34279 -1.85702 -3.93357 -1.33794 2.68826
2607 1 10.6924 1.7284 -23.9237 -1.25578 -1.98881 -0.556789
459 1 1.75161 7.009 -13.935 0.420337 -3.46279 -6.70534
2035 1 15.2359 -15.9765 -23.6687 0.711105 -2.59424 3.98176
461 1 2.69038 0.145254 -20.3042 4.62041 2.16959 -4.28414
471 1 22.226 -7.19656 -10.0245 0.669436 5.33656 0.715201
474 1 3.64863 -6.12083 -11.9645 1.92603 2.37907 4.93841
2004 1 0.15034 -23.05 -22.3034 0.957331 2.54629 1.91735
484 1 23.2851 -15.6914 -13.3632 -0.30905 4.3317 -1.46611
485 1 21.7163 -21.0416 -17.8982 1.56279 -0.166707 2.88529
486 1 15.6226 3.83617 -4.72203 -3.08372 3.44603 -0.295048
490 1 16.0628 -16.0153 -11.2871 -0.718069 0.845449 -0.183564
493 1 14.7183 -0.708335 -14.781 -3.74592 1.08741 1.17082
496 1 5.63552 6.80164 -14.1593 -0.167252 0.303918 2.62262
498 1 22.6606 0.887443 -24.2752 0.5181 3.86527 3.21179
503 1 8.6294 1.39816 -12.7148 2.38573 5.07481 1.84173
516 1 9.42065 -23.7768 -2.0633 -5.17723 2.27381 3.66606
534 1 19.3787 8.17602 -12.1872 4.50164 4.39664 -1.30176
557 1 11.3846 -24.693 -9.92547 -0.0593944 -3.23544 1.12088
1716 1 17.0603 -23.5402 -23.2969 -1.83392 0.0612781 -1.66056
543 1 21.4357 -17.1364 -15.6261 4.33869 0.620869 -5.17801
547 1 16.6168 -15.6965 -20.3957 2.98889 -0.767527 -0.116807
550 1 2.07177 -21.2576 -13.6311 4.29491 4.98898 4.58757
551 1 9.91064 4.52796 -18.0427 2.13735 0.312331 -7.36016
552 1 2.22132 -18.5276 -0.608094 -3.57396 -4.50205 1.32964
1227 1 -0.128895 -8.29827 -1.59482 -8.59351 -0.296294 -2.31276
917 1 22.6567 3.20854 -22.1573 2.38732 0.219125 0.174148
562 1 6.77765 7.74608 -21.128 0.704885 -1.48199 1.62623
574 1 13.9846 -21.2046 -4.46802 -0.0880177 1.54606 2.5114
579 1 3.62574 -19.3768 -11.5794 0.355687 -1.21395 3.26446
584 1 15.3869 4.3109 -7.50781 3.43896 -1.24826 -3.51008
1849 1 13.5865 -24.8779 -11.8604 -2.90117 0.264147 -5.47611
606 1 2.11807 -1.74533 -22.2745 1.94735 1.85605 2.32237
608 1 3.53204 9.20357 -10.25 -3.87888 -0.155971 -5.03862
613 1 11.7045 6.75579 -20.3581 0.623294 1.4185 0.818473
620 1 21.3201 -11.6897 -8.76729 0.701072 2.18376 0.562857
2074 1 2.00353 11.1308 -13.1777 -2.49106 -1.74904 -0.140362
2132 1 11.4205 -21.5615 -22.7781 -0.00290604 -2.98668 -0.34046
647 1 3.66211 3.10937 -4.03374 0.504513 0.111774 3.09239
648 1 20.5076 -16.0015 -22.998 -3.9977 0.0868069 3.69152
77 1 13.3805 -22.9019 -0.198556 0.877669 0.879238 -4.78788
670 1 0.798564 -14.5762 -0.646575 -1.86809 0.235331 2.62582
1467 1 23.8379 -16.258 -17.0691 3.89694 -0.533039 -0.357418
684 1 10.8238 -20.6296 -11.1539 5.88638 4.91178 0.166342
695 1 7.57963 -10.0727 -8.09809 2.45933 2.71903 1.11109
698 1 22.9283 -10.9098 -5.74494 0.0440581 -2.98999 -2.47156
266 1 22.9447 3.90342 -15.9374 -1.03723 -2.91917 1.80835
708 1 9.66076 -5.77426 -18.0203 -0.960743 0.181456 2.98193
714 1 19.8835 -5.39278 -12.178 0.648851 1.43201 1.78159
720 1 3.77609 -5.10815 -19.7804 0.513592 -1.76642 0.525791
722 1 9.03124 -24.7474 -12.4613 9.2577 -0.341111 1.93599
727 1 7.34923 -4.59461 -13.8082 -0.430396 1.29674 2.47119
730 1 14.6932 -18.6476 -17.4082 -2.18101 -3.07124 -0.894252
732 1 12.4532 -23.6444 -7.52399 0.262493 1.49617 4.00031
744 1 9.2756 -12.3094 -10.4032 -2.00132 0.637125 -0.445255
750 1 17.7557 -3.65747 -11.3818 -0.980726 1.2945 -3.56803
755 1 12.1562 8.91705 -22.309 5.2086 -1.35366 -2.0947
775 1 21.7988 -18.9679 -10.8766 0.831443 0.652567 1.83181
777 1 21.9158 -8.88454 -12.3536 4.78702 -3.1997 0.739841
778 1 2.47923 -17.4517 -16.745 -1.18007 -0.348523 1.97353
779 1 6.38895 2.62036 -9.47973 3.98682 -0.156499 -2.96037
782 1 19.284 -7.69915 -13.6542 0.969247 0.608262 -2.51733
803 1 18.8667 -9.87237 -8.9051 -2.31069 5.25548 0.423605
804 1 8.10749 -19.6539 -9.57739 0.301602 -3.98091 -2.66996
812 1 4.02761 -12.0397 -9.25881 -0.912792 -3.44181 1.22326
824 1 3.73056 -20.3961 -7.06339 -3.21814 1.23006 0.444974
831 1 3.54782 -14.4348 -23.5804 4.76346 1.18001 5.00767
835 1 2.21963 6.36717 -20.5422 1.04356 -0.696835 0.696334
844 1 17.0001 -18.446 -20.8727 2.3708 -2.15641 -1.51074
845 1 18.5002 8.34366 -3.36275 1.81149 0.997852 -4.81597
846 1 8.60758 8.09189 -12.4973 -5.01255 4.33022 -2.02578
849 1 21.4451 -13.6084 -10.9697 -4.07413 0.806713 -3.53569
1936 1 19.0789 -21.5731 -24.0973 -4.6183 3.11198 -3.43943
852 1 12.2193 -2.68365 -0.962848 -0.0994397 1.45262 8.91535
506 1 0.171634 -19.8349 -15.1065 0.383333 2.74328 -1.73157
860 1 13.077 -8.9509 -15.968 2.61722 -3.50808 0.997552
871 1 5.9675 10.3804 -18.0129 4.39206 3.05273 1.28717
876 1 13.1214 -14.6459 -7.79437 -4.61848 -5.90197 0.937419
879 1 14.9561 4.91362 -19.3437 -6.9803 1.98887 4.42181
884 1 17.5403 -17.6647 -15.2277 -1.5532 1.18026 0.1639
892 1 4.08614 -10.9406 -5.29214 -5.14663 -2.82508 1.38588
898 1 17.0092 -0.0013641 -23.4382 -0.543699 -0.968677 -0.441253
915 1 16.5112 -6.98729 -13.8749 -3.0304 0.56268 -0.188633
81 1 0.0829833 -9.93645 -14.6327 2.99303 -3.2599 -1.47541
921 1 9.59205 -9.8706 -20.4886 2.21825 -0.82997 -0.481253
931 1 17.2457 -1.29149 -7.80771 1.9238 2.01091 1.14003
935 1 23.1837 -11.3566 -2.42308 2.05698 3.20297 -2.85094
940 1 20.4549 1.42085 -9.44256 -2.2377 -1.2086 -3.05943
952 1 11.3106 -14.5637 -10.4507 0.186998 1.60401 0.0861258
954 1 15.214 8.4476 -10.617 1.95266 2.74687 -1.42688
964 1 12.8493 -16.0659 -21.9295 4.41763 3.63261 -0.529545
967 1 19.0463 -4.72808 -14.8418 2.95685 -0.183061 -1.25107
981 1 5.58708 -2.11726 -5.05092 -2.18441 0.674253 -4.78344
989 1 7.46741 1.60263 -6.94476 -2.14057 -1.19505 0.129021
995 1 8.96327 2.88173 -1.85418 -1.31425 2.23231 -1.59872
119 1 16.2565 10.5877 -8.97335 2.28417 0.79139 3.08656
1012 1 -0.455672 2.82757 -0.835808 -1.01692 -4.16017 -0.15167
3587 1 22.9817 -13.7624 -15.79 4.97074 -1.55589 -2.24834
1021 1 20.3878 -19.053 -3.78742 4.86578 -5.73681 1.59874
1025 1 4.73944 3.9629 -21.1913 -1.57421 -2.47004 -1.36122
1424 1 22.0342 11.0576 -8.33549 -3.56921 3.67666 1.7963
1040 1 9.16468 -3.08548 -21.8814 -3.04881 5.47144 4.17641
1043 1 15.5524 9.33727 -6.58541 -0.715443 0.779734 -4.47158
1053 1 4.75652 6.44461 -19.554 2.39126 -1.34603 0.0549253
1058 1 1.03035 -3.09439 -9.76272 -1.79045 1.6986 -2.59157
1059 1 4.41407 -23.1746 -14.3805 2.89082 -0.1995 -0.0481329
1061 1 7.54908 9.1598 -14.8653 -3.53214 4.3118 -4.65044
1066 1 13.5298 -3.74035 -23.0927 -2.01996 -1.72012 -1.04373
1072 1 13.4876 8.67079 -18.8114 -1.79542 4.63629 1.44182
3138 1 19.4853 -3.69589 -23.9994 -0.990167 -0.153423 -0.926149
834 1 0.934456 10.4633 -0.116994 4.321 1.33365 -3.3702
1077 1 16.2085 -8.42687 -8.4967 1.41535 -5.50377 -0.834857
1087 1 8.67735 -1.62177 -19.2775 -2.187 1.56571 -1.38587
1970 1 21.7766 -6.83143 -0.258391 4.2062 -2.37606 1.01441
1118 1 21.3778 -0.480729 -13.2367 4.77323 -1.76639 0.57832
1121 1 11.9835 -4.13393 -18.3614 -3.01876 -0.906503 1.82892
1123 1 14.9026 -6.15974 -4.01791 0.126828 -3.22552 2.05834
1131 1 18.2618 -7.3306 -4.27973 -2.12325 3.30279 6.61712
1140 1 14.5523 -8.16661 -18.3434 4.21707 -0.717029 0.610578
1143 1 1.02268 -6.91128 -13.0625 2.3839 -1.38993 0.963069
1144 1 16.1144 3.53758 -12.5824 -3.96449 1.28598 5.58055
1941 1 0.518548 -22.0675 -11.1003 4.88139 0.261362 -1.66358
1157 1 3.5738 4.01155 -10.1405 -1.85883 -3.034 -1.54041
2514 1 21.6604 10.258 -24.0848 -3.4507 -0.887998 -0.640029
1171 1 22.3284 -1.63411 -7.47488 1.59169 -3.55896 -3.67646
1177 1 10.5022 0.20547 -18.3422 -2.66658 -1.07821 -4.53238
1179 1 9.15065 -8.01374 -9.31595 -0.645204 1.48263 0.225973
1183 1 2.53882 -6.14186 -15.6628 -1.12769 2.42601 -1.47399
1190 1 14.8803 -2.87104 -20.7793 3.99959 -5.87895 -0.897141
1195 1 12.3264 -12.2624 -16.0343 3.06127 -1.34526 -0.0744113
1206 1 21.0602 -19.9741 -22.4984 2.68591 2.5449 0.720561
1207 1 16.0135 -5.07527 -15.9837 0.474389 1.00281 -3.57167
1212 1 19.7775 5.25578 -12.3707 -4.18233 -0.928753 3.29346
1214 1 11.1788 1.00631 -2.71309 3.56055 -1.79886 -1.34738
1215 1 4.987 11.2006 -8.73958 3.37564 0.428929 0.192518
1216 1 15.1793 -8.75633 -11.1352 4.3164 -2.12816 2.36647
1218 1 14.777 -3.54359 -10.928 0.324897 2.80675 2.50732
1376 1 5.55481 10.4087 -5.81476 1.20736 0.0811365 5.23188
1238 1 8.28353 -2.15207 -13.2264 4.42259 0.869798 -1.22654
1242 1 8.45536 -19.7736 -14.2915 -5.65734 -2.55262 1.88528
1256 1 4.53784 -19.7586 -19.0366 -0.959333 -1.92548 1.72338
1260 1 4.24861 -8.33755 -13.9916 1.50974 4.67273 4.83967
1261 1 13.0336 -10.648 -10.7344 -0.455052 -5.66328 0.274629
1262 1 11.2629 -14.4691 -3.83129 1.50596 -0.352936 -0.619865
1278 1 15.4571 -7.54222 -22.1418 2.64317 -4.21517 -5.65672
1280 1 1.23875 -2.98229 -4.98049 0.729895 2.7551 -1.50418
1282 1 11.1246 -20.386 -1.99367 1.74725 1.0453 2.13668
1283 1 5.32728 -20.6679 -9.54676 -0.845106 -7.64535 5.2215
1288 1 2.99754 -3.35695 -15.375 3.64354 -4.56128 0.323892
1289 1 23.7651 -10.4748 -10.7055 -0.088258 -0.26573 -3.76878
1294 1 14.2943 -12.0052 -6.48676 2.73302 0.874226 -2.83257
1295 1 13.0383 7.02779 -1.55231 0.0942871 -4.11458 -1.36055
1298 1 2.28738 -7.17584 -2.46027 0.125552 -2.51749 -2.1294
1300 1 2.64573 -1.50348 -2.97038 3.47237 2.14884 -2.31937
1304 1 2.18791 0.67899 -5.09987 0.364962 -3.08564 -0.913457
1309 1 0.0220509 -12.0611 -8.47687 -4.02605 -1.7611 2.43064
1316 1 18.4276 -9.39423 -16.0377 2.86149 6.87917 -5.71555
1320 1 19.9589 -5.58985 -9.25007 2.51686 1.22921 -0.10009
1321 1 9.24006 -22.0319 -5.45995 -2.70849 0.964528 1.17737
1322 1 1.37634 -15.0373 -4.64704 -6.18992 2.56204 -4.22472
1329 1 21.369 -13.188 -3.56207 0.411716 -3.64243 -2.33179
1334 1 11.9547 -8.95582 -8.33965 0.166953 4.07437 0.338457
1338 1 1.4185 5.03085 -0.302233 0.0200275 0.116312 3.07078
1342 1 1.60299 -23.4724 -15.3882 2.33513 0.427005 -0.859812
1346 1 16.8106 -2.47542 -15.5829 5.07808 2.70643 -4.74819
905 1 22.8105 -7.62449 -23.6521 -3.25609 4.4653 3.07957
1364 1 13.013 -13.295 -12.3768 -0.407407 0.214086 -3.85306
1365 1 7.83885 -5.92731 -22.1152 -3.17895 0.167724 3.15139
1369 1 22.9922 2.55264 -5.43217 4.35417 1.20902 -2.94933
3934 1 21.4339 3.38671 -13.9416 3.63433 2.37641 -2.90426
3916 1 21.5131 -11.8169 -23.9137 2.74801 -1.70911 1.27497
595 1 9.39861 -17.8047 -24.2395 3.76335 -1.07055 -0.485783
2799 1 -0.205444 -17.5681 -5.60259 2.45664 -1.93071 0.914624
1411 1 19.5694 1.44231 -23.8426 -4.9278 -3.59459 -0.0101143
1892 1 -0.0620066 -12.8451 -15.1293 0.832191 -1.82987 2.37017
672 1 22.5173 6.5986 -12.1284 4.01967 0.874799 3.08463
1427 1 19.0602 -13.3675 -1.58887 2.17542 1.56264 -6.23387
1446 1 3.48766 -8.21578 -9.8241 5.70617 1.93236 -4.3723
1447 1 22.3517 -5.30106 -19.2164 -5.49479 -2.17239 -0.688019
1454 1 7.96319 -11.8348 -0.389385 2.07377 -6.64517 0.100582
3661 1 22.3639 10.0508 -19.8826 -0.728163 -4.40735 2.1781
1473 1 15.0726 -19.257 -14.5774 -4.23679 -2.72349 -0.51982
1477 1 19.6929 -0.515388 -0.873012 -1.17537 1.89424 -0.325467
1483 1 10.6203 -22.8774 -19.0144 -0.539548 0.232606 -0.995617
1491 1 12.1209 7.91817 -5.96955 -2.49635 -0.413427 0.897227
1497 1 12.5252 -8.85665 -20.3122 3.15274 -0.526059 -0.518462
1505 1 18.4832 -22.7958 -20.6569 1.37952 -5.5695 5.21751
1508 1 20.0617 -10.69 -4.54935 3.36622 1.95635 0.767225
2948 1 1.06645 -21.256 -0.238955 2.45629 2.43212 0.942807
1520 1 11.0059 3.86764 -15.3218 3.40554 -3.96575 1.54512
1527 1 1.76205 0.426975 -9.58528 1.48862 -3.29737 -5.28879
1532 1 19.796 -4.98453 -17.4116 -3.11169 -1.82991 4.56896
1539 1 1.66473 7.15397 -16.6994 -2.0958 0.960033 -5.5656
1541 1 7.52582 -18.0077 -6.85222 -3.15822 -4.04806 0.478819
1547 1 14.6251 -0.712039 -1.58337 -2.30604 2.24377 -2.79328
996 1 20.3583 9.98339 -17.7752 1.98171 0.207186 -2.79628
2964 1 0.510536 -20.4217 -21.2861 -6.70985 -6.86059 1.70073
1551 1 9.05869 -0.263603 -5.0523 2.04177 0.104098 0.079643
1552 1 18.4998 10.0334 -19.9438 -0.471881 5.66915 -4.4217
1556 1 20.7191 -17.626 -8.10011 6.88642 1.90283 4.69125
1557 1 8.83128 -23.4814 -16.8326 -3.3205 -5.93609 0.965285
1410 1 0.17357 -18.645 -17.7012 -4.01775 -1.99974 -0.618702
1695 1 18.4007 -24.5803 -9.85175 2.44732 4.27693 -2.50597
1567 1 1.17562 -10.0996 -20.9457 2.34341 -1.15394 -2.17131
1578 1 16.9496 0.856957 -11.61 -1.25071 5.90157 2.42609
1583 1 10.0893 -1.74967 -2.9345 -1.66558 0.564041 1.04147
1587 1 19.1439 -2.67985 -9.17727 -2.6 -2.67645 -0.68867
1590 1 20.299 7.62559 -16.171 2.17302 3.37727 -3.87382
1594 1 10.477 5.36423 -2.85323 2.10838 1.44932 3.26422
1600 1 17.0732 -13.4171 -16.1189 -4.38573 -5.75289 -0.340063
1603 1 6.187 -10.5812 -13.5186 -5.21998 2.91003 -0.0858505
1604 1 20.1669 -13.7558 -16.3039 0.332746 -6.01785 -1.9551
1607 1 13.0358 -23.3439 -14.0166 0.904941 3.1326 -0.192608
1453 1 -0.0242689 -21.649 -6.70485 1.01743 1.2034 -1.32565
1616 1 14.775 -12.6292 -17.2997 -0.259794 7.44188 -0.957404
1620 1 14.2584 -9.16682 -6.5143 -1.89372 1.8248 3.03509
3937 1 14.0705 -14.218 -20.3152 -0.706008 -1.90442 2.45962
1635 1 7.17922 -16.7657 -10.2214 0.460567 0.297506 -4.42567
1638 1 14.5867 -5.17521 -18.6963 1.93914 2.79804 0.395319
1650 1 10.5803 -3.48512 -12.0343 -2.87388 0.453133 2.63329
1727 1 24.0008 -3.03462 -19.1058 2.69711 -0.444648 -4.02926
1652 1 12.3256 4.04283 -19.1576 0.77316 -2.3196 -1.20543
1657 1 16.5697 7.98875 -13.0627 -2.8811 -2.26368 3.33897
1660 1 3.19069 -11.7067 -22.5025 2.1467 2.03761 -5.78265
1664 1 3.10136 -10.2294 -15.9471 -4.86587 2.81504 4.08607
1666 1 17.5574 -7.12692 -17.7193 -1.38268 -1.36946 6.28098
1669 1 15.9242 -23.662 -10.5713 -2.46474 0.264365 -5.23556
1674 1 4.34301 -2.89774 -7.63518 -0.606498 2.34387 3.08872
1687 1 20.7428 -16.3092 -11.7965 -3.59121 7.69541 3.43995
1689 1 2.95634 -23.5677 -0.491923 2.35584 2.24279 -0.337093
1562 1 0.776192 -5.67163 -0.580126 -2.66961 1.45739 4.08989
1700 1 13.089 -2.56815 -13.154 -1.41475 0.304715 2.2372
1703 1 3.72968 4.80582 -13.011 2.85722 -4.9002 1.69596
1706 1 7.65803 10.4833 -20.4548 -4.27709 0.142982 1.47247
1714 1 6.30149 -0.245364 -12.3416 -0.722567 3.16824 -4.53847
3921 1 17.5196 7.38249 -19.3926 0.00624859 1.04878 0.595674
1717 1 11.2559 -16.6168 -0.873286 0.172263 0.807434 3.18158
1718 1 6.86163 -20.7517 -12.1164 -1.20836 1.44654 2.37001
1976 1 19.2716 -10.9106 -22.4878 5.6565 -3.20658 -0.852414
1731 1 22.0263 5.358 -4.71022 -0.941553 -0.711382 -1.84188
2936 1 23.7024 7.24339 -6.17228 -0.683254 -5.37977 -0.748417
1747 1 4.43641 -17.373 -6.78364 -2.11397 -1.8622 3.01541
1748 1 16.5728 0.0576832 -3.72483 1.8864 -1.1517 -0.0961305
451 1 23.4726 -12.4072 -18.305 0.794397 -2.34261 -1.42285
1757 1 18.7102 -12.0745 -6.94663 2.75017 -6.03113 0.769795
1761 1 21.6355 -17.4542 -20.8928 4.87065 0.0320487 6.42859
1765 1 4.56654 -17.6922 -3.68148 0.352974 -2.45709 -4.01738
1779 1 5.58396 4.89899 -5.33857 -1.86168 1.37366 4.89581
1780 1 4.61374 7.64844 -5.82131 -1.40113 -3.20578 -2.10556
1783 1 17.6935 5.37562 -6.06255 3.26129 -2.41677 1.1973
1395 1 0.174256 10.292 -7.12728 4.23813 4.8154 -0.720792
1790 1 8.06017 3.58687 -14.4247 0.711787 -3.97312 -8.29079
1791 1 -0.436282 -7.04015 -15.6436 -2.07196 2.15147 -2.14227
1793 1 18.9171 5.37118 -23.0479 2.35549 -5.29474 -3.79237
1794 1 16.2607 2.46488 -20.0728 0.712382 0.646976 6.31876
1795 1 14.7301 -0.741651 -11.618 -3.8386 -0.666538 -1.27192
1798 1 19.7226 -6.68915 -19.9038 -0.122216 1.7041 3.93732
1805 1 9.08367 5.40445 -7.17825 -3.34037 0.651955 0.818194
1810 1 11.2637 -24.1219 -5.25476 -1.84732 -1.6707 2.01539
1814 1 11.1503 4.97627 -12.4849 1.25748 1.41115 3.79329
1822 1 16.6891 -2.80021 -2.48067 -1.6734 -4.81948 -0.762911
1825 1 8.24802 -10.5161 -5.02479 -2.81332 2.94241 0.56466
1827 1 15.2829 -21.3862 -2.00355 -1.60126 3.89617 0.0290361
1831 1 13.4622 -16.2057 -3.09783 8.38197 0.509655 5.46638
1834 1 6.73658 -8.74032 -21.4317 -0.266707 3.20118 4.53299
1841 1 9.36024 -22.8666 -10.5792 -2.9449 0.515262 -5.55574
1843 1 6.24929 -3.64045 -20.86 2.67655 5.58408 0.145416
1848 1 6.63923 7.53266 -17.3244 1.32056 1.71027 -5.24052
1154 1 -0.0832142 11.3498 -22.553 -0.543353 5.55735 -2.20172
1850 1 16.6312 -19.7937 -6.94791 2.70831 3.32766 -4.65577
1852 1 0.0898831 1.0292 -20.2225 -2.85957 -0.626743 -2.99063
1856 1 7.41504 -3.95451 -18.0668 3.11635 0.0093499 0.140661
1858 1 3.01273 -15.8255 -12.9337 1.08307 -2.0001 -4.53287
1859 1 7.22951 -14.4991 -15.1887 -1.99883 3.63163 3.50122
1867 1 5.80422 -8.32016 -1.9304 -1.31183 3.45931 -5.08048
560 1 23.335 -21.2201 -4.41326 0.05593 -0.697299 -4.98877
3904 1 9.86728 -5.72198 -7.21443 -2.85036 -0.196762 -7.46485
1902 1 20.1872 0.415349 -21.0606 -2.60132 1.40104 -3.30518
1903 1 0.851789 -15.8291 -14.974 -0.706556 -2.33518 2.44434
1911 1 19.6747 -1.73402 -6.20774 -0.730088 -3.18934 1.48223
1915 1 19.291 -20.1154 -14.6618 3.31706 -1.56906 4.3046
1923 1 12.9347 1.58762 -10.5954 2.89528 4.00523 -4.14712
3917 1 2.09454 -5.89393 -9.18056 0.606204 0.327061 -1.09821
1926 1 13.3609 -2.50919 -6.18682 -4.02665 -0.101057 1.8432
1934 1 0.566918 -11.0865 -2.99757 2.41162 2.43306 -1.89024
1946 1 8.05786 10.0043 -7.16365 -3.53662 -2.43034 2.75204
1948 1 12.2 1.61582 -14.4686 3.29285 -1.36709 1.4919
1952 1 6.20326 -15.873 -12.8328 -0.254568 0.133792 -2.68634
1953 1 16.5652 -19.0235 -1.11995 2.36213 -6.42652 1.04092
1959 1 23.2535 -4.52503 -0.991999 -1.3486 -2.76888 0.0860424
1961 1 16.4708 -12.2172 -4.87679 -1.95981 -1.53949 -4.15271
2351 1 16.8974 10.845 -13.7316 -4.17322 1.5805 2.65175
2406 1 23.4622 9.3857 -11.7104 3.60513 -6.02244 3.92472
1975 1 11.3743 -16.7862 -17.3423 2.23027 -0.1562 1.02636
2434 1 0.185884 -21.5828 -2.99295 -0.971082 -1.03019 -0.157878
1983 1 17.1994 -5.05406 -5.56721 -0.0584779 3.16333 1.15996
1985 1 2.28294 -24.2746 -9.82349 -1.06381 4.64175 0.972457
1990 1 20.0128 -14.5335 -5.82278 1.1836 -4.22506 -1.34941
2000 1 2.4065 2.86536 -22.1591 -0.717496 1.15255 -0.843968
2003 1 11.4568 -4.61408 -9.63444 2.33056 1.46393 0.730071
125 1 14.2016 9.67122 -0.62496 -2.83816 -0.908631 -0.148325
2006 1 10.1976 -10.9087 -6.99194 2.03245 -5.42827 -0.0561576
2020 1 9.10392 -13.3436 -13.2206 -1.22157 -4.7463 3.51916
2028 1 0.964231 -1.37554 -18.5827 4.21257 -2.30522 3.8559
2029 1 16.2287 -8.50355 -2.90644 -1.2969 -1.30326 -0.252751
2030 1 10.0001 -18.5953 -21.5317 3.37041 -1.54399 -1.95249
2039 1 9.04961 -21.6218 -21.1187 0.839929 1.00522 -1.00365
2045 1 7.50912 -17.4322 -16.2552 -0.818126 -0.926992 -0.398804
2054 1 14.5027 4.47082 -1.97206 -2.25468 -0.589073 2.91721
2058 1 21.314 9.20461 -13.8988 1.35019 0.755861 4.19208
3951 1 5.26304 2.38689 -13.8717 0.0130153 -1.15726 -1.683
2069 1 22.5988 -21.5739 -9.8639 -1.06795 1.46783 -0.310343
1029 1 11.3879 10.6435 -0.848195 -13.4985 -2.16574 0.0379012
2079 1 7.85693 -15.5247 -18.5262 4.02421 4.31706 -0.74288
2083 1 18.9597 8.20344 -9.23248 -2.84946 4.13849 -4.16253
2102 1 5.8971 8.40052 -8.6012 -2.1845 -2.95535 5.66315
2103 1 9.8757 -17.167 -14.7559 -0.836037 -1.26993 -7.44168
2105 1 13.0138 10.0921 -13.2859 0.867638 -3.70728 1.80964
2115 1 17.1163 -14.1049 -9.01313 -0.066872 3.96756 1.05433
2122 1 12.2636 8.57262 -10.0899 0.444517 2.90566 0.777219
2123 1 21.7715 -8.50539 -18.6062 0.322377 1.75956 -3.25116
2124 1 21.8509 -1.02032 -18.8534 1.95421 -7.03412 0.14043
2126 1 11.7707 -6.58106 -3.90263 4.17476 -6.36999 1.61495
2874 1 0.980199 -9.36347 -11.7644 -5.47599 -2.94529 -4.28911
2131 1 19.0437 -7.12341 -1.28029 -3.10702 -2.39722 -2.62746
2469 1 14.3101 -22.7272 -23.0154 1.70287 0.924083 4.68754
2143 1 18.4494 3.25392 -17.0935 1.11816 -2.04218 2.93854
2149 1 19.8413 -4.2022 -4.96273 2.27653 -3.83731 -3.84804
2151 1 7.49891 5.35175 -12.3803 1.18887 1.02761 -3.65684
3990 1 8.92715 3.7708 -22.7893 2.28998 -3.5654 -0.856871
2162 1 21.5612 9.21244 -5.85687 -1.20955 -0.289398 -4.31088
2164 1 16.652 2.35833 -9.10971 -0.776617 -0.920913 -2.89136
2169 1 10.0624 -6.8414 -20.6265 -2.03013 1.31607 0.249762
2173 1 20.0485 1.36483 -15.3554 -2.09336 4.4232 -2.0013
2174 1 4.08635 8.5323 -3.19496 4.64475 6.95037 -0.469942
2178 1 18.2001 -16.2148 -7.48564 -0.662429 -2.61342 -1.21113
2180 1 11.7746 -7.19721 -10.8675 5.78188 2.7652 -4.14898
2186 1 3.70228 -8.23567 -17.8838 -3.39246 -1.096 -2.2802
2193 1 16.4004 -15.2924 -14.1547 2.63835 -2.17691 -1.64402
2201 1 13.4018 -11.3945 -21.1179 0.511441 0.683417 -1.6352
2202 1 17.5199 -18.8195 -18.0656 -1.54396 4.10042 1.06905
2203 1 7.17947 0.954487 -3.31735 4.96682 1.71955 -0.497207
2204 1 4.9633 -0.066411 -1.43462 -0.336539 2.65996 -0.361056
2210 1 20.5455 -18.7069 -0.946509 1.58346 1.18866 -1.42214
2213 1 18.5247 9.53882 -5.93907 1.93269 0.775518 -2.14922
2216 1 2.57148 -0.535866 -13.2012 4.36892 -4.53808 -1.2702
2225 1 1.53483 -17.7124 -21.9274 -2.98668 -1.55352 3.11161
2227 1 8.04523 3.4332 -4.84271 3.22682 -0.812645 -0.282752
2236 1 21.1062 4.2821 -18.0777 1.27024 -3.61822 -3.50619
1229 1 18.6811 -16.3244 -0.698495 -2.20138 -0.855894 1.31757
2253 1 6.99668 -18.8885 -2.66456 2.08753 1.0714 1.37564
2255 1 2.33913 -0.442606 -16.1123 2.18012 1.30734 -2.33829
2261 1 14.246 -4.46687 -8.2914 -3.12536 2.03749 1.88408
2262 1 17.5848 -22.8265 -1.54011 1.25166 0.46479 0.336537
2263 1 2.67528 -16.0309 -2.1897 -2.48969 -2.46585 -2.74945
2268 1 13.3701 0.172774 -6.04406 -3.18252 -1.00364 -0.60426
2269 1 17.1087 9.17896 -22.3932 3.74619 3.47785 -0.489882
3248 1 7.66384 0.721847 -0.468939 -5.57915 0.289829 1.45263
2280 1 11.8358 -11.2035 -1.95615 -2.6092 -4.33911 1.93312
2288 1 23.3926 -9.37696 -8.24417 0.801749 -1.32439 5.09277
2297 1 9.00709 6.3332 -21.7836 0.317427 -2.60208 1.17689
2299 1 9.16549 -12.3748 -2.86622 -2.9124 -2.69557 0.383238
2302 1 15.2939 10.905 -15.9041 -4.62683 -7.57621 2.71
2308 1 4.67276 3.27898 -18.1503 -2.78769 -2.25788 -1.78563
2318 1 20.8541 -7.87833 -4.88488 0.430031 3.10584 -0.81729
2320 1 22.2083 2.09999 -19.4813 3.2321 -3.0354 -1.62101
2323 1 3.76854 -3.99609 -3.85507 -0.737861 0.955629 2.10933
2324 1 6.01691 -20.3472 -16.6605 -2.92511 0.354586 0.439862
2325 1 14.8398 -22.0509 -15.7515 -0.929732 -0.99966 -3.84667
2326 1 22.2526 -11.2432 -14.1361 -1.17907 5.52342 0.806047
2327 1 12.758 -0.323758 -16.6833 -4.90904 -0.281234 -4.25755
2333 1 11.1709 -21.2007 -14.1815 0.464076 2.15879 -4.46215
2336 1 16.2639 -12.1518 -20.0405 -1.45696 3.21318 -3.86112
2338 1 -0.203054 -3.55488 -21.9384 0.766611 0.188571 -2.63465
2339 1 7.42397 10.4565 -3.56441 -1.32542 2.26493 -5.25963
2341 1 6.73074 -19.5421 -20.6706 1.76197 2.80233 -3.48584
2350 1 11.4236 7.82233 -12.8542 2.45681 -0.642903 -4.55284
2919 1 23.5689 -14.6698 -4.4938 -2.51698 1.43278 -3.14666
2354 1 18.6712 -18.2075 -23.2574 1.54739 4.89417 1.03627
2356 1 15.3746 -24.2765 -7.77638 -0.117545 1.61973 1.19914
2358 1 3.7386 -10.3058 -11.8509 1.95198 -1.80677 -2.0993
2363 1 17.4598 -11.562 -0.232298 -1.38046 2.82351 -1.85257
2365 1 22.4208 -8.44576 -2.42828 -4.14204 -0.0349433 -1.06086
1015 1 -0.0348328 4.14994 -23.395 3.09548 -3.23946 3.4583
2381 1 13.2533 -9.37418 -3.62971 -3.95292 -1.56051 0.947554
2392 1 10.3876 -23.9339 -14.6603 0.609076 2.74208 -5.17912
3900 1 12.2206 -18.6886 -13.4042 -2.72674 -0.618608 0.823959
2410 1 6.44119 -21.6625 -22.7779 2.6531 -1.96774 1.2856
2414 1 12.8299 -6.54812 -6.6113 2.71921 -0.550012 1.50731
2418 1 12.8282 2.6422 -7.996 -4.40929 1.10823 -1.89673
2419 1 22.1925 6.89377 -18.5022 2.97407 1.58095 -0.265712
2440 1 5.93153 -3.13031 -15.697 -3.55676 -2.24458 3.6789
3101 1 23.2306 -15.158 -19.7728 -2.11153 3.24074 -1.55399
2448 1 1.72021 -13.0308 -10.5032 0.438723 1.36289 -5.60936
2460 1 9.37679 11.0865 -16.0646 -0.278216 4.41105 2.57683
2466 1 1.33739 4.41955 -3.33834 -0.89593 -4.27349 1.63298
3967 1 1.44982 -6.63664 -5.07458 -0.792218 -2.03624 1.86749
2470 1 12.3102 -20.7719 -8.68113 -8.94397 -1.26459 0.695936
2473 1 12.8865 9.98786 -7.84232 -0.239546 5.28778 3.49812
2477 1 10.4147 8.30877 -2.14197 -4.44989 3.48419 3.48651
2482 1 7.00222 -4.26124 -1.14431 -1.68965 5.38357 -2.44599
2484 1 1.8202 -16.2952 -7.55806 -5.9644 -2.65304 -5.26104
2491 1 12.1319 -22.7975 -2.80314 -1.36527 -2.97185 4.68184
2495 1 14.7594 -12.6017 -9.38387 3.56378 1.82479 3.09844
3112 1 0.86908 -13.1971 -21.3356 -1.54745 -2.87118 2.4491
2507 1 8.72707 -2.07825 -16.0917 -2.60952 1.70272 3.75772
1894 1 1.46251 -18.7923 -3.56619 5.20379 -1.04925 -0.707937
2530 1 4.86964 -12.5995 -15.4841 -2.55554 2.67652 -2.77559
3997 1 19.6919 -21.9519 -9.85641 2.82177 -0.901926 -5.23774
2548 1 17.0774 -5.63957 -8.28627 0.390135 -2.47576 -0.958227
2557 1 17.1004 -22.0182 -12.5097 1.20873 2.05474 -1.17625
2563 1 20.8129 -3.78054 -21.4085 3.49696 6.28093 -4.40571
2568 1 19.4324 -9.85876 -19.6789 -1.98691 -1.80356 3.03216
3872 1 22.3424 -22.847 -7.42969 6.00068 -5.42998 -2.54077
2573 1 18.4792 -23.1074 -4.22056 -2.07548 -4.67287 -1.20378
2588 1 17.6599 -0.821067 -17.934 1.74741 -5.36367 -0.525162
2590 1 13.5333 4.06612 -11.3771 -0.933464 0.569215 2.07784
2598 1 19.5257 -0.134501 -3.73735 -3.30263 -1.51581 0.971332
2604 1 13.4265 -12.6023 -0.192897 1.45959 -0.849613 4.97709
539 1 19.078 10.9726 -8.33756 2.69477 -5.42923 2.7316
2608 1 12.7133 -19.0882 -22.042 -0.607493 -1.55845 -4.74641
2610 1 0.517094 4.54042 -17.2137 -2.45541 2.62703 0.211555
3960 1 18.9069 -12.2692 -10.6672 2.88695 -0.989653 -1.82703
2628 1 12.8397 -6.36386 -21.7603 3.37052 -3.02004 3.67801
2632 1 19.5432 -2.6245 -18.8782 1.68471 -0.194664 1.22716
2637 1 9.82904 -14.1549 -16.7361 -1.00469 0.4359 -1.23491
2638 1 12.0352 5.42841 -6.81526 0.391656 -4.33159 -4.92594
2641 1 22.8915 6.72141 -15.0617 -0.750275 0.135045 2.04375
2644 1 19.0643 -19.9924 -11.7674 0.595838 0.965985 -3.25465
2654 1 19.9822 -9.82217 -1.69956 5.62055 3.84345 1.36523
1438 1 -0.27724 -0.922444 -14.3317 1.15795 4.01644 -1.74374
2675 1 17.4854 4.98703 -10.3945 1.79745 -3.67499 -2.72673
2678 1 4.8238 -20.2415 -13.9282 3.16759 -0.414593 4.39078
2680 1 9.09685 -2.83111 -6.34549 -2.1903 -3.05403 2.35134
2686 1 5.99487 -23.0894 -16.9505 -3.71343 -7.68941 5.19102
2687 1 19.2974 -15.7566 -14.1052 -0.550496 -2.02769 -2.93141
2692 1 4.00268 1.35564 -11.0615 -6.57609 0.61725 3.68252
2697 1 5.01926 0.824984 -5.33681 3.12748 0.674544 -0.653042
2703 1 14.3089 -6.00206 -12.3013 4.57088 -0.754275 -1.95772
2713 1 22.8448 1.15941 -7.82602 -0.657884 -4.71886 -3.72873
2337 1 9.08366 6.16423 -0.326291 -0.0722214 -2.99221 -0.673876
2743 1 1.11694 -19.2644 -7.54467 3.04844 3.52927 -7.81308
2746 1 6.19754 -12.4951 -4.20642 2.12658 -0.315112 -0.370832
2765 1 8.96532 -18.2848 -18.7485 4.36622 -1.66272 -5.20668
2774 1 22.6148 0.901959 -16.693 3.48375 1.92275 -0.782844
2776 1 9.58419 7.85603 -8.48117 4.50244 -3.6687 0.832655
2783 1 12.0541 -10.6496 -13.8095 1.20748 0.440377 1.81041
2785 1 21.5104 -3.17566 -14.451 2.8944 -2.53988 1.36506
2789 1 9.00177 -6.02886 -4.43803 0.564877 -0.190871 0.886359
2797 1 16.5883 -12.0169 -22.8091 -0.404123 5.64506 0.504088
2803 1 22.4959 -5.62672 -16.0578 5.3615 0.184776 0.754657
2808 1 5.11705 -23.6998 -10.0838 -1.63942 0.185128 -0.945415
2813 1 0.798491 -9.14192 -17.4724 2.74617 3.34442 -0.732284
2814 1 22.4263 -5.43778 -5.27032 -1.06014 6.31395 2.45519
2817 1 6.85685 -17.5965 -22.9828 -5.39874 -1.89778 -0.584173
2821 1 17.2914 -11.436 -13.8612 -4.24156 1.66239 -2.92713
2826 1 8.88185 -19.7139 -0.618676 0.795362 2.76941 0.43572
2828 1 1.92658 -4.14114 -17.9925 -1.99837 -3.69824 -3.42154
2831 1 17.5751 5.42127 -13.9074 -3.81048 -2.48423 -3.074
1129 1 -0.0462199 -9.2777 -23.4075 -0.874269 -2.96847 0.668591
2841 1 17.9633 -17.6507 -3.25597 -1.02996 -1.42034 -0.614712
2843 1 14.3195 2.6393 -22.0514 -7.04149 -0.572664 3.78041
2845 1 18.6604 2.97371 -21.3731 -1.87743 -0.956431 0.721735
2850 1 0.871839 5.28576 -10.2135 0.417408 -0.448449 4.41172
3295 1 5.88229 -24.2444 -0.299232 4.18005 1.22128 -0.637983
2854 1 5.53364 -7.0854 -6.51995 -2.06834 2.15048 1.50668
542 1 23.7553 5.22773 -8.06371 -2.04323 5.43679 1.45178
2858 1 11.885 -2.66496 -20.7568 -0.214545 -2.23751 -3.92794
2862 1 11.8569 -2.978 -15.9039 -2.6706 2.85799 0.922907
2863 1 20.4296 -18.3324 -18.1143 1.63684 -1.1518 2.11283
2127 1 23.4253 -10.1428 -22.2373 -2.48619 1.62361 -0.0428393
2875 1 22.3933 -4.54943 -7.91045 0.846765 -2.66402 -8.61992
2876 1 20.7106 -22.9389 -22.0359 -3.96474 -0.618734 1.39627
39 1 1.28103 9.21488 -24.2418 1.26985 2.44271 1.60894
2911 1 0.773873 3.81567 -19.9248 -6.82906 -2.2521 -3.58578
2912 1 10.6852 -15.7926 -6.37784 -5.00442 0.374033 2.6631
2913 1 16.4702 6.50119 -3.62878 -2.27629 3.03884 5.44073
2918 1 20.0664 6.76725 -6.67795 5.78917 0.774584 -2.45459
2616 1 23.5968 -2.91752 -9.98186 0.581002 0.280617 -2.62892
1924 1 23.0904 -18.0052 -0.458354 0.80159 -0.369258 -1.07006
2934 1 6.54477 2.16555 -21.9951 5.19395 0.427107 -4.80295
1105 1 19.959 2.29508 -0.446356 3.66521 2.99783 3.03279
2947 1 17.8164 -14.5274 -22.9773 -2.90906 4.16295 -7.13361
2951 1 11.3954 -17.5897 -10.7185 1.00574 -0.986968 0.11567
2958 1 7.73917 -8.15955 -12.4981 2.49703 -1.00327 -3.62484
2070 1 23.4355 0.892187 -1.13857 -2.59117 5.95452 -4.12731
2965 1 18.9129 -1.96462 -13.5155 2.37005 0.83913 4.65695
2970 1 19.8117 -12.9979 -13.347 -3.7171 -1.5339 -6.33514
2975 1 17.2342 10.1745 -1.20744 -0.766932 3.2071 -3.3329
2977 1 3.29956 -9.86637 -2.48211 1.19623 1.58922 -0.609448
2988 1 1.75686 -22.9464 -5.07624 6.38351 -1.49276 -3.07665
2718 1 11.0739 -15.3109 -23.9525 2.69732 -1.01179 0.123665
3005 1 3.61916 4.2824 -7.21548 -0.250888 9.066 -5.12114
3006 1 21.4648 7.45893 -21.3614 0.175347 -4.77882 3.6239
3012 1 1.51623 -23.3213 -18.0833 0.378629 -0.678562 -3.79807
3016 1 18.8259 -13.3646 -20.4764 -2.58623 4.17185 -1.24617
3032 1 17.4515 -9.4538 -6.0355 -4.50595 1.61222 -2.81515
3043 1 6.10749 -11.1118 -17.6768 -3.27498 2.81714 2.41046
3046 1 15.7659 -10.0525 -16.5056 2.50938 -2.61938 -3.88925
3053 1 19.9301 -21.4802 -0.697716 0.262329 0.712013 0.703042
3065 1 6.49069 -12.9811 -11.8576 4.13501 -4.73156 -6.66396
3069 1 6.98717 -7.86162 -4.39431 -1.9345 5.60469 -2.78568
3075 1 19.5362 8.1426 -23.3014 -2.72842 -0.0116366 5.59876
3079 1 12.2837 -3.63076 -3.94479 -3.53061 0.130051 3.30949
3083 1 7.80505 -15.156 -7.85095 -1.48182 -6.50328 -1.75102
3090 1 16.0992 -2.44732 -5.36609 1.58063 -3.54696 1.92423
3096 1 4.45796 5.52161 -23.5581 2.80193 -0.15474 -1.1073
3100 1 16.7065 -9.25634 -20.1147 1.99054 -1.34975 4.98224
3106 1 1.29599 -11.4916 -5.83809 3.08079 3.76405 -5.94162
3108 1 8.75877 -17.4085 -4.52187 -0.268902 2.16657 0.873593
3111 1 8.87121 -20.6744 -17.0403 -3.14872 3.55071 -0.409075
3935 1 10.4025 -15.913 -20.1513 0.84182 0.342543 -2.57387
3113 1 8.88205 -11.4351 -16.9721 -1.2881 5.97831 0.00606586
3114 1 4.2685 5.89848 -16.5555 -2.16626 4.6054 6.17059
3117 1 15.3729 -11.2328 -2.45663 3.51096 1.13674 -4.28046
3126 1 1.34849 8.08511 -9.00594 -1.7809 -0.264043 1.09837
3128 1 1.70858 10.0414 -16.2476 5.42827 -1.57736 1.36547
3134 1 20.7979 6.90281 -2.66504 -0.303822 -3.10902 0.797241
3137 1 5.23351 -5.69372 -17.2222 1.94786 3.44198 2.72447
3975 1 4.35848 0.462063 -17.9855 5.25134 1.94715 1.67423
3139 1 5.74097 10.8596 -13.3861 3.40322 0.790124 -1.4071
3141 1 11.427 -2.14636 -8.03194 -0.954092 2.61118 -1.8867
3149 1 10.7837 8.4744 -17.1845 -5.49358 0.0666371 -0.954049
3153 1 16.2401 6.32151 -21.5851 -3.28256 -0.600684 -4.14646
3158 1 19.2961 -20.2361 -7.70341 2.20044 -3.31301 -5.56585
3159 1 20.2894 3.59931 -6.54937 3.78111 6.43213 -1.67157
3167 1 20.1144 -15.4671 -18.6948 -5.50775 -3.56583 -2.03057
3169 1 13.2485 -21.9485 -18.372 -4.18343 2.664 -0.111214
3175 1 19.3936 4.10319 -2.71538 1.24125 0.489427 -0.136969
3177 1 0.0812052 -12.1069 -24.035 -0.0860379 -0.348512 -2.44352
3191 1 7.36736 -5.89842 -8.56201 2.77943 -2.27764 5.04703
3870 1 14.8874 -19.6136 -9.20547 -0.487288 -1.08614 1.2566
3198 1 8.25879 2.1243 -17.8683 -5.1815 4.41532 0.261139
3207 1 0.564323 -6.73204 -19.4665 2.59064 -4.83904 -3.39948
3234 1 9.90398 -6.13745 -13.1322 -1.60035 5.38398 -2.20255
3242 1 20.9231 -10.9923 -16.9462 -0.791705 2.115 0.987049
3250 1 13.671 4.50223 -16.6817 -2.40269 0.373804 -4.14185
3254 1 20.033 4.19569 -9.59038 -5.02629 -3.43085 5.44391
3954 1 2.91995 3.49629 -15.5918 1.39975 1.62629 2.92535
3265 1 6.65998 -7.14312 -14.9752 -3.74898 -0.211781 -0.44003
3278 1 1.01457 -6.0894 -22.4347 -1.56021 1.81076 3.36801
3282 1 5.09648 -0.501965 -15.0466 3.26054 -0.571505 -2.78711
3288 1 0.597295 8.61165 -19.4555 -2.07122 -0.0576741 -2.08562
3298 1 6.72078 -8.295 -18.6159 -4.70103 0.327052 0.557083
2372 1 23.164 5.88394 -1.28449 5.70053 -8.08736 -1.15553
3949 1 3.66081 -13.0411 -12.7892 -1.28821 -2.28693 2.87818
3305 1 2.10317 6.90836 -6.54989 -1.06806 -1.99413 -2.93102
3311 1 9.07016 3.7367 -10.6344 0.647236 -0.65429 3.3712
3315 1 21.4083 -12.017 -20.411 -0.30667 2.79596 0.558515
3316 1 3.46692 -5.31343 -6.5607 -0.649976 1.22143 1.32737
3319 1 0.420856 1.78659 -15.7448 -1.18454 -3.12655 -4.4867
3320 1 5.16557 6.28313 -10.6753 -1.8488 3.98604 2.51209
3887 1 2.28732 -11.5542 -18.5751 -1.24217 -0.101098 -1.00734
3324 1 13.9421 -16.8641 -9.6506 -1.34977 -2.77477 -4.82497
3327 1 7.76689 -22.169 -8.33419 -1.68063 4.01501 -0.0370409
3328 1 1.85127 -16.0586 -10.2673 1.90563 0.187618 -0.709548
3329 1 12.1241 6.92643 -15.5244 -2.64435 3.64858 0.89618
3335 1 22.3808 0.312984 -3.6508 -2.43831 -0.69071 -3.89812
3340 1 17.2855 -0.242343 -20.658 -1.4206 4.30277 1.63682
3363 1 13.5714 -4.9552 -14.6563 -4.48062 3.5402 4.33185
3367 1 1.96035 -20.6262 -18.8581 1.92632 -1.22556 -0.896742
3372 1 7.22902 -2.96586 -8.53657 -2.03386 -0.957834 5.80119
3374 1 22.4994 -14.0152 -22.2521 0.026342 0.377538 -3.78592
3384 1 16.0691 -19.1326 -11.6034 1.69032 2.76273 -0.864835
3386 1 11.0159 -10.926 -22.8863 -1.1577 -0.62402 -4.3048
3400 1 16.4902 -21.2082 -21.6893 0.0190012 -1.42709 3.03866
3402 1 14.1751 -15.5772 -17.6771 5.20417 0.109294 -1.33698
3407 1 11.0726 -0.327395 -12.2066 1.31159 1.64657 1.67309
3412 1 6.54451 -3.04911 -11.1081 -2.95436 3.01761 -3.35732
3416 1 20.7108 -21.5186 -5.70975 -4.75151 -3.00204 5.25658
3422 1 6.00526 -15.1349 -2.78864 -2.68737 -2.18987 2.02354
3441 1 5.62375 -14.9493 -5.8518 0.575022 -1.79757 2.39729
3451 1 4.48698 -12.3437 -20.0642 1.05902 0.0404168 1.7659
3453 1 14.5966 10.0256 -21.1943 1.12763 3.29657 1.68484
3458 1 13.0926 5.33502 -22.4268 -3.77805 0.746973 -0.366653
3463 1 23.2917 5.90439 -23.2062 1.46168 1.85555 0.316466
3481 1 2.76601 -23.1241 -23.3155 -2.15512 -3.44269 4.33483
3485 1 1.57763 7.4608 -3.63587 3.18351 -0.456171 -6.41156
3487 1 10.2031 -9.65928 -11.4892 1.63732 2.06561 2.97134
3489 1 18.6542 1.17561 -7.33706 -3.67223 2.85298 -5.68423
3868 1 6.02361 6.52905 -2.55828 2.89011 5.4832 -1.18954
3507 1 8.2029 9.77938 -10.3206 1.67019 3.82507 0.659295
3511 1 13.801 10.7832 -3.49754 2.94129 -0.0502388 -0.418053
3535 1 11.7263 -19.7381 -17.0277 2.78148 3.07957 0.283883
3541 1 12.1828 -0.0780523 -22.3961 -1.16053 1.64283 2.8246
3547 1 10.2689 -18.3925 -8.25041 -4.04589 1.47321 -1.42405
3548 1 8.11668 -12.5779 -19.6315 -1.94038 0.886182 2.37525
3551 1 12.3545 1.34456 -20.154 0.544198 -4.12202 -0.827922
3557 1 8.83976 7.17349 -19.0891 1.01161 -0.344794 -1.3082
3563 1 3.33729 -23.1694 -7.53381 -3.98586 -1.06611 3.61488
3992 1 22.4695 9.26492 -2.77928 4.88548 -2.87688 1.10661
3565 1 16.4542 -17.2696 -5.69338 4.22683 0.861362 0.926781
3573 1 18.9769 -4.4973 -2.17769 4.43992 -7.19444 -0.650088
3586 1 14.6966 0.281166 -8.68309 -2.4201 2.34746 -0.909772
3914 1 11.9076 -11.8763 -4.7934 -0.605617 1.83894 -0.214892
3590 1 10.8044 1.89495 -5.61111 -0.0412677 1.9398 2.18755
3593 1 15.0362 -9.48484 -13.8275 5.73806 6.70456 2.0875
3606 1 3.82877 8.78165 -13.0809 1.56664 0.265282 -4.68639
1875 1 23.8135 -7.10168 -13.4347 -0.788427 -4.76989 2.58695
3617 1 14.5133 -0.174697 -19.1088 1.09978 -1.55119 2.73689
3618 1 0.358819 -8.38148 -9.02983 -1.41396 1.59557 -1.24621
3630 1 5.32905 -11.7125 -1.40591 0.529235 1.14925 -1.86733
3633 1 9.70011 8.9834 -4.96255 2.60651 1.14056 1.96524
2384 1 7.57748 -12.9811 -23.8202 -1.3271 2.02055 0.437099
3636 1 4.98298 -17.297 -15.0081 -2.62488 -3.67579 0.443748
3640 1 18.522 -17.4455 -10.1924 0.688163 -1.36679 -0.984898
3646 1 16.2237 1.76053 -17.341 4.51424 0.743491 -1.9551
2483 1 -0.179836 9.74808 -11.8452 -4.75568 6.32064 2.20181
3650 1 9.08241 -8.33189 -16.4503 0.511809 -4.29065 2.03702
3659 1 19.5613 5.55019 -20.2797 -3.1329 -3.50842 0.164745
3443 1 22.0674 3.38237 -2.43672 4.47175 4.59496 0.991472
3884 1 12.5255 -19.1149 -6.23355 2.24633 -1.68715 0.842622
3665 1 11.2396 -10.2622 -17.9127 -1.21045 3.77433 0.676572
3957 1 18.7493 -21.4675 -17.8976 -1.30025 -0.52908 1.74949
3670 1 13.5702 6.06845 -9.23614 3.44987 -4.03288 -1.35862
3679 1 10.3402 -19.6909 -4.47264 -2.42798 -3.5991 -3.04816
3982 1 8.09177 -3.41333 -3.60208 -1.0138 1.83855 2.55263
3692 1 6.69041 0.326762 -19.658 2.58356 2.68332 -2.37145
3696 1 7.55213 0.643968 -15.6793 -1.09971 -1.57039 1.70008
3707 1 17.8464 5.83212 -16.6406 0.114684 0.19078 -0.515613
3716 1 6.66289 4.42854 -0.748525 -0.703627 0.706827 -0.231636
3723 1 7.06587 4.59732 -16.9018 2.00676 3.39837 4.74924
3727 1 6.46186 -11.3803 -21.6418 -2.06208 5.2424 1.96897
3731 1 3.19547 -17.1297 -19.5028 2.11902 5.59694 4.18265
3733 1 4.36188 -14.3889 -0.48729 1.25196 4.13188 0.404372
3740 1 4.96538 -1.16036 -21.4253 -2.40343 -2.52099 -2.45275
3746 1 6.58065 -20.561 -5.34781 -3.07198 -3.30247 3.63778
3753 1 5.94842 -4.2754 -23.9914 3.01408 0.703917 -1.58181
3755 1 16.3109 6.93638 -8.50144 0.027335 0.759969 -0.954937
3758 1 21.4517 -8.26007 -15.8328 -3.68202 0.508466 -6.49265
3761 1 18.2881 -11.6643 -17.9005 -0.404139 5.61447 4.28408
3772 1 15.2652 -14.1713 -2.14657 -4.04783 -2.16388 -0.845119
3775 1 3.73847 -1.71352 -10.4377 -0.0365116 1.65927 0.713911
3777 1 11.5334 -6.57849 -0.987363 0.395987 -4.26408 5.77113
3782 1 1.60834 -13.9752 -17.1798 0.258144 -7.6174 -1.59966
3790 1 4.9274 -19.4178 -0.37242 0.590315 3.95571 8.04481
3798 1 4.39458 2.65947 -0.917539 4.79819 3.77432 -1.40645
3800 1 14.0042 1.60965 -3.19528 -1.67769 -2.61748 0.189709
3802 1 5.91087 0.131208 -23.8021 0.867704 0.261028 -2.71001
3806 1 -0.04138 1.85302 -3.62512 5.68479 -4.89576 2.88789
3808 1 9.90641 -13.4928 -22.2798 3.00427 3.17045 -3.75679
3809 1 4.20012 -23.6088 -18.8484 -1.98769 3.27656 1.54845
3813 1 17.3021 5.35842 -1.11286 1.78403 1.89972 3.34729
3817 1 7.68921 8.59873 -1.27532 1.44839 6.90393 2.35116
3830 1 15.8041 -13.2649 -12.074 -7.99814 1.03045 0.651769
3833 1 19.3668 -0.461008 -11.138 -0.0326265 -0.409529 -3.54258
3835 1 21.3568 -22.5709 -2.94197 -1.31685 -3.35686 -0.0620108
3856 1 13.704 -18.932 -2.3319 -0.839911 0.582381 1.82307
3860 1 13.9595 -16.2839 -14.8036 1.02351 -1.76059 -0.916189
2271 1 23.5807 -17.6391 -8.90678 -5.83989 -4.83128 -3.15825
2161 1 -0.300231 9.5206 -4.42116 0.964549 1.00164 -3.77431
3635 1 1.10811 -15.4155 -19.7893 1.77636 0.107576 -0.347143
3303 1 21.4567 -22.2422 -13.7527 0.909838 3.88042 -0.74155
3662 1 -0.375513 -0.169698 -22.881 1.83105 1.52426 1.74051
302 1 0.0754269 7.80687 -1.07319 0.0529886 1.70777 3.00399
625 1 0.35942 -8.69336 -6.31892 3.54698 -0.323707 2.19602
3301 1 23.7705 8.7996 -8.78041 0.150045 3.6452 -1.66729
3196 1 -0.0734862 -1.81273 -1.71196 -1.70615 2.03909 3.84349
342 1 -0.484907 -16.219 -11.9947 -5.25158 1.96472 6.17943
2924 1 -0.24348 -16.5583 -23.9932 -3.20535 0.480318 -1.22855
1042 1 11.1384 -7.16913 -24.1709 -2.02549 -6.12442 1.01081
2884 1 8.16699 -8.35167 -23.9046 -2.04745 -4.03357 0.898642
3264 1 10.2056 7.67194 -24.0593 2.50979 0.737084 -1.5719
3666 1 3.4288 -17.5852 -24.1316 0.259823 -2.24647 -2.65013
2659 1 15.7871 -4.95972 -24.1008 -1.1162 1.77169 2.969
767 1 0.317105 -11.5935 -0.34458 -2.44017 1.39647 -3.1322
1418 1 16.1933 -7.54924 -0.216396 -3.4008 -1.14775 -2.11349
1389 1 20.668 -3.41118 -0.193845 6.37409 0.309846 -0.540405
1 1 23.1624 -22.5013 12.6025 4.38648 0.599922 -3.07857
3682 1 23.0499 -22.969 17.5356 1.27719 -2.16933 -4.38797
2900 1 15.0289 1.60986 24.0173 -0.37115 -2.97145 1.5446
11 1 5.99357 -10.7141 17.2505 2.57745 0.45638 3.87369
17 1 15.7571 -9.07093 16.8465 -3.58917 1.40251 0.514686
20 1 20.4541 3.66757 20.1899 7.6123 2.28442 -4.79556
35 1 20.2874 4.99163 12.7472 3.71385 -0.301189 5.96831
1075 1 -0.356246 11.1786 14.2312 -3.49525 -1.0076 0.750431
50 1 15.9059 -20.2705 12.8725 -0.303593 -2.28691 1.33541
65 1 19.8662 -2.23473 8.26276 0.116618 -1.60793 -5.39239
82 1 5.81204 -24.4998 4.82103 -1.24314 1.1707 7.34201
86 1 12.7587 6.72423 14.5135 -0.884893 -0.869166 4.26023
90 1 8.68379 -4.58902 6.63281 -0.545413 -5.0196 3.9054
102 1 4.71046 3.9885 4.74906 -1.09886 1.30737 -4.71411
106 1 15.3577 3.35666 8.42712 5.67325 -1.53835 -0.0805528
107 1 20.7639 -2.21096 18.1548 -2.45696 2.66771 1.11836
483 1 5.37671 -16.699 0.700395 3.47789 -3.37459 0.793731
120 1 2.20856 -1.42266 18.8521 4.94046 -2.34695 -1.34534
2856 1 16.1551 -15.1981 0.111215 -2.88591 -4.89101 1.12076
127 1 9.06161 0.0893049 12.7883 -1.96046 2.58067 2.69543
129 1 16.1742 -11.0592 4.07538 -4.30975 1.4604 0.137367
140 1 2.57665 -5.78483 20.1671 -4.12268 1.0318 -0.534473
141 1 11.4137 -17.9023 4.3573 -4.62024 2.59541 -4.38439
142 1 12.4638 2.33777 22.5627 -0.354072 2.37912 3.91691
145 1 16.5964 6.85361 20.1849 -3.30449 0.396837 -1.02542
150 1 20.271 9.88596 19.5587 0.328438 1.21161 -3.48649
151 1 18.7049 1.84436 22.0247 -4.18047 -0.960038 -2.52257
156 1 15.4431 10.6221 18.3565 -0.950393 -3.12822 1.01168
158 1 10.2491 6.73969 2.54995 1.35031 -3.94957 -2.16286
163 1 1.92176 0.630634 16.6792 1.24439 3.14859 -2.61975
164 1 19.7835 7.8722 12.7945 3.2796 1.47011 0.113241
193 1 8.20816 0.786582 3.9365 1.19597 3.42286 1.70848
205 1 20.0733 -6.10728 10.9055 -4.28282 2.73797 3.9383
208 1 2.4083 -5.46639 17.3319 -0.281777 0.892007 -2.92275
211 1 17.5307 -0.0670486 6.26333 -3.38308 0.689105 1.1751
236 1 17.1077 -8.73087 9.05164 1.59474 -0.156765 6.0021
2753 1 -0.0984857 -6.89621 12.6419 -3.59763 5.47644 3.45955
240 1 10.8648 2.34474 15.9912 6.24056 -0.923158 0.448179
246 1 9.80161 2.89704 21.0113 -5.3441 -0.966966 1.92208
1661 1 23.5463 0.652591 16.8256 5.90055 -2.01467 1.82515
264 1 21.7147 3.00921 17.3599 -5.07703 0.50526 4.24027
272 1 13.7028 -16.9021 13.2413 3.36056 -4.35119 -0.248648
274 1 12.1539 -11.4077 9.19568 0.480224 -0.827113 -3.40262
278 1 19.8422 9.33414 16.7319 3.88963 5.04948 -2.21235
282 1 12.799 10.6545 12.0793 -1.23591 -3.03556 7.551
292 1 15.1772 8.65144 1.84418 2.925 -5.56188 4.36077
293 1 13.0312 3.75931 14.4664 0.341688 1.57065 -0.0884671
3875 1 23.8777 1.31279 5.8578 1.0473 -4.29287 -2.86393
300 1 14.1971 -3.38369 17.1101 3.20744 -2.66788 0.503064
305 1 3.82918 -20.5683 21.5345 -0.919859 -3.46168 -4.57868
309 1 5.40266 -19.9296 18.9788 -2.38762 9.48777 -3.23897
311 1 13.5864 -10.4689 1.83756 2.05148 -2.62188 -0.655322
316 1 23.2092 -5.3322 3.4684 1.04597 2.46931 1.56806
318 1 20.9269 -17.1113 19.9359 0.580652 1.56589 1.6972
324 1 22.6424 3.98599 5.87537 0.873262 2.31931 -0.288517
331 1 13.0892 7.04008 3.32378 -1.17478 2.16324 3.01242
335 1 23.2032 -22.9854 4.94689 -2.95657 1.45385 -5.09862
338 1 6.24752 -7.82757 17.4945 1.52303 1.62824 1.48581
346 1 15.5529 1.6175 5.04853 1.39935 2.39136 1.42169
347 1 20.8921 -6.00304 8.04691 0.98518 0.430205 1.17546
352 1 14.4001 0.94767 0.968078 -3.20175 1.13954 0.0118898
358 1 19.8432 -11.8843 12.7784 -1.25453 -3.88801 -0.451722
368 1 3.60587 -6.3101 11.624 1.85834 -1.12779 0.175164
377 1 14.9313 0.0541569 12.1732 -0.057161 -2.43688 -0.672392
383 1 10.7363 -23.7368 8.61742 -1.26553 -3.03648 -4.0103
387 1 5.67595 -20.9702 1.78047 -0.389888 0.212855 -2.60695
390 1 12.3131 7.10462 7.82395 1.54303 -0.140237 -1.0269
391 1 16.2143 2.47162 18.9699 -1.26451 -2.18302 5.61584
392 1 18.2836 -10.5404 17.683 -3.82911 0.929911 -4.33907
2450 1 6.80383 11.4386 21.8846 1.25599 4.71037 -0.503729
397 1 1.80611 -20.8527 19.5604 -1.98239 -3.1523 -4.3166
1742 1 0.00879237 -6.27083 21.4243 -5.51566 -3.14762 2.08788
407 1 3.09932 -10.6901 17.0815 -0.723755 -1.13188 -3.37376
416 1 22.4976 0.918604 11.8873 -1.22205 4.35702 1.93811
432 1 7.72677 -4.91097 12.7973 4.56958 -3.48965 -0.615773
442 1 5.57388 3.69469 16.039 -7.37357 -1.10606 1.97956
450 1 15.3186 -20.012 7.99475 0.820826 0.905465 -2.92308
455 1 14.1949 -12.0946 15.1958 0.985005 -3.50252 2.43077
2043 1 18.0329 11.0968 12.456 -0.949809 5.47711 -1.14448
38 1 19.942 10.6758 9.07041 1.84786 -2.38813 1.37475
479 1 16.6552 -17.0042 14.1909 -2.58591 0.51471 -0.998637
480 1 1.51544 -9.38457 9.61777 -1.71163 -0.770387 0.0235298
488 1 1.0577 -15.4183 21.966 0.370511 0.667826 1.18998
494 1 6.96415 2.56915 5.96023 4.46643 1.5955 -1.15286
502 1 13.4777 -13.7274 18.8135 -6.72869 -3.26783 1.32584
510 1 7.20713 -16.9092 15.9176 -0.533343 -1.0501 3.91621
511 1 8.51821 -14.5537 4.83374 -1.43213 -0.0700724 -0.408171
512 1 0.627928 -3.86401 19.0231 0.314354 -0.049106 2.60871
3895 1 14.0771 -6.00053 0.0789761 0.724816 0.332107 -2.14438
522 1 2.85641 -16.3216 6.68767 4.16876 2.91303 1.17688
531 1 22.7422 -8.34848 13.0625 2.13863 -5.58668 3.56066
535 1 4.60432 10.481 9.3559 -0.357039 -0.883647 0.525608
1823 1 6.90733 -24.0986 10.2034 -1.8543 1.21978 3.27796
537 1 9.00307 -5.09491 2.90255 1.79326 1.15087 1.55525
545 1 23.0057 -17.9744 14.4491 -2.98863 5.67968 -4.14976
548 1 9.32385 0.617648 19.2839 1.67005 1.12077 3.83653
561 1 6.79733 -24.271 18.9862 -2.86204 -2.28074 2.01566
563 1 6.21807 -18.8492 7.34182 -3.16887 5.1759 -0.431916
565 1 14.7751 -21.6082 22.4619 2.1858 -3.17567 4.14465
568 1 5.20576 -6.06676 6.69551 0.515429 -2.09341 4.08194
3484 1 3.30991 11.1653 6.69445 6.44086 2.16339 -1.95886
572 1 10.302 -23.5404 3.66275 1.94158 2.64793 -5.06463
573 1 17.7654 -5.2896 5.9416 -1.35289 -2.12357 1.35636
576 1 20.3118 0.689316 18.952 4.4908 -0.820156 5.07627
591 1 19.8143 -19.9489 12.9116 7.32295 1.03366 -0.99077
598 1 15.4743 -13.6224 5.33528 1.80663 3.96353 -3.28672
599 1 10.0664 -13.1996 15.5801 0.451794 -0.400345 0.94902
601 1 0.564947 -3.39096 21.9543 0.910745 1.34791 -2.46294
609 1 10.5825 -19.4873 21.148 1.63377 -3.08328 -1.3846
610 1 16.3706 -4.0826 15.3424 4.13949 2.22348 -3.04789
615 1 12.0805 -2.51254 18.9371 -2.108 0.976935 4.87861
616 1 18.24 -2.72078 20.8774 3.05541 2.08892 0.628156
618 1 14.2153 5.95129 9.32631 -0.146419 -1.22159 -0.611201
619 1 16.341 2.16526 11.0266 -1.50902 0.239322 -4.24334
623 1 21.9359 -13.8204 5.32116 -3.61446 -2.33137 1.18639
640 1 1.7247 -0.0961881 3.7881 -0.447381 6.4514 3.72668
643 1 11.9112 -18.0787 8.29895 -3.82017 -2.59544 -2.16887
649 1 10.4458 -16.9583 19.0862 4.5954 0.473344 -3.4482
659 1 7.71923 -1.3761 20.7576 -1.19529 -0.557441 -2.18494
660 1 8.59816 4.47927 7.4498 -3.42751 -0.43129 -0.489782
662 1 2.54104 -5.8896 9.01969 0.132548 3.27962 -1.89506
669 1 8.89206 -16.0681 13.3676 -0.808773 3.36574 5.84573
676 1 7.04307 1.47818 17.4033 -0.316594 -4.68807 0.0264472
685 1 20.6094 0.272147 7.12479 -0.790138 4.11245 -2.91254
691 1 0.113351 7.33712 14.8983 -4.05484 -0.486031 0.275407
694 1 8.94196 -16.5627 2.98623 3.98262 -1.87108 1.07933
701 1 18.1973 1.365 8.8305 3.63098 4.43917 -1.4617
706 1 5.85209 1.51561 19.9702 -3.98839 -0.107173 -0.0736125
712 1 5.0727 -9.45353 14.1178 -1.85744 -2.8602 -1.05271
713 1 2.66984 5.00483 3.16734 1.83606 1.21452 -0.0889967
719 1 15.3752 -6.80871 10.9065 3.04733 -5.44992 -5.28491
735 1 16.0167 8.3706 6.87086 -0.459696 3.18832 2.91578
737 1 20.5463 -15.9297 6.46337 -1.52492 1.92701 1.37288
747 1 11.002 -10.9766 3.24941 -1.16623 -1.18204 -0.343578
752 1 21.5397 -21.0451 6.38782 3.53269 6.59765 -3.4915
760 1 1.43226 5.24251 13.3361 -3.86489 0.237358 3.38987
763 1 17.1482 6.07063 8.64321 0.0413086 4.22157 -3.94767
764 1 20.1086 4.62079 6.5713 -2.51259 0.85619 0.430898
1188 1 2.4881 2.91381 1.20519 -0.542903 6.09644 0.900616
771 1 9.90799 -13.2242 12.4642 -5.6577 -4.76014 2.14693
772 1 6.13432 7.95986 5.08807 0.0612233 4.52999 -0.537754
773 1 11.5833 -20.4139 12.9562 2.72932 3.20869 -3.23101
1394 1 3.70124 6.45807 0.875357 0.842861 2.14499 0.533911
783 1 6.13328 -16.8299 22.9288 8.2601 -0.628681 2.88655
790 1 4.16007 1.3409 15.1969 -2.91588 7.32712 -3.22728
2096 1 9.12958 -5.65212 0.183849 0.377946 -3.77837 1.36558
795 1 19.7037 -7.36497 20.9793 -1.55573 4.55858 0.793604
816 1 18.9486 -21.2163 19.3393 1.13402 0.614633 5.52492
817 1 7.51861 -12.2675 15.3304 1.93535 -3.98017 0.615638
822 1 21.2009 -14.3908 16.7071 6.02276 -2.58157 1.49973
823 1 6.95156 -10.2222 3.45642 -1.66576 2.74865 3.24058
2635 1 0.475494 11.1441 22.304 -1.52213 1.85543 -3.09497
836 1 6.20258 -13.9597 22.4975 -3.31609 1.21566 -1.76424
838 1 21.9018 -19.3997 3.84446 -0.154934 2.23139 -4.46531
840 1 2.79466 -16.7163 13.036 1.77707 -4.09999 -2.19276
841 1 19.8027 3.89528 10.216 -0.852671 -0.528011 1.60801
843 1 18.4615 -5.66741 18.0139 0.633968 0.987092 -2.34288
858 1 17.8978 -13.1485 14.5112 -2.17507 -5.51779 -1.45447
863 1 17.4682 -16.0699 7.28989 0.164019 3.70368 -1.17492
3580 1 -0.260212 -11.707 8.1258 0.351277 4.48849 -1.17666
866 1 14.396 -2.15193 21.2465 2.25948 -1.58177 2.53194
3685 1 5.38501 -2.53686 0.250508 -2.67443 5.45064 3.20795
877 1 1.3656 -18.0721 18.8525 5.20612 3.15966 1.14372
887 1 8.95307 -22.6559 18.7515 5.41919 -0.994346 -0.128877
890 1 13.704 -19.7104 15.0374 -3.10531 1.0563 -2.14447
893 1 20.6335 -5.02905 2.10584 0.707097 6.26581 -3.23663
895 1 1.3937 -23.589 6.10971 4.55878 4.75192 -0.0817596
896 1 10.8253 -4.40691 20.6717 7.89671 4.36042 1.93912
899 1 14.736 -18.8278 17.761 -4.58031 -1.19352 -3.89188
901 1 2.83704 -19.6183 9.62802 0.179395 -1.04132 3.92552
1186 1 7.51235 -8.027 0.201525 -0.108869 0.637932 1.55835
909 1 16.6847 -22.184 11.0155 -0.34957 1.43282 1.41541
923 1 3.46247 -10.2091 0.633494 -0.693651 -5.66192 0.0568796
926 1 1.77261 -14.9235 8.80604 4.5318 -1.03533 2.89435
928 1 8.0823 -17.6912 11.2415 4.57422 2.77965 -1.47129
938 1 18.0347 9.36103 4.82427 1.75067 0.282792 2.34436
943 1 18.0558 -5.99525 1.52603 -0.330014 -7.52911 -0.525125
945 1 4.95902 -22.3529 17.7697 0.311278 -0.680567 -2.78813
953 1 17.3155 -3.15902 1.86375 3.61238 0.629682 -2.19993
969 1 15.7113 -22.2138 4.01529 0.99679 1.64045 -3.1345
971 1 14.7604 -4.85548 21.7383 -0.508423 1.96371 -1.15808
977 1 4.18609 -22.0106 12.8061 -1.37524 1.00806 0.176993
990 1 13.1087 -6.22399 12.9337 0.501276 0.505604 6.72715
994 1 23.2038 -15.5471 18.5023 2.49516 0.983897 4.83979
1003 1 12.4593 -12.9655 11.5103 1.67753 -6.62249 -1.72371
1007 1 12.3166 0.544859 19.2804 1.78799 2.61225 -0.4138
1008 1 4.76668 -2.50992 14.9734 1.28655 -3.0168 -2.43522
1009 1 10.5318 -16.0229 6.63981 2.69275 2.85477 1.68149
1013 1 4.43798 -16.5154 3.3738 7.86813 -2.76217 4.93448
1023 1 10.4033 -0.860148 5.17353 6.43342 1.88102 -2.31404
1032 1 11.8924 7.32583 18.9449 -1.07176 -0.160799 -2.25296
1036 1 3.48222 -12.4228 19.4949 3.83602 2.44205 -1.50146
2852 1 3.42049 -4.47055 0.36166 2.12137 0.905788 -3.92389
3728 1 15.6783 -9.06737 23.9922 -3.95615 -1.22881 -3.57161
1051 1 2.58607 -1.44342 9.78305 -2.75758 -0.406558 -3.57805
1064 1 14.6865 -16.1892 6.62621 -4.36386 1.35344 1.57639
1078 1 10.1903 -6.28139 13.0953 -1.57968 1.29034 -2.31202
1081 1 9.0445 -7.74723 16.8183 1.47635 0.408214 -3.43481
1093 1 22.503 7.45367 4.16145 0.434503 -2.54195 3.05127
1099 1 17.2358 9.5003 15.4343 0.955954 2.93087 3.8946
1100 1 9.64013 -8.11361 19.5407 0.467824 1.84948 -0.399027
1101 1 6.10452 -14.9939 13.1237 -2.29477 -1.59555 0.316495
1102 1 14.1118 -14.9929 16.2623 0.574071 2.39968 4.39107
1213 1 23.4548 -14.381 21.5481 -2.99839 -5.3281 -2.95903
1107 1 2.41082 -12.8362 1.16536 -3.6438 2.46318 -3.10086
1111 1 13.0465 -8.93416 8.42928 -1.20852 0.334418 -0.768482
1119 1 7.76559 -9.24661 6.16364 -2.77912 2.91397 -0.477359
1132 1 21.0936 -5.94496 18.9264 -0.874148 -2.89325 0.714565
1134 1 14.0119 -21.0772 19.4563 -0.492067 -0.704395 2.04307
3865 1 0.623689 -22.1334 16.0763 3.11011 0.398958 3.95006
1137 1 6.22623 4.13899 2.20194 1.65081 -2.36208 0.123742
1149 1 0.349555 -16.0712 10.9248 1.3506 -7.13974 1.55688
1151 1 23.0921 -23.6213 20.7818 -1.89 5.13103 -1.44495
1155 1 4.90294 -18.8777 16.1906 1.40038 3.88047 -5.00972
1159 1 19.6842 -4.73706 13.5454 1.50844 0.182701 -1.92292
1162 1 9.38905 9.45882 2.64128 -1.29013 1.96815 6.0577
1169 1 13.0547 -7.46716 17.3866 -1.81867 -2.2519 -1.03198
1173 1 7.94546 -20.3689 20.2903 3.01682 1.08468 6.52037
1182 1 17.7349 7.83075 0.320006 -2.99879 0.735343 -2.88648
2840 1 5.46334 -19.8308 24.0017 2.9981 -6.00702 1.15801
3926 1 9.61667 -4.50982 24.2217 -1.22843 1.59018 1.01984
3189 1 14.4303 10.6913 6.57236 2.04739 1.25034 0.604657
1193 1 9.15849 -2.02956 14.9251 -0.103078 2.64265 4.26538
1198 1 20.4309 -22.5371 12.0753 -2.64229 1.08985 -6.51653
1200 1 12.8877 -8.45146 11.2803 -4.13635 -1.17574 0.832903
1201 1 22.8372 -19.1154 19.5395 2.71181 5.20391 -0.580536
1208 1 22.6897 -8.11968 8.29947 -1.78036 -1.76778 0.676392
2192 1 0.351852 1.82102 23.6073 0.724367 -0.46056 2.06444
3996 1 4.44445 -13.718 3.28531 1.78105 5.75747 -1.40308
1217 1 15.9491 -14.7996 3.04204 3.49696 0.0887806 6.25373
1800 1 -0.374295 1.84315 10.4699 2.9378 0.748455 1.80646
1224 1 16.9189 -8.03507 12.8821 -1.55464 -0.71319 0.565897
2868 1 2.42753 -24.2944 20.9281 4.25803 -3.53654 -4.83735
1135 1 5.53733 -2.04048 22.7349 -6.80936 -1.58955 1.0133
1248 1 7.37301 4.37344 20.0807 -1.50274 3.45825 -5.086
1250 1 7.4113 1.39877 22.264 5.18964 -4.93545 -3.42156
1251 1 21.1228 0.0803844 21.7165 -1.15379 1.56318 -4.93161
1252 1 19.1137 -18.1571 1.79315 -2.03683 -0.706218 0.98967
1259 1 19.0228 -10.3283 7.29712 3.67093 5.6398 5.86461
1266 1 14.3334 -8.53934 4.12726 1.14619 3.01591 0.460555
850 1 16.7484 -19.9771 24.0741 -0.432845 2.49674 0.210433
1269 1 8.38867 -5.55263 19.6045 1.20326 -0.932773 -3.75337
1271 1 0.247024 4.53887 15.966 -4.88601 1.74202 0.446357
1273 1 19.7171 5.95501 21.974 1.28294 2.65371 -0.7161
1275 1 2.97447 4.12816 9.08534 0.697678 -1.5375 -3.4598
1281 1 13.9166 -8.83832 19.9158 0.544822 3.88787 4.53653
1284 1 6.99395 -13.0015 2.98993 2.97729 0.0331042 -4.56149
1287 1 7.50215 -17.7741 18.7388 1.49282 1.56504 2.82175
1290 1 1.05661 6.51999 6.96913 -6.66301 -1.84386 -2.88725
1323 1 13.6115 -10.7315 12.5728 -4.00428 1.51545 0.283553
1332 1 12.2108 -22.6937 23.2134 6.464 -2.97285 -1.28761
1333 1 0.884616 9.73075 6.62787 -3.56645 2.46279 2.79911
1337 1 9.16354 -19.2129 8.27565 -0.167197 0.997755 4.19359
1339 1 2.19824 -18.094 21.8348 -6.58243 -1.14245 2.57261
1341 1 3.89817 9.82536 13.7899 4.03052 -1.13468 -0.674278
1344 1 18.3218 -8.97646 3.87077 1.06446 3.78388 1.74302
1349 1 2.45123 -12.2269 9.40164 -0.448129 1.38362 -2.12546
1351 1 16.6197 -16.2487 17.0026 1.60308 0.716229 4.48875
1360 1 18.3828 -13.7545 8.62492 2.16286 -2.91367 -4.48727
1366 1 20.7662 -14.2974 0.662532 -6.41393 2.05922 1.97582
1370 1 3.47543 -13.6435 21.9934 -3.82613 0.347947 -1.00936
1375 1 16.5523 -6.7328 3.79291 -0.713837 -0.793501 -0.367381
1378 1 9.14218 -9.89788 1.29078 -1.97362 -0.918959 3.58414
1382 1 15.9379 -12.9795 9.79371 5.48125 -2.35046 -4.76722
1388 1 15.5865 -1.49732 18.7744 -5.33024 -1.31278 -3.75029
1390 1 6.79098 -1.58456 11.0644 -1.44549 -2.46662 0.622215
1392 1 21.4219 4.13863 3.03298 1.28777 -2.15924 1.91072
2385 1 -0.310691 8.22829 3.33095 -4.33217 -3.27143 -1.11737
1401 1 22.3726 -20.7691 21.9475 -6.2401 3.02498 -0.138984
1403 1 15.4567 -23.2969 16.9532 -6.42182 1.67307 3.09394
1404 1 19.9111 -11.6583 9.57162 4.57805 -2.44944 -1.6539
1417 1 10.6365 5.03913 12.9037 1.95004 -2.33161 -3.84178
1857 1 0.176683 -20.0612 2.28038 -1.43502 0.0593918 1.47207
1426 1 7.63798 -20.2559 3.52922 -0.0507113 -0.480248 -1.06972
1443 1 17.4189 -13.6172 17.4555 4.92553 -1.58272 0.144852
1445 1 13.05 -18.9533 11.0993 3.69649 3.42913 1.23698
1449 1 10.5549 -3.26858 1.33284 -2.52279 0.206201 -1.96249
1463 1 5.89519 -0.118787 13.6022 3.98103 0.660226 0.188257
1464 1 3.84591 -18.9052 5.41423 5.00214 1.99382 -4.96975
1472 1 21.5122 6.05172 16.5552 4.73623 2.63991 -2.00177
1478 1 -0.102887 4.51271 3.32026 -3.35129 -1.43317 0.369442
1479 1 10.2921 -8.54314 7.785 2.69581 2.55427 -4.52938
1485 1 9.13009 -11.06 23.2429 -5.33288 -2.38357 2.07454
1499 1 16.4684 3.40538 21.9831 -2.57694 3.12812 0.968847
3964 1 9.27163 10.3933 16.8228 -0.235584 -2.57436 -6.72663
1524 1 0.881211 -18.5107 6.49052 1.79359 0.408821 -1.32724
1531 1 6.18049 -9.08607 10.3036 -0.979079 -1.24528 -2.42667
1535 1 2.32069 -7.87318 13.687 -2.63358 -1.70192 1.02729
1543 1 1.99382 -1.35569 14.4867 5.00154 -3.23568 1.51401
1566 1 3.27346 -8.04126 7.35755 2.69163 -1.13711 3.83967
1574 1 19.5975 -17.9166 4.51364 -4.50682 -3.74664 -2.39733
1577 1 16.0212 -22.3694 6.8433 -5.99834 3.5315 1.50024
1592 1 17.1426 7.09851 13.9309 -0.840822 2.61962 6.78625
1597 1 18.6927 -23.5063 6.95437 -0.315462 1.68678 3.32423
238 1 17.0916 -2.64408 23.5117 1.81828 3.65161 -1.8481
1854 1 4.33188 -24.7178 11.7748 3.73115 -2.9862 -1.91899
1626 1 14.5456 0.826936 17.2429 2.23644 -0.600481 -2.03248
1628 1 17.4864 3.34914 1.01722 0.13405 1.50474 -2.00454
1630 1 11.7867 -7.1819 21.3507 -0.812056 -0.0792275 -3.00093
1636 1 19.0051 -9.33018 11.2124 3.02571 -3.42833 -0.906398
1641 1 20.0373 -12.3093 20.6757 7.35714 -0.622175 -3.81644
1653 1 12.7909 -22.2757 4.73392 -0.158394 -0.76436 5.18712
1654 1 5.09579 -17.0424 11.4376 0.364196 -3.91242 -0.250336
1672 1 4.13499 10.0232 21.5738 2.41058 -5.51715 7.71
1673 1 2.02449 -17.7574 2.21204 2.54851 -2.32711 1.49524
1675 1 1.7943 9.68044 15.7935 0.356636 -4.29991 3.82479
1225 1 0.188979 -20.3137 22.0041 2.21991 0.0204137 3.639
1682 1 6.93084 9.95876 1.26095 2.80514 -3.23632 3.7319
1686 1 11.6653 -9.74719 23.0062 0.962263 3.44348 3.08479
1693 1 21.8034 7.56609 23.4018 0.756151 -2.79357 1.66157
1696 1 12.2444 -2.39602 3.43296 1.20778 2.32292 3.52027
1699 1 13.0481 0.571554 14.718 -1.97358 -3.72519 0.923359
1702 1 1.38474 -21.2699 13.3036 1.45854 -0.486351 -4.02108
1719 1 20.6418 7.57332 0.319906 -3.65595 4.47368 -1.59106
1721 1 5.43133 1.63627 11.4688 -5.29107 -2.13005 -1.51962
1722 1 19.967 -23.2904 17.2131 -4.72731 -3.88343 -1.80222
1732 1 14.4447 -12.052 7.54913 1.81602 3.13166 5.69826
1736 1 17.5433 5.05352 11.5979 -6.13101 -5.45048 -1.46777
3939 1 21.2403 -2.80413 15.2439 -2.87633 2.23109 3.49528
1743 1 20.663 -15.5047 9.27369 3.66438 -2.51534 -0.60166
1749 1 21.3546 9.53633 14.5581 -3.36707 0.0386678 -0.324018
1751 1 2.13773 -10.7355 14.4122 -3.84028 0.184592 -0.637996
1758 1 21.5423 -24.0377 7.36679 -4.39323 0.827614 -3.71708
1759 1 22.493 10.7066 10.4596 -5.10318 5.20852 0.557107
1768 1 13.1027 -3.67984 8.23191 3.2652 2.99707 -1.28455
1772 1 12.2857 -21.2694 1.91659 -1.68475 -2.53071 -2.86029
1774 1 16.9259 -17.1637 22.8474 -1.92831 -4.22191 0.902286
1928 1 23.6555 -2.90989 4.9428 -0.713596 -1.95164 2.90654
1806 1 12.0699 -2.99906 15.2031 0.93972 0.603825 2.35447
1808 1 20.9631 -11.9535 17.9435 -1.64845 0.671666 1.99343
3891 1 6.11091 -15.1808 18.9807 -1.07409 -1.35917 6.31936
1815 1 12.2906 -4.7897 22.9865 -0.243703 3.94742 0.135598
1469 1 19.3849 11.3004 6.28582 3.33637 0.863646 -0.791889
1826 1 19.3322 9.41073 2.19723 -1.88851 -0.599627 0.0328803
1837 1 13.9983 -21.4356 10.0275 -4.08382 2.53642 -2.42379
1842 1 14.6092 -19.6646 3.06616 1.04885 -0.00547195 -0.544491
1846 1 11.6636 -20.2759 6.51424 -0.678173 0.879718 3.20525
1847 1 18.9715 -14.9868 19.7671 1.82521 -0.0701523 0.179019
1853 1 3.17477 -11.7374 6.90935 -2.2695 -0.879165 0.602811
1558 1 8.23352 -17.0285 0.147624 6.18952 -1.76838 -2.27659
2696 1 21.4816 -16.9558 23.0519 1.23302 -0.443456 -1.63798
1860 1 7.31748 -0.708498 8.24105 -3.99516 -0.221204 3.76822
1871 1 18.2365 -12.8318 5.90475 7.58988 1.03925 -1.97929
1881 1 9.97746 4.85523 18.8287 -1.76988 -2.18217 7.90472
1887 1 18.1786 -6.42702 15.245 0.368631 -1.88114 -2.34909
1893 1 3.69961 -0.217718 21.0582 1.58027 -4.3887 0.184536
1909 1 10.3324 -9.0581 12.7227 -4.1652 -0.696493 -3.36591
1914 1 19.6088 6.96788 4.78638 -2.12942 -1.45766 4.60014
1920 1 23.2648 -15.2736 0.885187 -3.69178 -1.66675 -0.273329
1219 1 14.1202 11.1238 9.39968 -1.8187 -3.04978 0.542802
1651 1 14.9725 -17.8943 0.902253 -9.9626 4.1457 -4.07068
1935 1 18.4591 -15.3026 4.34353 3.45194 2.88477 2.74932
10 1 0.227325 -7.9426 15.65 1.50869 -1.79662 0.0616403
1937 1 1.83725 3.07849 18.0148 -0.123575 1.97461 0.0077582
1938 1 2.59657 7.64244 17.9441 -1.14992 -0.636464 -1.5435
1267 1 23.6324 -15.2358 3.59927 -1.69381 -1.38038 -1.05564
1954 1 5.43211 6.76985 10.4775 -0.43759 -2.45644 -0.794
1958 1 13.8034 6.65214 16.9484 0.551495 -2.22331 -0.226993
1965 1 17.3833 -5.62129 20.7542 -0.238527 -4.48438 4.61628
1971 1 23.244 -0.836479 7.4902 -3.96928 0.443816 3.30835
1973 1 13.314 -16.7382 19.6396 -0.365685 3.00212 5.58038
1974 1 16.1516 -10.683 11.2824 -4.26053 -0.917827 -0.102517
1977 1 15.3806 -14.4013 13.699 -0.463786 -0.276109 2.92173
1978 1 7.44571 -4.48562 22.1113 -2.17 3.26767 -8.52346
1986 1 13.9505 -5.91523 2.76249 0.731526 -0.848604 -2.90397
3962 1 2.38658 -13.9587 5.20592 2.28821 -0.338911 2.15233
1995 1 2.26616 2.15091 13.0221 0.8198 -2.78741 1.21428
2005 1 4.21486 -3.19914 17.6247 -1.66319 -2.01222 -1.96884
2012 1 17.9362 -19.7641 14.9665 3.32547 4.17811 0.655821
2017 1 12.4557 8.05567 22.592 -1.49898 -1.00062 -0.318379
2024 1 10.1199 9.53645 12.4442 -4.98449 1.56198 -0.698877
1103 1 23.3439 8.1332 15.9058 0.146329 0.773041 3.11872
3879 1 17.845 -14.3075 22.5777 -5.15793 0.153081 1.17949
2038 1 19.7897 0.983086 11.5477 0.813899 -0.110668 -2.58312
2042 1 7.30973 -21.6581 22.7122 3.50947 0.499472 -1.82569
3871 1 17.6987 0.112355 20.0201 -0.652591 -0.798603 -1.29466
2044 1 3.26924 -6.70739 2.31762 1.78722 2.68103 -0.663221
2057 1 17.1981 -2.71419 7.35781 -3.13151 1.37358 -4.12109
2059 1 3.48463 -8.55094 20.6404 -0.194219 -0.605653 -2.22824
2066 1 19.8483 6.49475 8.90508 -0.453227 1.32347 6.09723
2090 1 16.109 7.99194 17.5935 0.585502 5.42108 -6.34678
2747 1 -0.344444 2.34236 14.2192 -2.60434 0.0470694 -3.54233
2099 1 15.1727 -9.33571 6.63837 5.14913 -2.47388 0.811417
2110 1 3.02306 9.23044 1.46721 -1.31417 -0.0432117 2.36234
2111 1 21.6442 -10.6549 22.034 4.51726 -3.65976 2.11269
115 1 8.11988 10.3518 5.10047 -2.59183 -3.06926 -3.60887
2116 1 19.7356 -3.69919 4.42362 -0.336338 2.19085 -3.65144
2120 1 16.7916 -17.803 11.5008 -2.93287 -0.505744 -1.56995
2121 1 9.88751 -20.7497 23.7245 -0.672926 -6.08004 4.2385
2135 1 17.0912 8.99275 23.1875 0.763789 -0.819944 -4.96857
2140 1 10.5881 -13.9947 18.2071 4.85735 -2.13741 1.75345
2144 1 3.88029 -1.79343 5.49304 -0.744448 1.47355 -0.979285
2145 1 19.5352 10.5409 22.2646 3.24221 -2.50761 -1.57372
2146 1 4.41556 9.99653 18.2551 0.892071 2.02927 -1.59106
2147 1 3.00806 5.42382 16.086 1.15217 0.380031 -4.69129
2148 1 11.2535 -22.2497 20.4655 -5.18593 -1.29002 -2.71212
2150 1 18.6822 -9.14174 0.958102 -1.26047 0.847465 2.84925
2155 1 14.0885 3.58528 20.4616 -3.68868 -5.64826 0.212171
2159 1 5.44166 -20.1607 11.0133 1.68422 1.61248 3.21689
2163 1 6.36429 -7.41486 12.5738 1.0181 3.51039 -4.7356
2175 1 11.6529 -22.663 11.1269 -0.809444 4.10383 2.83291
2176 1 9.67685 -18.428 16.8003 -0.796491 -0.267216 4.60682
2179 1 11.2136 -3.66984 5.97558 -1.51247 0.192733 -1.31388
2183 1 5.57539 -4.15567 10.7879 -0.589968 1.36644 -2.46111
2185 1 7.41907 7.38891 20.0544 2.32365 3.31965 1.89356
2187 1 15.6526 -4.16616 9.25148 -2.7951 -0.718483 1.6778
2191 1 12.7662 9.74424 4.27447 -1.55489 5.1634 -0.294025
2883 1 11.9664 -14.6802 1.04586 4.59616 7.35111 3.93492
2214 1 11.562 9.8321 20.5714 0.750886 -0.225828 4.41027
2217 1 12.9869 -11.4833 20.9894 0.541333 -1.46996 1.94234
2221 1 18.1332 4.77671 18.8863 3.22869 0.335042 -2.79314
2222 1 2.43532 7.48247 4.49119 -0.218282 3.58412 -1.67513
2226 1 18.8073 -1.24252 15.1957 -5.36924 -7.87805 1.11122
2229 1 17.4572 5.59632 16.3685 2.33779 -1.235 -0.524637
2235 1 9.09918 -23.0331 11.9372 3.59992 -6.51871 -0.710422
2245 1 22.5258 -19.0492 10.74 -1.06053 0.929116 -2.21585
2247 1 23.5811 -11.8647 9.45907 -4.54444 4.30508 2.68748
2250 1 0.542243 0.884208 7.57532 1.64285 -5.39409 -1.33255
2283 1 21.7484 -11.5632 7.23311 5.3275 0.977087 0.123994
2286 1 4.11555 -9.55431 3.22966 -3.99822 3.09164 3.62821
2290 1 16.044 -8.26913 21.4594 -9.29357 4.83299 0.700698
2293 1 2.67219 6.05134 11.1238 1.52546 -1.70779 -2.80607
2301 1 5.23614 -23.373 21.3057 1.2136 -0.422706 4.99285
2306 1 3.39261 -4.03937 22.6445 -4.49287 2.67958 1.02277
2310 1 4.36123 -17.4565 8.7821 4.04055 -0.463633 5.49732
2311 1 6.22257 1.31465 1.93567 -7.02493 -2.22151 0.496129
2319 1 5.48131 -9.83427 7.69724 3.35401 1.11205 -1.19371
2329 1 6.90656 6.5868 12.9418 -1.30938 1.61295 -3.1893
2330 1 12.8135 -21.778 16.908 -0.286508 1.21547 -1.94424
2332 1 21.36 -15.9925 12.8697 -2.34708 -0.499949 -0.325472
3878 1 8.04971 -16.5816 8.13345 -2.1608 1.71535 -1.21373
2340 1 8.21512 8.84439 14.3471 -0.681681 -2.64077 -4.07141
2342 1 8.95258 -14.0894 1.13467 2.30184 2.45227 3.19418
2348 1 7.95798 -2.26962 3.90851 2.38648 -1.79461 -2.21567
2353 1 14.4141 -2.24961 6.38495 -3.78963 -1.87324 -0.153535
2359 1 8.77965 9.44224 8.12093 0.0876253 2.05809 0.153377
2815 1 23.2453 8.39592 6.8486 1.30442 0.481948 -0.522864
2366 1 10.1672 3.65154 0.702436 -1.23417 -0.733541 2.35917
2369 1 19.7547 4.02386 15.2582 2.20581 0.996339 2.17234
2378 1 7.21821 -3.00368 18.4839 1.11059 -1.75062 0.827607
2380 1 10.4433 -12.2413 20.7983 4.39769 -0.693991 0.356136
2383 1 22.5945 -18.0417 6.95446 -4.09074 5.07141 1.18412
2373 1 14.6069 11.0331 15.615 -0.690567 -2.70004 -3.33153
2386 1 1.55887 -3.25825 6.58835 4.01101 5.68462 -4.40467
2389 1 8.16698 -10.6827 11.3131 -2.17925 4.67722 -0.483009
2393 1 4.62342 -17.2771 20.5098 -0.98766 -1.03321 -1.70177
2400 1 11.3274 -5.80463 15.7115 1.83692 2.93723 -1.82028
3909 1 1.25715 -10.8431 20.8447 4.94203 1.04107 0.256065
2427 1 13.456 3.09115 3.7263 1.69652 2.69997 -1.32182
2428 1 11.4147 -15.6403 14.5732 -0.664849 4.71052 -0.182238
2433 1 19.7821 -23.0427 21.6831 -0.969287 0.490594 -2.19922
2445 1 1.32074 2.04806 20.7493 2.20864 0.217498 -0.693227
2449 1 18.093 -23.6115 13.1275 2.13257 -5.39553 -2.37501
2025 1 2.70991 -11.2372 23.3765 -0.665191 -2.90675 1.38742
2451 1 8.00419 -22.685 4.75029 6.11287 -0.571816 -2.41432
2455 1 12.1219 9.46618 14.7588 -8.36884 -0.0397637 -2.49124
2467 1 1.01188 -18.8216 11.4986 0.513278 2.76598 1.04659
2497 1 4.74181 7.3549 20.0463 -2.31157 1.28631 -0.570741
2511 1 4.5701 4.63352 18.8555 4.31811 -3.37751 1.79014
2513 1 20.4796 8.57706 7.1376 -4.4648 3.88783 0.584643
92 1 15.8946 -22.8468 1.02648 -2.67712 -0.622702 0.578373
2515 1 3.11023 -20.5155 3.22471 2.45729 -1.013 -0.435454
2521 1 9.62619 6.57466 15.3731 -10.688 2.59866 -1.06897
2527 1 5.75814 4.6119 8.80723 -2.25396 -4.75679 1.11067
2535 1 15.1691 -6.76888 15.0341 -4.35562 -0.201956 3.86688
2539 1 13.7385 -10.8825 17.7973 2.44499 -2.74705 4.49836
2540 1 19.7376 -8.8811 16.0895 -1.50552 3.8688 -3.47447
2541 1 5.00766 7.432 14.8058 -5.57168 -4.24685 0.738501
2544 1 12.6109 2.92425 7.20301 0.760006 0.593666 -2.14022
2560 1 21.6276 -21.779 9.45573 -1.42429 3.72074 -1.7094
2566 1 23.9898 -10.5209 14.4854 1.81433 -2.03021 -3.49983
2571 1 12.2269 -0.485092 21.8431 10.2024 -1.6397 -3.60031
2585 1 16.1972 -16.0993 20.2046 -0.53949 -0.632695 1.24212
2587 1 18.0161 -18.4867 8.77091 -0.512445 4.77647 0.932283
2594 1 22.0614 -8.00567 17.4328 -2.65315 -4.79053 0.769997
2621 1 4.44509 -23.2739 6.96779 10.2914 -1.75664 5.92495
295 1 0.16673 6.85422 9.74659 -2.31778 7.0522 4.5124
2706 1 2.19478 -22.2003 22.9141 -3.39781 -1.58222 0.441726
2645 1 5.90872 -21.509 15.1063 -1.65477 4.70378 0.869133
2648 1 16.7204 0.905967 2.51552 -0.0055546 -0.230216 0.926767
2661 1 7.37378 6.0488 22.763 3.61909 0.521991 1.75146
2666 1 19.9439 -20.9766 2.05879 -3.03722 -2.47305 -1.70859
2669 1 1.91655 -8.35155 17.9111 -0.637267 -3.01989 1.53719
2672 1 6.31519 -6.27606 9.20488 4.07962 -0.110218 0.876352
2679 1 9.25172 -0.635754 1.48053 1.74698 -2.78473 1.29179
1421 1 23.391 -9.55354 6.08656 -1.71959 1.2474 -1.56989
2695 1 14.5605 6.94382 12.1864 -1.2673 0.275209 8.0395
3908 1 23.1916 -14.7552 14.7078 -0.894548 -2.9845 -4.44826
2698 1 15.1737 -13.6353 21.1428 0.474895 -0.782612 4.02621
2704 1 1.80368 -23.0673 3.26693 6.41664 -0.704984 -2.31075
478 1 2.13732 -1.45131 23.3836 -2.09421 0.758066 3.22888
2709 1 21.0316 -3.625 20.6228 4.19539 1.87104 -3.56312
2719 1 20.6866 -10.3541 2.7092 -2.08889 2.98342 0.152349
2721 1 2.96176 -12.1421 11.9519 4.51137 8.15528 6.33943
2728 1 22.3932 -3.21927 12.3314 1.34517 -0.0824664 3.01609
2732 1 2.80402 2.05754 5.20818 5.15638 3.84404 4.85176
2734 1 18.1914 -9.80961 20.677 0.255707 2.46167 3.47913
2751 1 9.20568 -21.7911 6.98978 2.63802 -1.98307 -0.619103
2755 1 1.73077 -13.2302 17.0978 -0.405567 1.48678 -1.61575
2757 1 18.3469 -18.4569 20.547 -0.266879 -0.584894 4.99755
2766 1 9.27725 7.70269 17.9423 3.61974 2.72899 -1.35123
2770 1 22.0574 10.0444 3.05847 1.41117 -1.76316 0.734273
2782 1 7.925 -9.22993 14.5954 3.69509 8.37749 -3.40283
2786 1 6.18916 -4.33444 2.58483 1.63475 -0.643544 7.11091
2796 1 19.2428 -15.5363 14.7061 6.25467 -1.23465 -1.76837
3898 1 18.034 -2.98961 17.604 3.52573 -7.08536 -0.813361
2816 1 2.7585 -15.4323 19.0538 -2.50151 1.91333 -2.24813
2818 1 0.460234 -2.12424 2.17694 1.96871 -2.84114 -3.7508
3953 1 20.6701 -19.1408 15.6222 2.88129 -1.99781 -2.41281
2823 1 12.6664 -13.9559 6.43562 -2.93513 -1.4589 -4.00761
2827 1 5.05513 -9.79734 22.7371 -0.574366 5.25123 -5.41308
2829 1 18.677 -21.197 8.88042 0.24754 -4.01953 -3.30866
2838 1 16.6842 -11.466 22.7317 5.29826 3.27606 0.553006
2857 1 18.3977 8.83234 10.5708 3.61292 -2.22557 -3.40694
1925 1 20.5813 -25.0355 19.4798 2.75629 0.464357 -2.13137
403 1 14.271 -1.21382 24.1164 -1.46793 1.46793 -0.80348
396 1 10.192 -19.1668 2.1135 -0.371013 0.795993 3.35423
2872 1 6.15622 8.29357 8.11975 -4.64264 3.41667 -1.42769
2877 1 11.3106 -6.1503 4.10324 -3.90244 -0.717753 1.29584
3866 1 10.3794 -13.6362 8.29609 7.00376 -1.16052 -0.460264
518 1 22.8555 -21.8456 2.34888 2.00209 2.72021 -4.10548
2889 1 4.25891 -3.46124 8.00876 -0.585041 -0.257968 -3.29041
2891 1 6.27687 -4.78966 15.0867 1.98223 1.87906 2.62606
2906 1 12.3402 3.44586 18.257 -2.09062 2.06634 0.975553
3425 1 22.8877 -10.3226 19.1283 0.644107 1.18087 -1.60679
2914 1 0.817256 -0.310178 12.1088 -3.4976 1.89346 1.15623
2925 1 19.917 -7.72842 13.4006 6.99988 -0.926987 -2.30832
2927 1 12.3447 5.47305 0.751196 0.538011 0.201263 -4.14069
2929 1 5.81067 -12.9982 7.61765 -3.15733 -0.787327 1.55485
2931 1 1.62494 -8.40003 22.9846 2.74774 1.42746 0.308984
2933 1 22.9823 -5.90983 11.8175 3.44769 -0.982102 -3.15496
536 1 0.684159 -7.51139 3.47268 2.40754 -1.99507 -1.89411
2944 1 8.6845 -21.7288 14.4151 1.75272 -4.47862 5.73048
2946 1 11.8996 0.287378 12.0036 1.32429 0.280045 3.90257
3899 1 6.5049 9.48085 16.5752 2.76258 -2.59768 -0.654059
2953 1 14.5857 3.87124 1.11328 5.10535 -1.09011 1.29003
2955 1 11.0473 -9.6709 17.3194 -4.03367 -0.41635 3.16488
2957 1 0.903906 -18.7282 14.5971 -2.34066 0.682212 0.028938
2967 1 0.883074 9.63304 9.38361 1.24088 1.35486 -0.840263
2974 1 22.8849 -0.601433 19.5569 0.331524 2.51596 -0.436124
2979 1 6.60138 6.30972 17.3208 1.50312 0.477083 -1.97025
2990 1 12.34 -17.3584 16.7954 -2.00431 -1.57454 1.98801
2991 1 2.73848 1.55515 10.1064 1.07218 -0.153522 -0.0988778
2994 1 17.9802 2.20432 13.7647 2.77144 1.78869 1.29255
2996 1 12.9771 5.26603 5.67341 4.35664 -6.25565 1.56394
2998 1 3.13054 -14.7024 15.1747 3.05386 -1.31639 1.00491
3013 1 13.325 -19.1355 21.3436 -1.40901 -2.09739 2.67128
3022 1 15.8389 -12.4662 1.54723 -4.38459 -1.84275 -3.3984
3024 1 22.8457 6.13509 1.60242 -0.685647 0.344021 -2.94704
3025 1 6.74807 -21.7454 8.52877 -1.89207 2.70096 1.00688
3026 1 2.40139 -21.0736 7.15256 -0.39637 -1.72085 4.67391
3027 1 13.8978 3.91657 11.7488 -2.4918 1.78155 -1.81626
3029 1 6.57702 3.61048 13.2358 0.722209 1.34418 2.55801
3039 1 16.2749 -22.7902 19.5717 1.42456 -0.957652 3.04702
3040 1 6.48131 -18.9894 13.6139 1.04166 1.97107 -4.59474
3048 1 6.39626 -12.0935 19.6357 2.40613 -0.171741 -5.72249
3050 1 2.49874 -23.1667 18.2559 -0.677614 -0.730832 -0.078596
3054 1 21.7517 -2.30668 23.1645 -3.22453 3.20053 -0.595904
3055 1 18.63 2.8489 3.636 -0.0417876 3.28048 2.94668
3057 1 17.2246 5.91215 23.0184 -2.74069 5.29445 4.37452
3058 1 12.8344 -6.15112 9.24959 2.64558 -0.550033 -2.6862
3066 1 22.1066 -0.967214 0.904084 -7.84276 3.41492 1.99859
3070 1 23.4255 -7.8793 1.72817 0.652017 1.28375 0.768336
3072 1 1.79962 8.24158 21.4955 -0.454191 3.77366 0.61394
3088 1 8.64272 3.91318 16.3818 -9.37526 -0.283206 -1.38876
3089 1 9.33254 -19.057 13.751 -2.39295 0.102084 4.56517
3094 1 13.815 6.52942 20.5846 -0.795253 4.58478 -3.81069
3102 1 3.78341 3.3251 21.4348 -2.60375 1.44477 2.44198
3107 1 20.8374 -14.1378 22.9285 -0.399268 2.74404 -1.02545
3109 1 3.15953 0.368031 1.59839 -2.14784 -5.64979 5.06104
3110 1 6.52176 7.14608 0.969046 -0.214413 4.88282 -0.781211
3118 1 4.36037 6.24872 6.5296 4.13342 -0.104906 -1.22983
3127 1 16.1019 6.0106 2.9205 1.50212 2.99308 -1.1307
3130 1 21.8535 -9.60083 10.5212 1.69741 4.49147 0.549133
3132 1 2.44459 10.2488 4.22758 -5.23958 -0.974313 -0.495942
3145 1 19.8748 -17.6203 10.9531 1.95217 -2.44951 0.168555
3148 1 7.5186 -6.62802 5.02824 -2.59932 -1.50237 -2.19133
3156 1 21.8876 -3.90607 6.78614 0.980808 -2.76149 1.88941
3157 1 10.2625 2.86412 3.2059 -1.04198 0.0113357 -1.73396
3163 1 22.2023 -0.0339657 14.5143 -0.0506089 1.77308 1.71746
3166 1 16.5989 -10.3797 14.4054 -0.045823 -4.05834 2.88894
3176 1 19.9418 1.08001 16.0663 -1.14049 -0.629002 -0.298571
633 1 8.21389 9.65655 23.5965 0.62046 -1.54004 -2.10385
3184 1 14.9287 -3.41847 3.57918 -1.01835 -3.04967 1.95104
250 1 -0.40537 -1.18474 5.49862 -4.92591 1.94602 -3.04232
3858 1 15.9127 5.65186 5.72099 5.65956 -3.24305 -0.4649
3199 1 13.0917 -22.8051 7.57498 -6.15763 1.11111 -1.39039
3203 1 17.3864 9.63955 20.4448 0.392873 -2.52845 -0.345582
3208 1 6.24769 -7.40167 2.51383 -1.67483 1.09781 -4.9233
3209 1 11.3595 -15.1488 21.6118 5.57238 -5.42786 2.55953
3215 1 11.4394 2.92085 11.1186 2.93964 -1.09012 -5.27736
3216 1 22.9295 -1.47338 10.1756 4.20926 1.06344 3.94586
3217 1 10.2557 2.47714 8.62038 -3.68857 2.03288 -0.183581
419 1 23.0761 3.88275 21.7581 1.18515 -2.73212 2.50652
3246 1 17.5059 3.25206 6.48993 -4.409 1.05281 2.04127
3942 1 10.1573 -21.2733 16.7522 8.63708 -0.879477 3.58297
3249 1 9.30765 -2.61798 12.1155 -4.59778 -2.1623 2.64863
3252 1 17.7087 -22.3862 15.5307 2.7016 -2.89675 -2.36149
3262 1 9.26035 6.99112 11.5291 0.587411 0.623859 0.54212
3263 1 22.8864 5.07943 19.037 1.12984 1.99276 2.15376
3504 1 16.9955 -0.966318 0.183223 0.501251 1.84893 2.28357
3266 1 9.86981 -2.12754 22.0739 2.45666 -3.56894 3.21538
3268 1 8.2285 -20.6546 10.8438 6.28294 1.05857 -4.4422
3270 1 19.4302 -16.9225 17.3239 2.64162 -4.40645 -4.98058
3271 1 7.61686 -9.64578 21.0591 -0.764006 1.98597 1.07635
3274 1 14.0937 -18.8075 5.5337 0.0612183 2.02917 2.75822
3275 1 21.8616 7.58671 10.6234 -4.97876 -1.91024 -3.22962
3276 1 9.09938 2.86475 13.6849 -3.9555 -1.19139 -2.71335
3279 1 6.86573 -0.977647 16.2821 1.69544 1.39872 4.90893
3915 1 6.61187 -2.51915 6.46814 3.40056 1.80393 -2.68733
3309 1 3.63133 -2.54567 12.1405 2.21387 1.27868 0.374161
3313 1 15.5687 9.71394 12.8835 -4.542 -2.102 -0.0995574
3314 1 0.266116 -2.99175 10.2131 0.588062 -3.49925 -4.40957
3317 1 3.53955 0.216746 7.50706 -3.1697 -3.82816 -6.33845
3333 1 6.169 -7.07262 23.1867 -0.957757 -0.214229 -0.265886
3336 1 13.663 -16.4346 2.89289 -2.97586 3.54728 -4.3933
3342 1 -0.17069 1.96894 2.12088 -1.46366 1.92682 0.183054
3344 1 17.5488 -19.1941 17.7171 5.86651 1.29727 -2.22557
3346 1 10.7237 -23.6642 0.840437 6.82358 3.10985 2.67931
3357 1 6.01813 -7.06006 20.1242 -1.80026 2.2456 -1.7666
874 1 11.4397 1.19172 0.365771 -0.430141 -2.15362 4.62066
3368 1 21.4415 -20.6309 17.7652 1.4354 0.961338 -0.0649231
3373 1 13.2968 -5.25814 19.2119 3.74322 -6.14308 -5.78102
3919 1 8.45969 -14.3104 20.5439 -1.64989 -2.52659 -2.11885
3377 1 5.7488 -12.052 12.8762 2.00186 -4.91586 -3.47403
3379 1 9.1116 -6.259 8.78652 0.871648 3.04703 -0.7079
3995 1 4.53352 -23.777 2.28956 -1.11589 -2.04819 3.62995
3395 1 14.5234 -14.865 10.9101 4.27976 0.195051 -0.422698
3399 1 0.946183 -4.58647 3.91664 -0.216997 2.9069 3.51477
3405 1 15.9642 4.40506 14.0247 0.554688 3.22776 -0.431909
3406 1 3.90177 -4.76015 4.38273 1.06014 1.62483 -2.89928
3424 1 0.808327 -9.29709 1.22506 2.37584 2.28566 1.08509
3429 1 2.70973 -17.288 16.5744 -1.32968 -4.50245 1.65127
3439 1 1.18603 -14.0826 13.1805 -4.29254 -2.28527 -0.147662
1627 1 18.2716 -6.14871 23.3895 1.56969 3.68889 -4.41068
3465 1 1.63853 -4.4433 12.2535 -1.85183 -1.61108 5.79488
3474 1 17.9578 -2.69948 12.9502 -2.94662 -1.28065 5.27716
3478 1 11.3367 -13.6111 3.89743 -2.23147 0.0838053 -1.01173
3479 1 18.0768 -5.90709 8.89303 -1.29565 -2.03456 2.29131
3492 1 18.4605 -1.20233 3.64533 1.27577 -1.74136 -0.721271
3495 1 22.9788 -4.03616 17.5501 2.20337 -3.98074 -1.31856
3503 1 18.6277 -22.3829 4.0974 4.94947 -2.59068 -4.11497
3505 1 0.424798 -13.1601 3.37995 -0.585986 0.703525 1.90898
3515 1 14.6362 -17.3569 9.25846 2.12499 2.10925 -6.13519
3531 1 3.28698 5.92918 22.4562 1.64374 -1.92831 1.54947
3533 1 15.7632 10.4216 3.90134 -4.73494 -3.82552 -0.100091
3534 1 5.1205 -4.08004 20.2507 2.4898 -5.23281 -3.71609
3536 1 23.2584 -16.4943 9.34808 -0.398828 4.98077 1.43048
3538 1 4.35942 -6.84156 15.5747 5.09215 1.76144 3.96078
3542 1 20.7194 0.638338 4.16448 -1.82605 2.99312 1.51599
3559 1 10.6031 -4.71328 10.7565 -3.65248 -0.824722 -6.54376
716 1 0.0137135 -21.8989 8.82157 -0.566579 2.26052 5.75287
3567 1 2.05485 -9.57208 5.05825 1.20176 -4.27814 1.67342
3568 1 16.11 0.303433 14.9074 -2.97755 0.00230004 -2.31231
3576 1 14.7756 3.88296 16.9326 2.66027 -1.42554 -1.67557
3578 1 21.7467 7.48635 20.3278 -0.862486 0.910077 -5.00339
3981 1 11.4426 -8.59452 5.19301 -5.33043 -1.61359 -2.43312
3584 1 10.037 4.98116 23.2309 1.2219 1.05495 -1.81248
3585 1 11.4765 -1.82814 9.92425 0.600013 1.63265 -3.40921
3594 1 13.0814 0.263231 6.07364 2.79845 -1.24152 -1.3751
3609 1 8.24174 -12.3009 6.61403 0.416888 0.939273 -0.0374977
3622 1 6.5115 -13.5428 10.5756 -3.58622 3.94032 -0.233158
3623 1 11.0652 -0.545147 16.8718 0.863451 0.218206 -1.49604
3624 1 21.7686 -8.09452 4.25106 -0.075245 3.56399 0.246185
3625 1 8.7027 -17.0382 21.5486 -5.7913 -0.250839 -3.93978
3628 1 9.9444 -0.0611278 8.05115 0.957958 -2.59207 2.13534
3631 1 8.69325 10.2074 19.8344 -1.17258 -1.28716 1.22382
3638 1 22.1184 -7.78993 22.114 -0.5991 -2.39524 3.94168
3639 1 6.70802 -17.8204 4.49436 -5.3816 2.30555 4.47987
3643 1 1.17634 3.58672 7.05263 -1.96263 -3.35853 3.223
3647 1 18.6353 -20.1954 6.17003 -1.44976 -2.12023 1.08344
3652 1 21.1517 -11.2523 15.1257 1.71087 2.38354 -1.56208
3660 1 15.7196 8.65807 10.0325 -4.26369 -2.30412 -0.393067
3680 1 12.8239 5.26342 23.2519 -1.40524 1.87553 -4.13117
3932 1 22.9729 5.42629 12.0417 -3.14707 -1.85522 -0.426775
3683 1 5.50398 10.3839 3.70796 2.30351 0.680932 -2.41544
3867 1 22.9221 1.9632 1.62504 -0.437553 -1.82353 4.19761
3687 1 9.136 -14.7641 10.4017 -2.04283 1.45831 -2.07397
3697 1 9.847 5.16553 4.99746 -0.960797 -1.16746 -1.91021
3701 1 15.4914 -2.57832 11.4543 0.526476 -1.14475 -1.49684
3704 1 20.0666 -1.93931 11.0116 -0.480047 -2.69602 4.65642
3705 1 5.41893 -1.2342 2.89332 3.17949 3.12299 4.65265
3708 1 6.01773 1.71392 8.6307 -2.34183 -2.22258 -1.73091
3722 1 19.6772 -7.73716 6.14283 -0.0607316 -4.86041 -4.10282
2371 1 17.0762 -20.2417 1.70632 5.27104 5.06042 -1.83693
3730 1 12.8539 -3.411 12.4767 -5.23807 -5.02286 -2.83193
2415 1 22.0495 -23.3782 23.707 -5.33494 1.05639 2.65533
3739 1 0.00908996 -4.91195 8.27635 4.64886 3.77368 0.58142
3743 1 5.8333 -14.401 15.9964 -1.20232 -3.93136 4.3749
3745 1 3.4529 -9.2562 11.3138 -0.20699 -0.847591 -5.06145
3762 1 9.39614 -10.858 8.85478 5.01771 2.47921 0.589133
3763 1 11.6865 9.7762 7.19767 -3.44755 -3.02971 3.34558
3764 1 16.4658 -11.5772 19.3123 -1.9225 -2.54965 -1.00028
3773 1 1.22863 -3.95058 14.8723 -2.14995 -2.8207 -4.00904
3776 1 8.92548 -4.8155 16.9544 -0.213437 3.50275 0.157908
3784 1 12.2001 0.495777 3.03527 2.54302 -5.83783 -1.06021
3786 1 19.6985 7.20938 18.3549 0.940145 -2.78961 -3.4095
3811 1 13.4559 -14.0577 23.4232 -3.73503 -0.184485 0.698809
3814 1 3.24646 8.91099 11.1812 6.60646 1.33063 -0.622169
3821 1 11.4319 -10.6985 14.7336 0.891104 1.13513 2.10128
3822 1 9.56418 6.7303 8.7816 2.55773 -1.82743 -2.35935
3825 1 21.7177 -13.5032 11.2986 -3.44866 2.28048 0.483818
3827 1 0.267497 7.13975 19.4002 1.37695 -2.73726 -0.362403
3832 1 23.4638 -0.36101 3.41939 1.65051 0.733108 2.41228
3834 1 7.62118 6.21042 3.56744 -4.11138 -4.7075 3.15231
3839 1 18.8171 5.59838 2.24885 -4.37595 -0.611894 1.54881
3841 1 22.4279 3.28094 10.4821 -2.07555 0.966122 2.47551
3969 1 17.0612 -23.6463 22.3368 -3.96252 -4.67119 -2.74616
3848 1 5.92292 -15.4061 6.17833 -1.8376 -0.888043 2.16584
3850 1 19.9197 -19.2218 22.8103 -0.0642754 1.03529 -2.1958
3853 1 20.082 -13.057 3.19117 2.9594 3.33798 -3.67622
2496 1 3.3915 1.44668 23.7224 -0.283631 -2.1156 -0.248608
1613 1 0.0460119 -15.6886 1.83036 -0.236103 -2.86375 1.90111
1185 1 14.8036 6.9271 24.3564 2.15624 1.87271 8.19944
2999 1 12.4737 -18.7705 0.277601 -3.24041 -1.3108 -5.42552
2364 1 2.39101 -1.78937 0.122254 0.461615 1.58591 0.952496
1168 1 11.5111 -9.14573 -0.0228867 1.83906 -2.53376 -2.73958
3375 1 21.7379 -11.483 0.134969 -3.35346 -1.56788 1.60993
1209 1 3.17096 -6.52649 24.1815 4.60236 -1.68149 2.09482
1076 1 21.0238 3.93273 24.0943 1.51136 0.980499 -0.139072
1738 1 4.19507 9.59871 24.1763 4.00373 0.479321 2.5137
3610 1 14.0655 10.0018 24.3304 -0.585304 -3.70046 0.0232633
201 1 6.36962 3.52969 23.9501 2.28023 -1.34643 0.662763
3192 1 21.9949 10.2434 0.157473 0.462802 3.62322 0.951827
1306 1 7.99956 -22.3772 0.157754 2.08331 -2.81311 1.32517
2065 1 14.0002 -18.3889 24.0568 -0.349514 -4.66879 2.82125
24 1 9.48274 19.397 -4.69344 -0.535582 1.7552 -1.02033
85 1 5.99484 13.9548 -2.81867 1.77518 -0.679072 0.0285711
925 1 0.962088 11.8474 -2.89118 -1.84907 -2.51452 -2.36537
91 1 17.9118 18.7901 -20.6418 -1.15546 -3.15612 -0.438842
105 1 4.7385 18.4815 -19.9803 -0.264016 -1.27952 -6.04264
117 1 20.1967 16.6673 -20.2276 1.00725 1.25894 -1.71549
166 1 10.2654 19.6816 -22.9775 1.33105 1.33813 1.47009
1353 1 6.45082 21.7238 -1.05482 -3.2524 2.01149 -0.172621
169 1 4.82586 24.0726 -12.8876 1.63661 -0.625314 -1.22654
183 1 19.6686 13.612 -3.69002 1.91406 1.34056 -3.82852
186 1 14.2624 24.003 -9.93945 4.06961 -2.48798 1.16458
194 1 0.513454 24.598 -22.6585 -3.78799 6.56356 -2.84585
226 1 23.2312 15.6494 -14.1625 -2.00883 -3.37417 -6.72917
252 1 19.621 16.1633 -12.9688 1.4184 -5.55262 -1.00137
271 1 2.66326 21.8071 -12.4739 0.479845 0.169624 -1.57251
275 1 12.6021 23.0979 -21.2455 0.795783 1.74268 -3.77604
296 1 1.02532 15.7853 -2.15308 -0.598687 -2.79396 -4.24902
306 1 13.1047 20.8601 -12.634 -2.09439 0.0187623 1.75654
3902 1 11.6936 12.6445 -8.23408 -0.111758 3.78445 0.69444
336 1 18.6311 15.906 -22.6536 -0.558327 6.15276 0.903444
354 1 10.2574 22.6018 -7.80292 0.770233 -0.541568 4.52429
367 1 6.85015 17.8399 -17.9987 -3.02578 0.647533 0.910539
380 1 13.2268 16.7222 -21.5777 0.881058 1.69911 3.9672
382 1 16.5355 16.5126 -4.73244 -0.867766 -0.268451 1.35393
414 1 5.13345 17.9639 -15.4519 2.73864 -7.07665 2.15876
428 1 9.13211 12.7594 -6.58788 -1.51498 -3.58385 -0.609396
437 1 17.6723 17.8141 -11.3664 -2.39167 -4.31042 0.918116
466 1 15.3145 12.915 -21.9386 -1.36434 1.57473 1.43556
468 1 22.0093 17.9385 -9.85991 -2.00779 2.70072 4.64076
2992 1 21.6856 11.6849 -11.0961 -3.27573 3.61632 -1.04981
1318 1 23.1988 19.5827 -1.05482 6.41858 -1.32664 4.88906
507 1 11.9919 21.2623 -15.2524 -0.686932 -4.46644 -0.945179
509 1 23.1098 14.2976 -18.8302 -2.34581 1.81857 4.11019
554 1 2.6903 17.0483 -18.7152 -1.14893 -0.832109 -2.40088
3174 1 23.424 13.7735 -12.0669 -6.42314 -0.686978 -0.990105
586 1 17.5558 23.2873 -21.2747 -4.56945 -2.36279 -1.62085
635 1 8.53624 12.9487 -3.77691 1.31564 2.80544 -2.29891
638 1 14.1634 18.277 -5.40238 -5.4023 2.32362 1.29391
656 1 1.64255 22.6303 -9.91328 -2.37693 -1.60325 0.729021
680 1 7.63166 22.6368 -9.13112 3.74362 2.9674 1.35496
690 1 0.908937 22.7285 -6.04486 1.94948 1.14211 -3.6683
703 1 6.76453 24.7771 -22.3404 0.80481 0.884479 -3.1971
705 1 6.69017 20.4719 -16.5999 1.72777 1.2271 6.14597
736 1 5.28727 19.718 -7.64234 0.0417823 -3.00906 0.45569
784 1 12.5365 14.6488 -3.54058 -1.36275 -3.85002 -3.07089
787 1 9.34395 14.5951 -13.6491 -0.244985 1.2558 0.753977
3347 1 23.2257 11.4649 -13.6806 -4.26285 1.18467 -3.39371
801 1 19.8225 15.3089 -1.38523 -2.88482 -0.517314 1.00323
807 1 16.7102 22.2349 -23.6434 -4.34291 3.13318 2.96317
862 1 1.11606 14.1157 -8.54501 -6.80176 -1.32739 5.1541
2670 1 23.5917 24.1051 -18.0548 -5.82459 1.80098 -0.564865
878 1 9.2385 12.0329 -23.603 3.94119 3.65893 -0.730148
883 1 16.6309 17.9803 -7.33281 -4.42955 2.94408 -1.84077
920 1 1.68542 13.6203 -22.7293 1.527 -1.08971 0.559436
3691 1 22.0287 47.1583 -5.90302 0.507006 5.41983 1.37231
1128 1 0.0613297 13.5293 -0.36966 -1.68967 -3.98272 3.94375
1820 1 14.9703 11.3286 -11.6941 -3.14786 -2.09127 -5.10005
979 1 5.47074 23.1361 -20.037 -2.99527 -1.16875 0.88042
1000 1 15.8363 16.4349 -9.67431 -2.94802 0.559829 -5.5052
1319 1 13.8358 23.1858 -0.304992 2.3327 3.61737 -3.63398
1035 1 11.8565 20.2775 -3.82833 -2.64873 -1.30464 -0.718462
1039 1 21.0462 20.6865 -10.553 1.76246 -5.03892 1.54153
1046 1 17.0004 14.4831 -16.6096 1.74968 0.518899 6.25848
1065 1 15.1606 21.0339 -18.6174 -0.177601 3.57592 2.21108
1489 1 23.8703 15.55 -1.82372 1.82252 -0.48122 4.23934
1096 1 8.84524 18.7918 -11.7654 -1.69612 -2.81114 0.291752
1127 1 12.7579 19.6382 -7.45204 6.27935 -3.78857 1.45438
1165 1 18.0636 22.3843 -1.76566 -0.745784 -0.186238 0.732025
1181 1 7.75352 19.6941 -9.31952 -5.54737 5.47319 -0.996422
1194 1 7.22228 15.8258 -6.7496 -3.82958 5.45246 -1.55147
1196 1 4.99166 15.8358 -13.7548 -2.14285 0.505474 -3.05094
1221 1 1.99209 20.6057 -22.5908 5.9945 4.92209 -0.465405
1241 1 13.6488 12.8912 -19.5119 -0.0817697 -1.64255 -0.154703
1243 1 8.54621 16.337 -23.0039 -5.76784 2.91068 2.15057
1249 1 7.15614 13.8157 -22.7517 -2.07654 -3.04952 4.49514
1253 1 14.7291 24.8163 -2.33487 1.58283 -2.64159 -1.11345
1274 1 22.5804 20.4494 -20.429 0.598353 -4.71472 -1.00265
1301 1 10.0949 16.4799 -10.6519 -0.826529 4.55186 -4.65128
2802 1 6.71368 12.2893 -10.9475 -2.77928 -1.38442 0.059843
1336 1 2.58476 18.9234 -7.49802 -2.03805 1.14263 -2.52436
60 1 0.704997 17.6648 -22.5963 1.12407 -0.0472917 4.46768
1348 1 3.82601 11.9323 -16.8748 -0.971904 -3.19323 0.183142
1380 1 16.5431 20.6022 -11.5697 0.792789 -6.00839 5.34123
1384 1 2.7099 19.0289 -11.999 -3.29218 3.00063 0.770984
1397 1 5.23754 23.8839 -8.60951 4.19975 6.04854 1.96689
1398 1 3.12629 20.9437 -5.23284 -0.862096 2.23244 -0.25488
2847 1 7.45731 14.4758 -0.20947 1.63959 -1.77053 1.70328
1419 1 10.0843 22.8271 -3.05403 3.25897 -5.21334 1.66968
1423 1 7.36787 21.0547 -21.268 3.21778 -2.21032 -0.713558
1405 1 21.1178 21.401 -23.6611 -5.31945 3.45306 -2.64246
1435 1 20.2015 21.578 -5.59938 -2.31383 2.33516 -0.262024
1437 1 4.31561 14.9759 -22.3551 0.644365 -0.127165 4.25477
229 1 10.8913 11.2762 -10.8425 0.789657 -0.111104 -2.34822
1451 1 10.5317 21.4083 -11.8496 -1.95464 0.931028 3.31055
853 1 13.0561 12.605 -15.1555 2.0708 -1.28387 -1.58673
1480 1 0.912375 14.2549 -4.61494 0.310934 -1.35871 -5.29325
1482 1 5.15235 22.5233 -23.6712 1.199 2.78602 -0.340111
1501 1 9.11502 17.3791 -16.2054 -1.89502 0.452403 -2.07843
1503 1 9.56001 24.573 -23.3188 3.18975 1.04961 -2.91382
1506 1 14.6499 13.2894 -2.1835 -1.63325 1.65077 4.39052
1509 1 10.5998 20.1668 -9.29 5.48431 1.0863 0.168036
1561 1 19.211 18.0732 -8.78914 -3.78186 -1.94182 -0.255149
1564 1 9.77152 15.2413 -8.26083 0.088088 2.56641 -4.75937
1568 1 19.1372 20.943 -12.8737 1.27428 -2.44839 2.67578
1576 1 12.4336 20.4765 -19.7054 3.66896 -3.1473 -3.65431
1588 1 3.51419 17.4765 -23.2251 1.389 -0.086402 1.81929
1593 1 2.50089 22.9027 -19.0349 -0.449928 2.49125 2.30797
1595 1 5.34071 16.1354 -4.62318 -1.4726 -4.83451 0.0892633
1601 1 6.8788 15.0729 -18.2608 -2.30876 -0.27464 2.55431
1624 1 4.88057 19.7884 -22.4408 -4.50943 -2.65155 -2.05041
1625 1 12.9433 13.6582 -10.9858 4.77054 -4.88525 4.91999
1633 1 20.5754 19.0277 -21.989 2.45384 -0.448525 -0.574316
1548 1 17.8863 46.794 -7.17436 2.10243 -0.521847 0.512277
1670 1 3.82712 15.0507 -1.24288 2.03445 1.20016 -2.63296
1678 1 4.19602 20.5669 -18.12 1.66071 -1.05481 0.944298
1683 1 15.3218 24.1924 -16.8888 4.8541 1.4265 3.19773
1701 1 12.4499 24.4787 -4.09713 -2.62145 0.791031 0.406996
1709 1 18.5562 18.4231 -3.66386 1.66888 -1.37976 1.17298
1712 1 11.7298 14.0847 -21.2791 0.0474693 -0.243978 -2.7962
1735 1 0.350203 20.3883 -17.5609 0.13138 0.949329 2.74325
1744 1 15.119 23.241 -7.47222 -2.68052 3.5927 -1.39679
1745 1 6.14434 13.2113 -7.00374 -1.47959 -2.0716 2.57781
1746 1 17.888 23.4786 -13.2752 2.46208 -2.06095 -1.44842
1752 1 23.0336 16.8251 -20.0864 0.257761 -1.8997 3.47366
1775 1 9.15652 13.5944 -10.9483 2.7049 -0.557642 -3.11733
1776 1 10.6952 13.0647 -2.06394 -2.7632 2.77777 4.35123
1781 1 7.48217 19.2164 -23.5843 -4.07293 -3.18049 -4.8345
1787 1 6.5827 19.549 -13.454 -7.11098 -0.524183 -3.05992
2583 1 5.74839 18.641 -0.932867 0.370125 -0.440749 -1.16576
2033 1 9.94274 15.4215 -0.552981 -4.02076 -2.26437 2.24921
3849 1 16.5603 11.5932 -24.2025 -0.597064 -1.67942 -1.39202
1855 1 0.839006 23.2709 -16.7454 0.704161 -4.4374 0.964961
1878 1 22.2257 22.2446 -1.03574 -1.65084 -3.98405 2.18045
1896 1 15.3804 21.2676 -1.58609 -0.125445 -2.29082 0.853551
3427 1 22.2746 12.0023 -16.1888 -6.04622 1.91644 -0.677065
1921 1 18.043 12.5272 -5.92925 -3.16435 -1.13908 2.58501
1943 1 1.81118 17.1784 -5.41174 3.77678 -0.264935 1.37287
1950 1 22.7007 20.1567 -6.61756 -3.65303 4.05873 -1.15373
1964 1 20.8384 24.6114 -16.8128 -2.6738 -3.80553 0.945095
1981 1 17.1515 24.3493 -3.53251 3.38156 -1.71512 -0.504366
1993 1 4.0718 12.9525 -14.1819 -0.32159 1.56158 -1.91978
2027 1 5.07042 17.8462 -11.6989 -0.383936 -1.77813 -1.97844
1845 1 20.7484 16.9924 -24.0548 3.48762 -2.16697 -0.8488
2048 1 2.6478 14.5843 -17.3051 -0.180633 -1.06674 -0.722487
2049 1 17.7966 21.3881 -19.4127 -0.184581 5.79241 0.118438
2089 1 8.85243 14.6422 -20.2335 0.319609 -6.31615 -0.540702
3524 1 0.67021 24.1276 -1.18737 2.74945 0.0997103 0.973126
2138 1 17.342 22.6982 -15.9329 -1.54742 -4.88054 5.01304
2152 1 8.45833 23.3883 -5.3286 -6.2641 2.62382 -2.86351
2165 1 19.1783 19.1989 -15.2728 -2.36693 -0.401909 -4.73195
307 1 13.0657 13.5005 -23.7152 -2.69497 -1.76641 -0.5057
2184 1 15.5901 17.095 -19.5571 0.398193 2.32347 -0.953701
2189 1 1.42779 17.5794 -9.81981 -3.80373 -1.64712 -3.26606
2198 1 3.42178 12.3579 -4.57292 2.22691 1.74733 -7.62982
2208 1 17.1783 20.4426 -5.72134 2.34201 0.310213 2.39246
2215 1 9.50435 17.7027 -2.15655 -1.70415 -0.675363 -1.41753
2220 1 0.907335 17.6385 -14.1974 2.18593 0.74293 -0.138599
2230 1 1.64488 20.1165 -2.87081 0.559024 -3.44596 -4.15267
2238 1 14.3648 14.128 -17.1883 4.16728 -1.25304 0.0265261
2243 1 11.4354 23.6785 -10.477 -3.18933 0.993464 -1.83792
2244 1 22.4373 22.1105 -15.8616 -4.04311 -3.11278 -1.26068
2246 1 2.67294 18.7363 -16.5894 -0.68519 4.48383 3.43503
2256 1 16.2265 19.6687 -22.698 -0.9884 1.68965 -0.721872
2260 1 20.0609 16.7676 -17.2255 -1.33215 2.86335 3.92563
2345 1 7.22109 15.1934 -15.39 -1.1377 1.34462 4.46118
2394 1 16.7844 15.0171 -7.20935 -1.86466 1.0382 -0.157509
2402 1 16.8613 14.9096 -20.9249 -1.7367 3.80752 -0.720488
2892 1 23.2248 19.178 -11.957 -2.47461 -1.04914 -1.23513
2432 1 18.0281 12.8682 -19.1124 0.691981 3.70971 2.28901
2452 1 13.2048 17.3121 -14.8401 -2.2972 -0.488871 4.11424
2464 1 9.20889 20.1811 -14.9736 0.602894 -1.88347 -3.89311
2480 1 0.521892 20.6915 -8.05897 3.4251 -0.216922 1.5286
2489 1 6.54845 21.7655 -11.8257 2.06943 -1.4203 -1.12535
2493 1 20.3656 23.0271 -21.6658 0.771336 -4.58707 0.531668
2503 1 16.7022 15.388 -2.05233 -5.72647 -2.65827 1.58547
2508 1 12.6586 22.4615 -6.06791 -2.6035 -6.06264 -0.537997
2524 1 9.95852 22.189 -21.824 1.09232 0.918984 -4.66162
2549 1 7.0025 12.4978 -16.6578 2.36351 4.5191 0.380579
2554 1 19.9165 23.1358 -7.88434 -0.0244162 -0.614255 -0.380868
2555 1 3.43136 14.8089 -6.44436 -2.6569 -0.00172516 -0.919339
2577 1 14.7313 20.8561 -4.56583 1.51853 -2.28094 -1.49421
2640 1 4.4855 14.5821 -19.556 1.57093 -1.2977 1.42435
1069 1 23.2071 16.3043 -22.9433 -4.18417 -4.30964 2.00315
2676 1 21.2831 22.6152 -19.3063 -1.5978 4.53322 1.1435
2693 1 8.9428 19.3086 -19.6112 -2.75726 -2.82408 -1.22563
168 1 22.8725 21.5719 -4.02343 1.76302 0.286602 -4.76026
2760 1 0.266863 13.3893 -17.935 -0.703195 1.54728 -2.92443
2764 1 8.63697 22.8808 -13.566 3.59844 -0.219026 -2.66311
2791 1 20.8373 14.1512 -6.39733 3.02239 -4.05771 0.852523
2794 1 5.97694 17.1803 -8.93688 -3.73744 3.12252 -4.00995
2795 1 20.6396 13.8427 -20.1275 0.146089 2.02356 0.393836
3482 1 16.995 18.9483 -1.38225 -0.495087 0.124923 -2.32089
2810 1 6.72184 24.4541 -14.9137 0.191669 0.710955 -2.98516
2825 1 13.5369 19.4466 -10.3107 -0.75138 -0.109782 -4.07415
1115 1 23.2965 23.0864 -24.0802 4.62939 -1.55488 5.3347
2916 1 15.6437 20.5908 -8.39395 5.72354 -4.63877 -0.555492
74 1 0.195415 13.2107 -13.7298 -1.24735 0.104297 -2.88241
2940 1 14.258 17.171 -1.19417 -1.01313 5.78883 -1.10685
2978 1 13.3755 19.5436 -16.9984 -4.14227 1.30062 0.496075
2989 1 21.6241 18.0315 -13.9763 3.34532 -2.38286 4.00358
3272 1 2.66346 11.8678 -7.20317 -4.35648 -2.19485 8.59038
3004 1 17.048 17.2955 -17.3006 2.57749 -0.0655074 3.88839
3023 1 3.23019 17.7014 -2.78637 2.21845 -3.88857 -4.96552
3063 1 10.6819 24.026 -15.2206 4.32221 -1.72045 -0.542065
3067 1 17.1816 17.2597 -14.1644 -3.03323 0.843038 1.82474
3068 1 20.7021 17.9961 -1.8221 0.261775 4.02336 0.404136
3073 1 2.87724 22.2656 -1.50772 -1.7077 -0.345833 -1.56882
3140 1 0.30562 16.8091 -19.9741 -3.09667 1.1645 -1.65213
3142 1 3.01378 23.2222 -22.0533 0.376529 -0.408431 3.6498
3143 1 22.1703 25.2814 -22.4 -3.70429 -1.50708 0.313485
3183 1 22.147 16.7276 -5.96656 -1.68913 -4.37293 -0.656331
475 1 20.2861 11.3543 -21.7894 1.1383 -0.684871 -4.141
3227 1 6.87211 20.6844 -5.2892 -1.19537 -0.450427 -1.05803
3238 1 20.1882 18.6405 -6.10828 -1.31251 -1.53198 -2.52596
3244 1 19.2553 13.8037 -14.6269 -6.04696 1.22088 0.739453
3269 1 6.92164 18.276 -3.53999 1.48591 -4.5934 2.74354
3703 1 18.9814 13.2651 -23.5273 1.65264 -2.92125 -0.37617
3284 1 14.8602 23.5864 -19.6121 -2.26836 1.64984 6.05529
3285 1 1.09547 20.7046 -14.654 -5.29851 0.622628 1.21563
3291 1 21.7065 22.6705 -12.9338 1.06525 -0.297563 -0.412636
3339 1 10.6362 17.3656 -21.1303 -5.42715 0.183251 5.71942
3341 1 21.8533 19.1573 -16.8251 -0.759149 -1.23703 1.15556
3345 1 13.637 22.228 -23.659 -4.32141 3.25452 3.52608
3349 1 15.0609 19.1114 -13.5996 4.86461 2.43238 8.36747
3421 1 10.4699 17.1773 -13.5006 -1.56482 2.31616 -1.58486
1083 1 0.0485917 21.4999 -20.5303 -0.305931 -1.98083 -0.554033
3434 1 13.083 16.6034 -10.1698 0.970556 -0.584306 5.4599
3437 1 12.1956 16.6102 -7.19169 1.5911 2.37933 -1.04455
3440 1 4.34756 21.3581 -9.85986 1.13728 -2.97309 -0.0238177
3449 1 7.17519 23.0448 -17.5475 -0.0765506 -1.07482 1.06668
3456 1 9.4609 22.758 -18.8992 -1.31473 -0.782106 4.69651
2443 1 5.48778 11.3357 -22.1283 -0.251169 -1.50889 2.9814
3483 1 11.8169 21.479 -1.23405 -1.92942 -3.61165 0.130023
3488 1 16.3429 14.0112 -13.9171 3.34582 2.62962 0.588096
3500 1 19.5466 15.3696 -8.49795 -4.10441 2.65217 -1.77735
3521 1 2.12282 15.1834 -14.6743 -2.12422 1.05442 2.96679
2411 1 9.68529 12.1033 -19.0717 -4.8378 2.06594 -0.806794
3526 1 9.37574 18.1796 -7.20104 -3.21876 -3.35478 -0.955443
3539 1 14.9453 22.9427 -12.4212 3.05149 0.572668 -1.82696
3546 1 19.2772 13.1281 -10.5874 -0.753979 1.92268 -3.8088
3554 1 13.5536 14.8666 -13.5327 4.55869 -1.56586 -2.09897
3599 1 13.1715 14.2724 -6.19865 -9.16038 0.45782 0.300986
2935 1 9.1671 22.559 -0.1843 -0.529071 3.56249 -1.69325
3608 1 19.6385 21.5295 -17.1351 2.45778 3.27499 0.254742
3644 1 20.0835 20.8448 -2.91754 0.699174 -1.13609 3.47085
1809 1 9.63569 19.5599 -0.0620506 -3.80822 2.86735 3.80937
3657 1 22.8672 22.7741 -10.2815 6.82597 1.29694 1.53128
3667 1 13.4318 16.614 -17.6914 0.18309 1.09277 -2.34292
3676 1 16.5631 13.9715 -11.0361 -0.257511 -2.23823 3.67368
3930 1 13.4694 19.551 0.084589 -2.34595 0.546198 3.80072
3689 1 21.6678 14.6803 -16.2066 3.17179 -0.308412 -2.7363
3693 1 4.94237 22.4467 -3.45849 -1.19083 1.75289 4.98081
974 1 0.219612 23.1651 -13.1694 0.199688 3.40892 0.398217
3712 1 17.5442 23.337 -6.14868 -0.8834 2.66367 -1.58878
3734 1 14.667 13.2151 -8.51786 1.58609 -4.00287 2.48383
3750 1 13.6508 23.5305 -14.9071 2.18039 0.182745 -2.38675
3778 1 4.40982 13.9704 -11.5399 2.79041 -1.63183 -2.42608
3260 1 19.352 46.5948 -5.00714 0.772905 -4.38496 -1.6215
3787 1 10.4447 20.554 -17.5517 2.64709 0.0237265 -2.15097
3789 1 20.3829 24.8277 -14.0414 -5.44323 5.97671 4.35704
3799 1 18.5585 20.8899 -9.14443 3.6333 1.59405 1.2655
3801 1 3.56276 15.7124 -9.34197 -1.78008 0.708238 -1.68133
3820 1 23.2456 12.9693 -6.79774 2.11826 1.57683 -4.96086
3882 1 22.9813 17.5007 -3.40608 0.953054 -1.11386 -4.11934
3854 1 17.2211 12.3455 -3.10806 -3.50814 -2.18201 -1.56983
3883 1 21.2384 15.3688 -10.636 1.75969 3.14681 -3.67951
1913 1 -0.0740133 19.1462 -0.878887 1.37717 0.128575 -5.70703
1026 1 2.61903 11.8868 -10.3473 1.17186 4.15799 -7.24626
3927 1 12.1857 17.4457 -3.15832 -2.20622 0.819884 1.01428
1444 1 13.3892 19.6052 -22.5238 1.07883 -0.522558 0.21607
3948 1 10.6826 16.2405 -18.3531 1.63114 -3.98235 -3.37358
3986 1 16.4845 20.0749 -16.3726 3.66521 -0.0849886 -1.88678
4123 1 0.700772 27.7012 -5.88097 4.31639 1.65193 -0.252753
4124 1 2.04457 25.2399 -6.92577 -0.329573 1.91159 4.50573
4127 1 0.155352 27.9887 -9.98573 2.36661 -0.139733 2.3945
4128 1 1.60977 25.5626 -9.75049 -4.21826 -0.616037 1.38227
4135 1 0.84295 28.0592 -3.18936 0.390489 1.11829 -2.42756
4136 1 2.45624 25.9119 -2.39976 5.89582 4.96011 -2.13024
4147 1 1.1074 32.4807 -5.08274 2.0231 -1.4774 1.34456
4148 1 1.83713 30.2637 -6.49887 -3.08257 3.33531 1.19804
4151 1 0.411313 32.7295 -9.84897 -6.40863 2.83526 -2.64425
4152 1 1.86944 30.396 -9.41848 -2.51944 0.849641 -0.391071
4159 1 1.04363 32.6114 -2.39511 -3.05819 0.343814 -4.13829
4160 1 2.25729 30.1005 -1.9354 2.89172 -1.05865 -2.04138
4171 1 0.630715 37.217 -4.86776 5.46804 5.03036 0.0712825
4172 1 1.95885 34.9171 -5.82752 -5.91622 -3.04419 -1.11542
4175 1 0.56726 37.1919 -8.99348 3.98725 0.477208 -2.13506
4176 1 1.82725 34.6958 -8.71606 -1.42569 4.54277 3.10916
4183 1 1.18677 37.1189 -2.14486 -2.46196 -5.18662 -1.16806
4184 1 2.51141 34.7334 -1.28736 0.967534 2.36472 -0.746076
4195 1 0.840435 42.0324 -4.64164 0.471288 1.39557 3.85206
4196 1 2.11975 39.5521 -5.59384 -0.907379 5.48387 6.257
4199 1 0.710747 41.6963 -9.1817 -0.498107 -3.588 -2.24076
4200 1 1.88357 39.4423 -8.30634 4.01041 -2.7374 -3.12983
4207 1 1.12714 41.5905 -1.91813 -3.9524 -0.551027 0.601968
4208 1 2.44514 39.3282 -1.28015 -2.83053 2.48537 -5.40685
4219 1 1.04865 46.7141 -4.46364 2.69536 -0.649313 -0.359037
4220 1 2.21923 44.3397 -5.45378 -0.969528 -2.60519 -2.7381
4223 1 0.825016 45.8147 -9.31151 -0.227873 1.10248 0.0493925
4224 1 2.4269 43.6114 -8.11997 -1.6117 -1.27475 1.93401
4231 1 1.60748 46.4726 -1.66481 -0.0122159 1.671 -4.81342
4232 1 2.67376 43.9729 -1.20952 -7.77247 0.48007 -3.7564
4241 1 4.63294 25.6113 -6.41265 -2.5223 0.224351 3.50099
4242 1 5.89275 27.9126 -7.47076 1.39301 -0.767999 -0.288184
4243 1 8.38924 27.7001 -6.30213 2.59391 0.44743 -0.0460386
4244 1 9.55666 25.4829 -7.05218 -0.206474 1.31644 -5.61983
4245 1 4.30575 25.6735 -10.4635 0.219803 3.9583 -3.39731
4246 1 5.90298 27.8219 -10.0702 -1.19324 -0.112641 2.08463
4247 1 8.61566 27.9897 -10.9121 2.41918 -0.231066 0.984286
4248 1 8.84928 25.3073 -9.80629 -1.69614 0.133097 -2.51275
4253 1 4.86657 25.4085 -3.64607 -0.418952 -3.18642 2.8178
4254 1 6.19261 27.4107 -2.11967 1.212 -1.08653 -0.0558901
4255 1 8.66492 27.9355 -3.46741 0.612338 1.00299 1.62732
4256 1 10.1984 25.6946 -3.03843 -0.712932 -1.78547 -0.0781667
4265 1 4.72444 29.9376 -5.84787 -6.27652 -4.28111 -5.31746
4266 1 6.01255 32.4252 -6.7237 -2.27771 -0.361742 -2.5638
4267 1 8.56369 32.296 -5.95758 -3.36009 2.5489 -4.12394
4268 1 9.78239 30.0572 -7.30439 -4.18264 0.437132 -2.38305
4269 1 4.34742 30.3096 -10.6103 -0.533528 -2.02463 -2.64734
4270 1 5.77579 32.5535 -9.64563 6.36875 -2.34036 -4.69665
4271 1 8.47831 32.6203 -10.3294 -1.86896 0.197908 -4.78017
4272 1 9.8472 30.1425 -9.96301 1.8201 -3.47372 4.01379
4277 1 4.7935 29.7201 -2.99717 -0.217017 1.67805 -4.10199
4278 1 6.12552 32.1188 -1.82554 -0.693332 1.27104 -2.12672
4279 1 8.4945 32.4964 -3.29486 2.25691 5.80978 -2.56169
4280 1 10.0379 30.2432 -2.7323 -2.34247 3.21626 1.24945
4289 1 4.63545 34.5672 -5.18901 -4.51004 0.107884 -0.270004
4290 1 5.98463 36.9497 -6.11777 4.47117 -4.60784 3.24239
4291 1 8.84023 37.1015 -5.64936 4.64026 -1.9662 1.73113
4292 1 9.84869 34.7531 -6.58585 -4.66155 -2.82113 -2.19841
4293 1 4.36175 35.0172 -9.47269 -0.048549 -2.85858 1.98616
4294 1 6.14485 37.0246 -9.02054 0.0179729 2.38323 -2.02874
4295 1 8.60516 36.9671 -10.1163 -0.676217 5.63707 -4.90637
4296 1 10.0615 34.6139 -9.34716 -1.07066 -0.010016 -1.34461
4301 1 4.87711 34.6226 -2.53322 2.24817 -2.12982 -1.52108
4302 1 6.17844 36.825 -1.62449 0.168089 -1.76574 3.5126
4303 1 8.78911 37.029 -2.60357 -0.852602 -1.82639 -2.19176
4304 1 9.85229 34.6676 -2.26725 -3.91816 1.28098 -0.904402
4313 1 5.03217 39.4823 -4.92545 0.3201 -1.94972 3.59827
4314 1 6.28484 41.5023 -6.13204 0.806361 -0.468028 -3.13388
4315 1 9.08914 41.6975 -5.50342 -2.29129 -1.06247 -2.84051
4316 1 10.1857 39.3284 -6.65227 -2.28555 -0.297568 -1.21152
4317 1 4.55248 39.2202 -9.17093 2.03141 -0.618339 1.81812
4318 1 5.97053 41.4505 -8.76651 -1.10598 -0.635886 -1.15611
4319 1 8.34636 41.5712 -10.1525 -4.48052 -0.764091 -2.18417
4320 1 9.504 39.3148 -9.31411 -0.929443 2.89641 4.87459
4325 1 5.07919 39.4108 -2.14039 2.19435 -4.74829 -6.59391
4326 1 6.29907 41.6 -1.42741 3.88244 -5.49246 -1.28988
4327 1 8.81067 41.9004 -2.56241 -0.856749 1.18672 -0.692151
4328 1 9.79751 39.4088 -1.83297 -3.36544 -2.4964 -3.2504
4337 1 4.96605 43.9194 -5.2311 3.52065 -2.04727 -0.382825
4338 1 6.51393 46.065 -6.33809 -4.77171 3.85388 -0.348606
4339 1 9.02158 46.1068 -5.45268 2.00542 -1.33311 -0.554551
4340 1 10.4179 43.8923 -6.66858 0.480493 -2.04403 2.58938
4341 1 4.91974 43.9416 -9.56852 -2.55742 -2.94473 2.315
4342 1 6.21496 46.3213 -9.28362 -4.50816 -4.32525 -1.00673
4343 1 9.01247 45.9038 -10.0988 1.21314 6.36174 1.84205
4344 1 10.1754 43.4614 -9.45945 1.91433 -1.81592 -6.05498
4349 1 5.1256 43.9066 -2.38668 2.05939 0.438756 0.405605
4350 1 6.38056 46.4044 -2.67131 2.53552 -1.95847 1.91677
4351 1 9.15546 45.8593 -2.65145 2.43829 5.73604 -2.48141
4352 1 10.3927 43.624 -1.24502 -0.152209 0.665766 3.71574
3604 1 11.0795 11.4178 -21.5395 -1.34128 0.818259 -2.48202
2094 1 21.6244 12.0302 -2.34906 0.0812368 2.05837 -3.97743
3894 1 10.6159 11.9495 -13.7642 -7.12245 -4.6446 -5.57635
2516 1 3.80304 11.8706 -19.7103 -0.0304127 2.26373 -2.49887
3206 1 15.2637 12.1005 -5.70573 1.21089 -2.62942 -1.00589
4252 1 9.95448 25.5476 -0.238161 0.27261 -2.33178 -0.938469
683 1 1.15417 11.2456 -20.053 -4.56903 -2.63301 -3.85926
3918 1 11.9076 11.2312 -17.697 -3.83103 -6.52458 1.00239
2137 1 16.7094 17.216 -24.1081 6.89077 -2.27014 0.0538515
6 1 1.82285 17.4147 18.0363 0.288117 4.59098 -6.23744
7 1 6.51708 21.4149 7.39291 0.688089 -7.77486 -0.712667
18 1 20.7657 22.0961 3.08139 -4.75023 2.33426 -1.0895
25 1 6.52336 24.5926 14.9159 -1.04281 1.55007 1.19934
49 1 21.0572 12.331 4.24505 -4.83982 4.65087 -3.25424
72 1 23.032 15.0136 18.9951 0.355246 2.62433 -0.975625
84 1 22.6151 23.5059 21.7932 0.642209 -2.72146 -1.70288
103 1 20.2999 25.4257 21.7735 -2.80206 -2.99863 2.82275
123 1 11.6251 14.5705 7.496 1.13957 3.42106 2.91296
138 1 12.1734 16.1394 5.18418 -2.65779 1.6531 2.66142
147 1 9.33292 20.1514 4.66221 0.422001 -2.85412 1.7544
175 1 9.45193 17.3108 5.48642 -2.97146 -1.79017 1.26016
185 1 20.9821 23.3649 15.401 1.87149 1.25637 -1.71001
202 1 11.5885 13.3076 11.4767 -0.0371058 4.82241 -6.42441
215 1 8.88789 23.773 15.995 -6.66973 2.93882 -1.18092
217 1 5.01499 22.8962 9.32798 2.75574 -0.573795 3.42717
220 1 5.34637 20.5784 15.3229 2.12939 1.88984 1.53776
227 1 16.4178 17.513 1.21498 0.338658 -4.07934 1.02474
262 1 18.8879 18.383 10.0327 0.414324 1.35683 2.12109
281 1 15.2017 19.5617 13.14 -2.50754 3.89987 3.67938
284 1 2.7104 13.6344 0.835209 0.884108 -4.25093 0.472159
288 1 17.7594 22.3362 4.08954 3.97104 -2.4633 4.31114
310 1 1.01866 13.792 13.9299 -0.797941 -3.99273 -4.05244
328 1 14.5918 20.6149 15.6943 -3.05196 3.20519 0.983726
360 1 5.67652 16.4567 0.893873 4.73758 0.223101 1.03877
1771 1 -0.00874598 21.9248 9.41342 -2.09627 -1.23856 1.97829
418 1 22.3725 20.1409 5.7459 -1.399 0.192659 4.06188
435 1 3.93592 23.0701 6.62485 -2.95252 0.679369 -2.03395
443 1 21.1236 25.1649 13.2881 -3.53021 3.33136 2.05321
447 1 7.86359 19.7672 13.8676 3.21811 1.85341 -4.77286
3911 1 20.9693 18.1369 1.28235 -0.542447 0.740225 -0.44733
457 1 7.38398 21.8496 17.4467 -1.83552 -2.4923 -8.43053
458 1 23.5083 18.9732 19.239 -2.24453 1.63851 2.02202
463 1 6.74723 14.2039 11.9571 3.53041 4.55998 -0.922613
473 1 4.70617 12.0893 11.9558 2.79595 -1.98852 -5.53149
487 1 2.89319 24.0343 16.7941 5.33416 0.807143 0.417559
566 1 19.8654 14.5992 14.7735 -2.92099 -1.35929 4.85905
2993 1 23.8267 16.9587 17.1718 0.292177 -3.07191 -1.87814
627 1 19.9925 14.3199 11.8744 -1.7441 -1.57627 0.430488
646 1 14.9703 23.3956 15.235 -1.88408 -1.06567 -3.07309
658 1 20.7114 11.6765 12.5933 -2.62229 -2.27607 -2.84586
671 1 19.6142 14.2792 2.93345 0.14573 -0.342153 1.43404
715 1 3.77695 16.7015 10.334 -2.07538 2.45466 3.3318
725 1 3.29163 18.1189 22.5459 2.34612 1.81016 -4.50304
740 1 17.563 12.4779 19.2993 2.93974 -2.96585 -1.68403
4360 1 11.1726 43.8815 5.86858 0.11815 -0.0924399 -4.85308
762 1 6.10718 17.983 21.3923 -0.66286 1.16328 -0.605143
769 1 15.6536 24.4734 18.0118 1.21359 -3.15106 -4.46925
774 1 17.1651 16.1823 14.8481 2.57687 -0.876931 -0.878744
805 1 10.3709 24.9871 22.6063 0.841371 4.7674 3.58103
1004 1 23.2077 23.604 8.61054 1.07447 -3.33799 5.887
820 1 1.82177 12.6746 8.79667 3.36298 1.07083 -0.121943
829 1 19.3753 16.4262 19.6179 2.08246 -1.54896 0.35266
870 1 15.8732 20.5867 18.0144 -1.4587 -1.58592 4.17661
875 1 19.8779 13.9015 9.01278 -1.18152 -1.48501 2.9561
880 1 6.24926 15.1263 20.3866 4.3122 0.772802 -3.53774
894 1 2.77793 12.5526 21.5822 1.74568 -5.7686 2.508
927 1 7.3048 14.9494 17.5932 2.29803 -4.3692 -1.11999
936 1 9.09898 12.4788 12.863 -1.20312 0.0712687 0.121426
937 1 3.40443 15.077 20.3123 -3.58288 -0.481173 2.68596
958 1 1.76557 14.4603 17.8582 4.05572 5.91 -2.43681
980 1 5.53298 21.0935 11.4994 -3.45868 -0.310127 7.35419
2861 1 13.1494 12.045 22.242 3.08544 1.93809 -1.32533
1019 1 7.39397 17.2614 3.41337 1.16022 2.9192 -5.91841
1050 1 18.5873 21.7038 17.8925 -3.49207 -0.982174 -3.02019
1063 1 1.50989 18.6345 10.2243 -4.80395 -1.71834 -2.14116
1097 1 17.255 22.8245 13.3057 2.50717 -2.18577 0.768607
4357 1 5.72853 43.6402 5.37518 1.5297 -3.70694 1.38227
3180 1 0.46816 14.5609 2.90619 0.132055 4.95655 4.04027
1108 1 15.7731 12.5572 21.9403 0.700609 2.9214 -2.44835
3684 1 14.0213 15.946 24.1376 -6.12057 -0.582873 2.80375
1142 1 7.44296 12.979 6.26261 -2.02897 0.395354 -2.02053
1145 1 2.81522 20.8858 21.532 -4.50619 0.00934927 -2.45706
1146 1 10.8956 17.778 19.3285 3.27235 3.57677 1.26289
1170 1 2.53767 14.1487 11.4089 -3.56669 -4.00909 0.029641
1184 1 7.20353 20.3193 22.175 0.845868 3.34541 -1.53887
1189 1 13.7846 14.0624 3.63293 4.72945 0.677494 1.00294
1222 1 21.1654 19.7942 11.2174 -2.20299 -0.576343 -1.89712
1234 1 15.3165 13.3232 6.05292 -1.17004 7.39149 6.20995
1235 1 11.2996 18.3042 1.78723 2.80421 3.87536 3.00701
1297 1 15.7856 13.8726 15.6843 -2.84739 1.12768 -0.680362
1313 1 17.5729 19.0091 22.3013 1.20554 -0.48859 0.812865
452 1 22.2438 15.6348 0.447865 -2.40935 -0.357452 -1.27936
1328 1 10.3477 12.2968 6.0476 -2.44741 1.8853 -0.138028
1352 1 6.00796 24.1484 20.3162 0.00947368 -1.47595 -0.10077
1362 1 20.4431 19.5088 7.59821 1.87712 -0.814858 2.45403
1381 1 17.7528 15.913 11.4115 8.03923 -3.90497 -3.16631
1414 1 6.63923 23.2634 5.00878 5.09559 1.82753 1.76617
1430 1 0.721076 15.6735 5.32791 3.87662 -0.932348 -3.14936
1468 1 20.9726 25.3012 19.1016 2.84997 1.22498 -2.17146
749 1 -0.292893 13.9389 7.46691 -3.44714 0.0592172 2.73219
1526 1 19.842 22.693 0.355782 -2.97862 2.01649 4.87928
1528 1 11.1775 14.2709 15.9796 1.70973 3.96492 3.81113
1530 1 15.8056 17.5171 4.31941 4.3688 0.980744 2.60912
1533 1 12.5582 20.6538 12.6766 4.19606 1.6682 -0.798433
1538 1 6.45654 17.7554 17.3337 0.624962 -5.46129 -1.20099
1559 1 20.9413 16.7926 3.683 -1.59525 0.984164 2.65297
1569 1 7.79848 14.4694 3.49488 -0.703149 3.75522 -1.12457
1591 1 13.7084 12.4946 0.477424 2.71826 0.363082 -0.874217
1598 1 4.4254 12.8406 2.8683 -4.91186 -1.23783 1.2207
1618 1 10.9381 16.4752 14.1621 -0.595015 1.68102 0.0489397
1619 1 15.0866 14.269 18.4424 2.8519 3.68762 -1.46519
4359 1 9.86405 46.2809 5.10715 6.01179 1.25186 0.000664598
4276 1 9.97515 30.1564 0.153659 -0.274839 0.70224 0.157415
1684 1 6.3411 14.6858 14.703 -3.55894 -4.13602 -0.493946
1713 1 22.0772 16.0738 13.0427 -4.11153 -2.75422 -2.07416
1715 1 11.6703 23.5241 16.871 3.49655 -0.782905 -1.84714
1726 1 18.6867 21.4769 22.992 3.53794 1.24055 -4.73546
1740 1 2.98382 21.2895 16.5391 -1.39911 -0.878036 -0.715666
1741 1 10.745 13.5956 23.0957 3.38569 1.17282 2.47085
1750 1 16.2324 21.1671 10.954 -2.52347 2.49614 -3.85887
1762 1 3.37561 20.463 3.86216 2.81969 0.517507 3.55336
1767 1 9.52194 25.3423 18.2569 1.38622 -1.20207 -3.25027
3938 1 19.9217 12.2527 17.5785 -5.52727 1.2529 1.98024
1773 1 18.2289 13.6406 6.65406 0.417267 0.48566 -0.283235
1797 1 1.88391 17.4523 15.2518 1.48614 -0.409124 -3.1836
794 1 6.08944 16.7104 24.1375 4.58032 0.439627 -0.34758
1821 1 19.2026 23.9541 11.5989 3.52257 -2.70283 -1.39875
1829 1 4.59019 17.5337 6.10456 1.52715 -4.31375 0.803873
1835 1 5.54208 24.3863 17.496 3.46849 1.54415 -0.150435
1838 1 18.8714 19.8648 0.544309 0.798428 0.514228 -0.942416
1839 1 19.9927 23.2343 5.48847 0.182684 4.31056 5.1379
1866 1 8.26707 22.0837 11.976 0.157842 -0.274376 -4.67339
1884 1 17.0077 14.4196 9.21118 -2.81925 -5.62023 1.90616
1886 1 19.1441 22.1851 8.01147 -2.40398 -1.77479 0.945792
1922 1 10.0823 14.9545 18.6301 2.3527 0.0502225 -2.3204
1929 1 7.44382 19.3588 1.50917 2.04415 0.734083 0.0989188
1957 1 14.4305 15.0706 8.12928 1.74603 1.95618 2.83301
1984 1 2.42941 20.1225 18.9275 1.47003 -2.22552 -1.22521
1988 1 7.1057 17.764 7.76743 -3.43156 0.0139099 -3.30459
1992 1 12.1875 20.3367 3.87268 1.6517 -1.05725 -5.28803
1997 1 21.1457 22.3455 10.0019 0.658697 3.61865 5.37068
2019 1 1.03368 24.1301 18.9467 -3.47751 -1.68843 3.3795
2022 1 17.2416 23.6887 9.43571 -2.88762 -3.47459 -2.72423
2026 1 8.2531 20.294 9.51518 -1.55816 5.18619 -3.6524
2055 1 3.80277 14.6992 8.09764 4.61961 -2.01911 -2.81846
2084 1 15.3617 18.9272 20.4667 -1.27672 0.842726 0.412883
2088 1 9.00638 21.0905 20.1528 -0.253198 3.07957 -2.62234
1723 1 23.7141 16.4252 3.05673 3.97649 -1.7429 4.88235
2134 1 11.8952 21.1832 8.64505 4.75538 -1.15259 -0.324628
497 1 10.2052 16.1876 23.1438 1.66198 -1.46414 -1.96268
2177 1 20.1274 18.7037 17.6512 -1.72703 1.68676 2.16817
2197 1 17.7411 24.0524 21.9222 -0.358418 0.554263 -4.25441
2240 1 14.7626 17.8306 16.0604 -2.98531 -2.22215 -5.48793
2254 1 4.88506 17.5602 14.7865 2.13667 -3.25781 1.40588
2281 1 18.6845 13.4097 22.1071 0.755491 3.13815 0.863565
2287 1 21.5344 17.2039 15.6071 2.78065 -1.9346 -1.83295
4356 1 11.383 43.5294 8.57526 8.10505 5.52685 0.0602993
2300 1 8.442 12.5039 1.44706 -5.01397 -4.17859 -5.15231
2304 1 8.7278 15.4463 7.53779 1.99415 -2.21418 -2.75121
2309 1 20.3075 18.3073 21.8551 -1.76215 0.446343 -5.65908
2343 1 10.1694 22.7406 2.89782 0.921096 2.69682 -0.235783
2344 1 13.3223 25.4499 3.45156 2.31296 1.52373 2.01956
2360 1 13.5872 16.7434 2.54721 -9.66044 -3.54813 2.58037
2367 1 6.14968 18.3347 10.6699 1.56753 2.68424 2.947
4355 1 10.1859 45.8964 9.40276 -0.1544 3.32475 3.65471
2375 1 10.3626 22.828 13.6938 0.387177 0.836966 -0.2101
2388 1 8.86639 23.9787 20.7132 -1.56161 -0.858426 0.508916
2395 1 4.3358 17.9317 19.1846 -0.962319 -3.80084 1.76302
2424 1 23.3248 15.3144 7.27298 -0.0160541 1.50802 0.459554
2412 1 9.96583 18.7151 15.4529 -3.0387 1.64872 -1.65223
2416 1 6.63028 12.499 9.18446 -1.52688 3.02285 -1.65437
2423 1 13.4926 20.2481 6.38505 2.70072 1.03886 -1.9781
2444 1 13.6281 22.2468 18.669 1.53761 0.235638 4.63445
2456 1 21.2436 21.0239 21.6679 2.38068 -1.79167 6.31592
4354 1 7.38853 45.9659 8.99114 -3.50566 -0.238111 5.14886
2492 1 23.0875 13.4025 2.44247 -3.34554 3.79872 -3.40336
2500 1 9.47924 21.6412 7.1382 -4.10961 -3.41396 -2.49142
2501 1 4.82123 13.3782 5.71124 -3.72906 5.71082 -1.19205
3757 1 -0.0882745 21.9252 0.738225 0.689469 4.8459 1.25704
2553 1 0.910558 24.459 14.7747 -3.28687 3.89575 3.49294
2565 1 13.6507 17.0556 13.2186 -0.390704 4.50752 5.78369
2575 1 2.91691 16.4173 2.02056 -2.24572 0.478236 1.70664
2576 1 22.3944 20.9587 15.2281 0.135794 0.164643 -0.139742
2582 1 12.748 23.7577 9.42523 0.688872 -0.261509 -3.56328
4358 1 7.38116 45.8028 6.16909 -3.09524 4.67941 -2.25914
2600 1 5.41903 22.8765 1.15224 -2.27332 1.24666 0.925095
2606 1 16.6831 16.5106 19.4231 0.995855 3.62286 -0.789534
2627 1 15.1001 23.9915 7.4763 3.68131 4.38953 0.246434
2631 1 17.8909 14.6574 0.660723 2.79327 -4.846 4.04763
2671 1 11.8779 21.2758 20.5381 1.28518 3.97675 -0.690023
2712 1 17.0107 14.7902 4.14061 -4.15546 -3.70602 1.55751
2716 1 15.9195 12.7178 2.33316 0.564205 0.114852 -2.25874
2717 1 11.0247 19.3311 10.7445 2.0334 -1.62516 4.5613
2736 1 16.5009 15.4742 22.0025 1.37435 -1.76906 3.26005
379 1 23.7904 22.9454 3.06861 -1.04761 4.59738 3.12475
2773 1 9.26504 24.1875 5.57577 0.042716 0.631754 -0.54706
2779 1 20.6289 15.0275 17.5731 1.11976 1.58486 3.66354
2781 1 13.7932 23.1283 11.8132 -4.95597 -0.979812 3.16145
2801 1 2.25159 17.2637 7.6042 5.44777 -0.476346 -3.15495
2824 1 8.56359 13.018 15.7158 1.99629 -1.37462 2.71844
2844 1 20.9427 16.5623 8.42873 0.466636 -0.607932 4.31852
4353 1 6.11528 43.7204 9.68603 2.22144 -4.37964 1.81366
2879 1 2.357 17.7932 4.43987 -0.84949 -0.0884537 0.403965
2886 1 11.8642 24.2483 1.36718 -2.02059 -1.36302 -0.417663
2920 1 21.852 12.9099 6.95782 -1.13264 2.73789 1.07358
2932 1 8.81113 19.2597 17.9449 1.65538 0.0448763 -0.0174544
3641 1 6.44871 12.3322 18.909 0.332171 -0.521549 0.9755
3001 1 11.6021 12.1463 8.90372 -5.5762 2.35802 -1.59113
3003 1 15.7827 12.6765 11.1505 -1.2416 0.818307 0.708984
3035 1 19.5568 16.0328 6.06534 0.807668 0.738742 -2.33112
3036 1 12.6007 18.8054 21.1759 -0.255281 2.48146 -2.53443
3047 1 6.23822 19.5986 4.7965 -3.76237 2.31142 0.229288
3086 1 14.6063 20.5815 2.52954 -2.0406 -0.94496 2.19963
3123 1 15.4492 14.9351 12.8826 1.91231 -2.9227 -4.87864
3154 1 7.16624 21.7978 2.9497 1.57323 1.20227 9.08088
3170 1 5.10826 22.1948 22.0459 -3.08942 -2.237 1.83456
3173 1 10.7219 16.5626 9.84244 2.06681 -4.78411 1.05938
3178 1 17.7505 18.3644 12.8737 3.17062 -2.009 1.28251
3236 1 17.0972 20.1276 8.48477 1.49477 0.491376 0.0375283
3243 1 8.81472 16.6549 20.7631 -2.92033 2.43697 4.52294
3251 1 0.473917 16.2379 11.3066 -0.731253 1.10589 2.40272
3253 1 9.8406 16.0825 2.21374 -1.63496 0.233988 6.00056
3259 1 17.2737 19.7492 2.90479 -0.777 3.98799 0.295818
3280 1 9.5005 15.4339 11.9868 -1.99562 -1.37309 -3.17082
2865 1 4.42256 11.2395 0.437935 -1.17963 -2.97328 -0.356104
3310 1 15.9681 21.6773 6.16556 -1.35248 2.92607 -2.9298
3338 1 11.5979 20.976 15.3199 -1.14477 2.06455 -3.17076
3352 1 5.0818 15.6115 3.70935 -0.257599 0.944102 2.38078
3380 1 1.19431 16.5866 21.4821 3.10572 -0.386401 0.75077
3418 1 20.2447 19.2695 13.9648 -2.97105 -2.28324 0.302051
3457 1 21.1149 14.6362 21.2448 2.95752 -2.66216 3.35916
3467 1 13.2325 13.2159 14.0095 -0.489525 -1.39476 -1.80408
3476 1 3.2256 14.9459 15.2584 0.0442044 -2.63089 -4.49859
4300 1 10.6156 34.6466 0.359179 3.73708 5.39157 -2.9445
2819 1 17.9846 12.3128 15.2398 -1.09365 1.35086 2.48681
3486 1 18.2114 24.1544 18.9894 -4.39316 2.08247 1.61965
3493 1 4.19348 12.8768 17.0924 -0.258772 1.12064 0.114968
3537 1 22.5575 23.3787 17.9151 2.86546 2.24816 1.2715
3545 1 3.45619 19.2337 12.588 1.88079 -2.4718 -2.71502
3552 1 14.0533 17.5302 6.7004 -1.52993 -0.702858 -5.16962
3570 1 12.4562 23.0641 22.6057 -0.447139 1.9234 5.38911
3571 1 2.43075 23.8426 10.319 -2.84464 -1.6151 0.672446
3602 1 1.67859 23.6832 21.5471 0.257132 0.232019 1.33837
3605 1 18.7588 21.378 15.2206 2.2766 -1.36261 -3.03437
3613 1 1.83867 22.4747 12.9087 -0.921996 6.90699 0.329073
3615 1 2.92614 21.4351 1.2898 -0.859785 -0.809771 -1.48782
3619 1 0.344077 19.4093 7.56129 1.93197 4.03616 0.215745
2409 1 5.74956 11.9806 14.7724 -0.777615 1.39472 -1.90939
3658 1 22.0052 12.3272 15.3019 -1.63155 -0.887075 1.52348
3664 1 7.04567 17.0787 12.899 2.78061 0.0418427 -1.35683
3669 1 0.0561759 21.8889 3.77158 0.836326 0.481934 -1.04667
3713 1 1.90029 21.3598 6.0616 -1.36646 -0.185852 3.40774
3715 1 21.3098 20.9648 18.84 1.11717 -5.98274 4.55092
3720 1 17.4261 18.2893 17.0597 3.95767 3.51991 0.0861085
3732 1 18.2413 18.4936 6.19808 -1.96752 -0.98401 6.33673
1979 1 -0.24796 20.2783 11.9736 5.3828 0.569428 1.93832
3760 1 15.3699 23.6845 2.44697 -0.253002 -1.12413 1.21492
3783 1 19.9884 19.49 3.83399 -3.00366 2.62475 3.35424
3788 1 6.47533 15.4261 9.32269 3.80633 0.384098 -0.721713
3795 1 14.8181 24.0418 21.0857 4.77586 -0.87906 7.99369
3804 1 13.4056 15.6035 10.7029 -2.99289 1.1371 -0.994651
3818 1 12.1102 18.1158 23.9237 -0.269701 5.29309 -1.78215
3819 1 4.62186 22.9895 13.5823 0.483532 0.413845 1.91154
819 1 10.4637 12.7546 20.2479 3.65375 1.85716 -0.347523
3837 1 10.8258 13.7186 3.67924 -0.803104 4.31779 -4.61142
3859 1 22.4469 17.3903 10.4457 -1.69327 1.46799 4.00204
3885 1 12.54 24.5776 14.1388 -2.3871 0.684385 -3.05061
3890 1 1.19538 20.1653 14.5752 3.34727 -1.84765 0.776929
3897 1 6.24369 14.0823 22.9805 -2.1789 -1.78138 2.72821
3304 1 -0.286034 16.5932 14.0784 -2.45543 -2.20695 3.94854
3974 1 7.31014 24.71 12.1941 -4.16752 -4.73697 -0.42405
3987 1 12.8357 16.227 17.5239 3.57823 2.08451 0.212637
4131 1 1.16966 27.5276 2.08666 -0.270802 1.65915 4.41254
4132 1 2.40118 25.6551 0.469828 3.81243 -2.81646 1.60308
4139 1 2.27844 27.6218 8.68968 -1.28587 1.94886 -0.977333
4140 1 3.71513 26.2243 10.6657 1.83572 0.412785 -0.201825
4143 1 2.03815 27.8673 4.89199 0.929691 -0.0461411 1.1831
4144 1 3.05894 25.7729 6.39293 0.436755 1.88074 3.35298
4155 1 1.60403 32.0117 1.77778 -1.13612 -3.31235 -0.329807
4156 1 2.47386 29.6617 0.792569 -7.18899 0.904693 1.38454
4163 1 2.11387 31.9174 9.72099 2.85781 -1.5299 1.04652
4164 1 3.65457 29.956 8.49062 -0.246041 -1.2337 2.07565
4167 1 1.45686 32.437 4.80966 -2.17804 -0.197727 -3.74835
4168 1 3.10143 30.3401 5.76241 2.56675 0.865319 0.49684
4179 1 1.52051 37.0457 2.55359 -1.24846 0.0787842 0.1281
4180 1 2.77651 34.4782 1.5821 -1.69858 -3.40528 1.90749
4187 1 1.66913 36.9363 9.34504 2.79627 -1.16107 -0.433958
4188 1 3.10792 34.563 8.82754 -1.27791 1.82976 2.63536
4191 1 1.64953 36.9184 5.20979 -0.251478 -2.08092 2.39744
4192 1 3.03037 34.7017 6.05077 -1.51069 -5.74634 -6.11602
4203 1 1.40431 41.4228 2.69344 0.735795 -1.76078 0.809104
4204 1 2.65044 39.3499 1.51549 4.81294 -0.364455 -1.43054
4211 1 2.00021 41.4013 10.0999 -3.0104 3.7617 -2.84305
4212 1 3.33512 39.1449 9.26226 -0.113444 -1.09375 -3.50411
4215 1 1.83086 41.3378 5.48012 3.05267 -1.58654 -6.2409
4216 1 3.25735 39.0937 6.24998 4.34888 -2.35872 -1.70346
4227 1 1.64859 46.1709 3.25949 -1.98613 3.1542 -0.17791
4228 1 2.5484 43.8237 1.90876 -1.90189 0.0610599 -3.06296
4235 1 2.4307 46.1518 10.6514 -4.83118 4.28736 -1.33337
4236 1 3.41601 43.649 9.46523 -0.753556 4.58873 3.97986
4239 1 1.8921 45.9194 6.0908 -0.0932111 -0.756527 -0.761265
4240 1 3.21476 43.5153 6.75964 2.99871 -2.73582 -2.29276
4249 1 4.80397 25.387 1.75809 1.04497 -1.38494 -0.0227592
4250 1 6.12698 27.6912 0.597762 -4.54999 0.766246 3.80475
4251 1 8.94282 27.8682 1.14204 2.83419 2.9472 3.15441
3836 1 20.9151 13.0757 0.39718 -2.21046 -2.34261 -10.5944
4257 1 6.07751 25.5846 9.77344 0.342687 1.12987 0.345346
4258 1 7.47552 27.4256 8.10671 3.64078 1.19486 -0.999512
4259 1 10.11 27.9336 8.6186 3.94796 -4.23821 -2.9633
4260 1 11.6339 25.8847 7.85969 3.9902 -2.63848 -3.1453
4261 1 5.2728 25.774 4.5373 2.63742 0.665145 -2.62065
4262 1 6.8729 27.7878 5.21474 1.19319 4.12985 -1.81381
4263 1 9.34358 28.0189 3.8963 4.64339 -3.07932 -0.420602
4264 1 11.1141 26.1822 5.07965 -0.0459727 -5.09769 0.137495
4273 1 5.22058 30.1477 1.78754 -1.3845 -0.385265 -1.91147
4274 1 6.55903 32.3262 1.01241 2.64898 -1.99056 -4.46364
4275 1 9.34221 32.4964 1.53679 -2.55068 5.62628 -0.316112
2887 1 22.7935 17.1446 21.1714 -1.16017 2.15494 -1.068
4281 1 6.29485 29.6761 9.29028 -3.25779 -0.876918 -0.742979
4282 1 6.93131 32.184 8.40291 3.33614 -0.891413 -1.12453
4283 1 9.621 32.5433 9.02089 3.03495 -0.895498 1.80169
4284 1 10.866 30.4404 7.85334 -0.594926 2.78554 0.0774355
4285 1 5.59803 30.1152 4.49972 5.08119 -2.20747 0.754408
4286 1 6.88875 32.3575 5.58426 -1.22472 -4.41981 -0.361167
4287 1 9.46882 32.5264 4.33153 0.245504 -3.23295 2.53232
4288 1 10.7399 30.1336 5.05053 -1.89354 -1.41635 0.21378
4297 1 5.39876 34.6136 2.38584 3.14899 -6.67058 -0.791662
4298 1 6.50664 36.9094 1.18196 3.55027 0.583318 3.67208
4299 1 9.39808 36.9218 1.38218 -4.01936 2.49223 0.929637
911 1 0.21848 15.3101 23.8903 -1.34118 -0.353479 -2.71866
4305 1 5.84762 34.6113 9.36879 0.843645 0.355593 -0.87786
4306 1 7.17571 36.8808 8.79176 -1.50246 -1.28173 -5.13533
4307 1 9.93866 36.918 8.89185 1.08414 2.11359 -6.81872
4308 1 10.8196 34.6678 7.88173 -0.839731 -1.96793 0.97936
4309 1 5.56825 34.6941 5.17496 -1.57465 -2.61044 0.800886
4310 1 7.25718 36.8541 5.78752 2.58778 0.737409 -4.11837
4311 1 9.5185 37.0327 4.2785 -2.9335 -0.771046 -1.23727
4312 1 10.6109 34.7059 5.25973 0.272853 -1.47201 2.16013
4321 1 5.37335 39.1107 2.3075 -2.03802 2.68881 0.237163
4322 1 6.40452 41.475 1.19247 -2.85418 1.18996 -0.809708
4323 1 9.24916 41.4307 2.17337 0.379972 1.26985 0.874173
4324 1 10.1445 39.2841 0.943728 -1.72919 3.39683 -0.84745
4329 1 5.84853 39.0084 9.94378 5.06143 4.44913 -2.4298
4330 1 7.35431 41.1639 8.86742 -3.13964 2.79814 -4.11554
4331 1 10.1326 41.2048 9.16499 4.59564 0.770731 6.65419
4332 1 11.436 39.0747 8.16128 4.58626 -2.31484 -4.53329
4333 1 5.77191 39.2739 4.98463 -4.72129 -4.7293 -1.08261
4334 1 7.24883 41.4727 6.02736 2.73717 1.99732 -3.10167
4335 1 9.78276 41.7737 4.8163 -3.52308 1.89259 0.143633
4336 1 10.8241 39.3055 5.36567 -0.295485 0.642135 1.93097
4345 1 5.23226 43.8477 2.41974 -1.92559 2.3179 1.24625
4346 1 6.67187 46.4345 2.15988 1.55387 -1.9243 0.913129
4347 1 9.50554 46.3267 2.22626 3.46993 -5.91249 1.95411
4348 1 10.2057 43.9214 1.34476 -0.793844 -4.23448 -1.9576
1133 1 11.7564 11.4313 16.7594 2.52943 1.43338 -0.137963
1474 1 0.417646 20.9283 23.5554 0.528939 -0.0393195 1.86989
869 1 -0.0539181 19.1741 3.40907 -1.76627 -0.5822 2.3988
604 1 -0.443322 23.842 23.3953 -2.95696 -0.650886 2.3564
2291 1 -0.0124781 21.5832 18.4818 -2.82912 1.07907 -1.74132
3522 1 21.6387 14.2386 24.0431 -1.31056 -0.515725 -4.16887
3562 1 18.358 11.668 0.783364 -0.245498 8.32611 -1.11155
2756 1 22.1787 12.4168 19.7293 1.45959 4.02767 -1.36055
1639 1 13.3198 12.1708 19.1279 -1.61566 2.29546 -3.91036
2487 1 2.90597 18.7198 0.183648 1.70401 1.46051 -5.83161
2117 1 23.021 22.9315 5.86203 -2.53396 -1.67531 -5.82957
3014 1 23.1498 11.9311 22.6224 3.89298 -4.89484 -6.6036
2272 1 0.0302777 12.1697 11.2588 1.6051 0.542529 4.57283
2276 1 0.138666 11.9916 3.99936 0.060938 1.24692 2.96941
4138 1 -0.559598 27.5887 8.74658 -0.870148 0.0930823 4.19123
1939 1 11.3374 11.2873 2.04684 -0.810956 2.08577 -1.99963
978 1 3.97181 12.5836 24.0705 -3.67786 -3.65612 -3.39445
399 1 12.7192 15.137 0.23013 2.47355 2.5825 0.222563
2908 1 1.6902 11.2848 18.0801 -1.04477 -3.6364 -0.693359
2504 1 9.11224 11.3562 10.1205 3.78349 -3.63335 -4.37138
