ITEM: TIMESTEP
4800
ITEM: NUMBER OF ATOMS
4360
ITEM: BOX BOUNDS pp pp pp
-2.4480963302934299e+01 2.3671799202968394e+01
-2.4610676577441787e+01 4.7127112177441781e+01
-2.4080481113606965e+01 2.4072279513640403e+01
ITEM: ATOMS id type x y z vx vy vz
555 1 -12.8848 -13.8021 -0.948645 -2.19984 5.57611 -1.98143
15 1 -3.10026 2.13753 -12.3265 -6.10244 1.06106 4.13651
22 1 -12.3685 0.59681 -16.5803 0.535171 1.30117 2.46286
27 1 -17.0787 5.12685 -1.03905 -1.75333 0.967688 -2.49435
29 1 -6.83996 -11.3362 -10.4846 -4.18089 -1.75848 -2.28674
37 1 -10.5679 -7.64184 -3.16183 -0.27585 -1.10773 -3.53976
2205 1 -23.6334 8.30252 -15.2877 0.745602 -3.59615 -0.377307
44 1 -3.10333 -16.8895 -8.10888 1.44941 -0.46125 1.37623
54 1 -16.9648 -11.7534 -12.5157 2.72037 1.78087 -3.59947
55 1 -3.91471 -4.2093 -13.4635 -8.06471 1.07061 2.63782
57 1 -14.9523 -9.64746 -4.05623 -3.94832 1.03929 -1.85814
66 1 -9.76397 -16.4827 -14.9125 -3.65433 3.87224 1.32019
75 1 -17.8348 2.16615 -11.0807 -0.310288 -4.10537 0.376692
3064 1 -2.96625 10.9134 -18.959 2.27604 0.898117 0.848012
97 1 -6.88752 -12.8676 -21.4257 -0.67099 -1.13072 -1.11188
3824 1 -9.21808 -24.1533 -5.5746 3.94119 1.65705 -1.55516
1307 1 -16.4699 -22.4576 -4.31182 -1.78017 -0.0374559 -1.95592
112 1 -15.2277 -0.810242 -19.7071 1.06904 -0.44589 -3.32025
126 1 -8.10546 -2.19076 -7.71139 2.9866 -3.45995 2.67136
128 1 -18.4942 -1.81936 -8.38692 -1.0308 -4.90359 4.10842
132 1 -7.92738 -3.68155 -22.6555 -0.875732 -2.34874 1.78747
135 1 -14.8569 -6.1296 -21.163 3.10596 0.618749 -0.825897
2463 1 -12.7211 -20.6932 -22.7066 1.84737 1.84543 5.08043
137 1 -11.4195 3.93852 -14.6898 -2.2458 -2.6512 2.21139
139 1 -18.8033 -19.0152 -15.6585 -2.03086 2.52582 1.69301
143 1 -4.51847 -1.84699 -6.12551 -1.24702 -2.41642 -0.994716
847 1 -13.5622 -24.5714 -12.7435 -1.06137 -3.67597 1.35949
149 1 -19.089 -22.7786 -18.4903 0.217246 -0.128493 1.97251
160 1 -5.5956 -16.0723 -5.601 -0.689847 3.90771 2.01907
167 1 -13.1708 1.0158 -1.86303 1.52068 0.83485 1.43527
170 1 -7.2972 -17.6306 -13.4 0.977149 -0.865687 5.64209
174 1 -17.739 6.33426 -22.0374 -5.2185 -0.73898 -3.25472
179 1 -5.78183 -7.9723 -12.6359 1.10818 2.21577 -1.14165
181 1 -4.76633 -1.10807 -20.6925 2.28204 1.59945 0.147539
187 1 -10.7464 9.334 -8.38192 4.75146 -2.44292 1.51071
3378 1 -5.09033 -18.2878 -2.02363 2.65368 1.57187 1.23663
198 1 -9.55938 -21.6763 -18.5453 3.62158 0.727695 3.59449
1302 1 -5.07638 -4.68249 -23.1598 -1.41371 -0.57038 -1.03699
204 1 -8.32001 -14.5219 -7.25737 -1.62944 -0.303529 0.17334
206 1 -4.86037 -16.5485 -21.3127 -6.53933 7.32184 3.24598
1228 1 -24.6421 -18.7747 -6.51756 -5.83769 -1.56763 0.28224
213 1 -21.0924 -20.1285 -2.72654 -3.67758 -3.56502 -2.65885
221 1 -14.7558 3.41602 -1.23822 0.0471632 3.9785 -2.2841
2010 1 -7.26968 2.60751 -23.9293 -1.89185 -3.57647 -1.67411
235 1 -23.1543 -1.70508 -8.28913 -4.88074 5.47239 -6.33757
242 1 -8.52098 -4.11281 -12.9478 -4.33854 3.50547 -1.72577
248 1 -16.874 5.72465 -12.6816 -1.25746 5.70922 -0.108693
251 1 -20.3917 -0.903099 -23.2816 3.99038 -0.481658 -0.661566
253 1 -3.04776 -3.43832 -21.6534 -5.33565 1.03159 2.28902
256 1 -10.7723 -6.08626 -10.0073 1.55409 -3.49373 -1.93386
257 1 -1.33096 4.21837 -21.5948 -3.67281 -0.591406 -1.40444
258 1 -5.85705 -0.502946 -8.22988 3.86047 -0.280352 1.73964
263 1 -21.0282 7.16753 -6.56887 2.68491 2.43033 -2.29809
269 1 -19.5692 -7.26093 -16.012 -1.30438 -0.442185 -0.176506
419 1 -21.8589 3.12769 -23.9539 -2.41671 -2.62551 1.6759
280 1 -3.31685 -17.3922 -13.0304 -3.97296 -3.80765 0.0308019
283 1 -2.9351 -22.7189 -19.7316 -2.96946 1.56529 -0.597596
290 1 -5.49102 -12.2044 -16.1082 0.723037 -1.41407 0.656834
2596 1 -14.3778 10.963 -19.4491 -1.56846 0.220453 -0.339862
303 1 -21.9199 -19.1039 -7.02288 0.339174 -2.23876 -4.49455
312 1 -7.87761 1.3328 -7.02241 -1.40577 -0.263553 -2.38749
313 1 -17.4541 -17.5376 -13.464 4.79495 -0.921194 -8.09536
314 1 -13.8411 4.67304 -8.56279 -2.0864 2.68528 -2.98933
317 1 -9.48868 -12.996 -22.7187 3.36226 -3.12169 0.378803
321 1 -18.8483 -13.0005 -14.4837 -7.69991 -0.360284 2.43047
3306 1 -7.25634 9.00677 -22.5727 -3.12512 1.56002 3.53391
339 1 -4.93845 -14.1786 -22.8964 4.35631 -1.01202 0.94959
340 1 -14.593 1.3043 -18.305 -1.50568 -1.61199 -1.13082
341 1 -8.756 5.17099 -12.6731 0.33605 -0.7709 -0.638941
1634 1 -19.1397 -8.61174 -22.5113 1.91031 0.118099 -1.72026
343 1 -1.94879 -13.5503 -6.05349 1.94806 1.05749 -1.9488
356 1 -2.04478 -20.0602 -20.3632 2.09669 0.808921 0.681095
359 1 -13.6915 -20.7527 -10.0551 0.0716133 2.1282 -0.0303006
3196 1 -1.81629 -0.258661 -2.07327 -2.53448 1.02634 -1.35221
364 1 -10.7355 1.22553 -6.84294 -2.18536 -1.02375 1.6827
366 1 -22.0601 0.876882 -8.96705 -4.15515 -2.01673 -0.858781
376 1 -4.50643 -14.3048 -17.6976 3.29998 -2.68809 1.54557
394 1 -9.01018 10.756 -4.79587 -5.73846 -0.416397 -2.73105
393 1 -12.4878 -18.6549 -11.3448 -0.120103 -4.66717 -2.26138
294 1 -8.52188 1.49802 -0.700848 4.46279 5.5283 8.27816
3528 1 -23.9546 -23.466 -0.539871 -1.75009 0.56349 -2.27679
2924 1 -0.735768 -15.9976 -23.2292 -2.45386 1.65419 -0.0253153
970 1 -3.32784 -22.7118 -7.51872 -4.73744 -3.84677 -1.8445
415 1 -16.2191 5.98615 -8.32007 3.96633 0.649673 -0.735443
421 1 -15.4557 -23.4134 -14.3674 -1.05957 3.23977 -0.948131
426 1 -16.092 -3.61384 -8.82541 -1.22287 1.87733 -2.10505
429 1 -7.22898 9.14142 -13.0576 2.34328 1.67149 4.17983
433 1 -19.0432 0.360308 -17.6483 1.79294 1.87178 5.73572
434 1 -12.969 -2.71711 -11.6081 -1.07813 -4.02091 0.926001
436 1 -14.4568 -9.9764 -11.9353 -0.283505 0.630548 1.01881
438 1 -15.4658 6.92707 -2.38443 3.66524 7.01611 -3.05198
444 1 -23.2545 8.85639 -18.0134 -1.20148 -1.24152 4.06792
454 1 -5.85618 -0.229342 -13.8833 0.705164 3.94518 -2.62032
470 1 -19.6372 3.85071 -9.64887 -2.0059 2.92259 2.56932
476 1 -12.7169 -5.96379 -3.82912 -1.32905 2.52215 -2.16178
477 1 -11.9146 -11.0299 -14.9995 -0.926263 -1.18845 0.797668
481 1 -0.933218 6.8543 -20.9103 3.37156 -2.28429 -1.26747
492 1 -13.9291 -16.1998 -11.5518 1.40962 1.60932 1.4845
2070 1 -23.0877 -0.435725 -1.00988 2.28002 -3.53464 -1.0058
2483 1 -1.43754 10.2971 -11.4233 -2.34555 0.868058 3.41429
501 1 -15.6417 -12.5224 -7.47401 0.378194 -3.18042 0.937819
1892 1 -2.2625 -12.4034 -18.5152 3.19593 -0.633124 -1.8752
231 1 -23.4752 -3.5925 -22.236 -2.45883 -1.7708 4.77401
517 1 -14.8146 -3.4413 -22.1303 -4.82548 -1.3054 -2.31364
519 1 -22.8584 -14.6598 -7.64398 4.71584 -0.646585 -0.531544
520 1 -5.35133 -22.0391 -11.8497 0.218508 -4.73192 4.31353
523 1 -11.8991 -13.6175 -9.15766 1.80708 0.841696 1.01402
525 1 -5.96156 -1.55327 -3.59239 -0.12418 5.41041 -1.30514
532 1 -9.80162 -2.66123 -3.24777 -0.528434 0.633968 -1.36043
544 1 -5.09719 -19.3826 -20.105 1.00707 -2.53591 -3.82253
546 1 -5.93845 -14.4473 -14.1849 -2.09388 -1.90984 -2.79717
2468 1 -22.7179 -24.7049 -6.61215 -0.536708 -2.39289 2.05769
575 1 -14.0507 4.80446 -3.84851 0.349968 -4.4793 1.30757
580 1 -5.39188 4.50083 -21.0476 1.08818 -3.89242 0.742181
582 1 -2.93285 -15.3943 -19.6879 7.90296 -0.659362 2.01474
1789 1 -23.1001 -0.724167 -5.41396 0.57095 -6.13595 -0.525512
2593 1 -23.9395 -6.55017 -22.9788 3.31117 0.392891 4.71315
753 1 -16.5838 -18.3319 -23.5227 -1.17678 -0.751572 -2.1268
603 1 -7.70041 7.10431 -3.77907 1.45814 7.99215 -8.53567
611 1 -2.09622 -10.2177 -7.61325 6.01155 -3.62974 -1.83009
614 1 -16.7642 -10.1167 -6.3677 1.47633 -3.35519 0.946244
624 1 -7.71081 2.63318 -21.0532 1.02642 2.22012 1.23798
626 1 -3.29848 3.15203 -19.6753 3.48992 3.36301 -2.60737
3200 1 -21.8683 -5.69296 -5.14272 -2.33147 4.03043 -2.11847
629 1 -6.82305 10.0328 -9.04145 -2.17868 0.505402 -1.26111
636 1 -21.3211 2.12481 -17.4107 5.80104 -0.353913 0.209082
1024 1 -3.11707 7.80162 -22.4874 -3.55721 -0.376714 -2.52212
639 1 -10.9286 -18.2653 -21.6406 3.58331 -0.972932 0.874561
645 1 -8.3726 -6.60509 -18.6229 1.8729 2.71576 -0.284533
651 1 -21.3594 4.1799 -11.8806 -5.16309 -0.667643 -6.0757
652 1 -5.50193 -3.0124 -18.3109 -1.78536 4.36975 -3.54939
2859 1 -23.9033 -23.1231 -20.5319 2.03059 -1.04893 0.303187
654 1 -9.96309 -1.53619 -18.1241 -4.45907 4.09601 -0.514843
655 1 -3.3057 -11.5677 -14.215 -6.14746 5.52096 1.20249
661 1 -18.5793 -5.79623 -18.2582 2.44327 -2.8277 3.28146
663 1 -13.2994 -19.6409 -7.54859 0.282843 1.55442 2.31944
666 1 -7.70739 -6.50983 -11.4348 0.45775 1.98754 -0.897565
1580 1 -17.5591 -23.3583 -8.85721 -2.70791 -0.127159 3.45782
1314 1 -14.9002 10.8545 -16.7457 3.21554 -1.18183 -0.240461
674 1 -9.26884 0.0697832 -20.8412 -2.15294 -0.0497208 1.56854
675 1 -21.0282 -12.6813 -8.59883 1.69848 -2.30417 1.40857
678 1 -18.8378 -7.05285 -0.0576894 0.178741 4.19054 2.38575
679 1 -17.3555 1.78319 -6.10648 1.59666 -7.15019 -2.83498
3965 1 -6.27252 -0.322632 -0.779343 1.59804 1.20912 1.72278
688 1 -12.7617 -12.972 -13.3303 2.5283 -3.22646 0.480941
144 1 -24.0102 -8.27521 -15.1352 2.40376 2.12868 4.135
709 1 -7.39685 -5.08212 -8.80234 -4.45782 -1.39005 0.715781
711 1 -16.2669 -4.95962 -13.7117 -2.91794 0.793765 6.8728
717 1 -11.3705 -4.23204 -13.5219 -7.35787 2.8611 2.57668
721 1 -7.74206 -9.01417 -15.3716 -3.74556 -0.314958 0.657017
741 1 -16.4759 -21.0232 -11.225 -0.365436 -0.424918 -0.219441
2518 1 -0.542238 -3.03435 -3.06545 0.839892 -2.85211 1.92149
756 1 -5.37279 -4.15277 -2.10244 3.70246 -5.08462 -1.14194
761 1 -10.0049 -11.9092 -7.52141 -7.64195 1.30732 1.17189
780 1 -5.62731 -7.70148 -21.1717 0.202203 -0.865325 3.05699
796 1 -9.00012 -11.5751 -15.5745 0.325914 -2.19326 1.4533
798 1 -14.9289 0.767045 -6.8297 1.13603 0.813407 0.796156
808 1 -1.72641 -17.4971 -10.5841 2.64572 0.570853 3.29233
810 1 -21.5628 -12.9402 -4.62828 1.78401 1.62483 -0.137469
811 1 -12.5944 -7.24356 -8.1925 5.72347 3.312 -0.595478
190 1 -16.6495 10.4772 -11.6318 3.7453 3.45547 0.125678
1354 1 -2.19423 -5.52445 -16.4024 -2.6596 1.28723 1.80893
1475 1 -23.489 -23.304 -4.10721 -0.56308 -3.07889 -4.17952
826 1 -11.3138 5.12341 -2.74729 -0.0274595 3.56813 -2.66899
833 1 -9.47743 -5.38702 -6.48309 -1.6673 -0.321347 -5.05757
837 1 -21.8673 -15.6676 -3.68451 2.4073 0.579194 4.12383
842 1 -6.4778 -22.8513 -0.608395 0.107633 1.90973 -0.601401
1941 1 -1.6779 -22.5953 -12.5405 1.58592 -2.7372 1.86799
856 1 -20.9046 -3.23215 -9.20325 1.73481 -1.40792 -2.85317
3989 1 -16.1835 -9.67784 -14.3347 -1.83131 -0.908198 6.89595
872 1 -3.12365 -7.75336 -20.2425 -2.29323 -0.979722 1.1239
63 1 -0.831802 11.0919 -16.9499 -1.64198 -0.266388 -0.438619
882 1 -12.3047 -3.57206 -2.63196 2.54362 2.47388 0.80475
885 1 -4.45645 -18.8396 -4.8721 2.85694 0.986452 -1.68947
3614 1 -1.6377 -5.12768 -4.52979 1.24687 -2.37907 2.63401
900 1 -11.3443 -15.4699 -12.8155 -1.16308 5.06522 1.66883
904 1 -10.2342 -8.265 -6.56045 0.417496 -2.97027 -3.04865
907 1 -15.4209 1.35648 -9.51823 2.66261 -5.08064 -0.778811
910 1 -8.86928 4.08141 -4.27256 0.983513 -3.91975 4.22069
922 1 -10.1929 1.33385 -18.377 7.70549 1.77961 2.42715
929 1 -8.71382 -13.7757 -2.47924 -1.84237 2.5718 0.675191
930 1 -20.9389 -18.8803 -11.9391 3.57624 6.20203 -1.11075
939 1 -7.91077 -13.6975 -17.1603 0.826789 0.20672 -4.93692
942 1 -6.71446 -15.086 -19.6722 -1.97491 3.29459 -1.37619
948 1 -20.9437 4.32107 -7.1717 5.60411 -4.19333 -0.64359
1387 1 -17.9192 -0.540241 -1.76268 -1.7103 5.06887 2.1652
956 1 -14.5226 -5.42489 -11.163 0.498614 5.29036 -0.985366
962 1 -5.47245 8.71352 -4.64124 -1.96768 -6.41919 6.5641
1496 1 -3.86961 10.2956 -9.70336 -1.3733 -1.6926 1.81516
199 1 -23.7397 -4.13848 -9.98668 -5.7345 -1.09591 -1.34801
2396 1 -15.8535 -21.0324 -1.66109 0.777923 2.22021 1.03493
1001 1 -20.002 -4.91568 -7.18004 2.25024 4.26027 -3.33709
1010 1 -13.4771 2.98031 -10.8158 2.8323 -3.19657 -4.3196
3768 1 -0.791301 6.74919 -14.5493 1.83541 3.01909 -4.17755
1022 1 -9.48816 -22.6968 -10.8791 3.9699 4.53902 -1.20668
342 1 -1.80445 -14.2596 -10.3156 0.049944 4.31806 -0.882726
1028 1 -5.92557 -10.5792 -13.762 3.81711 1.81239 -4.21635
1030 1 -17.4019 -16.226 -21.2506 -3.81377 1.07926 -1.1773
1031 1 -2.51489 -11.6031 -4.25887 1.54455 1.45428 -4.92048
4103 1 -8.64175 -23.9691 -8.47028 1.54605 -3.30801 4.81898
1041 1 -2.65327 8.90034 -13.9432 3.26053 -1.32139 -0.589597
2494 1 -14.8394 -15.7603 -22.7127 3.78013 2.66783 1.41345
1052 1 -21.2876 -2.84121 -20.4368 3.82004 -2.77239 -5.69894
1057 1 -7.2456 -16.0085 -15.9408 -0.648567 2.12282 2.4782
1080 1 -18.994 -8.48149 -9.69308 -5.31613 4.32265 -1.46658
1082 1 -18.3305 -17.105 -5.71625 0.839052 1.22869 5.29322
1084 1 -2.71706 -16.3718 -5.26947 2.52668 -1.84831 3.34203
1085 1 -11.8769 -14.3246 -6.05515 -0.661341 -4.75859 -2.86882
1086 1 -10.1629 8.88383 -2.89942 -0.689794 -2.05312 3.36087
1090 1 -21.668 -21.1942 -10.3946 1.91132 0.0211479 0.316575
1092 1 -20.8307 -18.058 -4.62623 -0.950861 3.38429 -1.23299
1120 1 -6.32163 -15.6966 -2.61897 -3.74834 -3.76161 2.74168
3756 1 -12.5961 -24.1573 -19.6915 -1.97669 1.00864 -3.63962
3977 1 -10.4783 -18.8403 -16.395 -1.5037 4.04709 -0.368784
1136 1 -20.254 -20.628 -20.0475 1.53565 1.90602 -4.05131
1160 1 -9.46793 4.8947 -8.64035 0.995134 0.132305 -3.25001
1512 1 -11.6793 -11.0405 -1.19036 0.21602 0.999154 -5.40292
1172 1 -22.032 -15.1229 -15.6901 3.92538 -0.101439 -1.70703
1174 1 -22.5144 -20.5575 -16.6842 2.00538 -3.28091 2.22142
499 1 -23.1893 3.55973 -8.69703 0.501471 -1.40596 -5.18626
1191 1 -2.72954 -2.10043 -18.8083 1.1422 0.341459 -1.71686
1192 1 -14.5756 -1.48377 -9.5454 2.27221 1.07448 -2.32003
1199 1 -12.4204 5.1554 -12.3871 -1.20899 1.90342 3.37245
1202 1 -15.081 -1.40181 -5.15721 -3.11824 1.03112 -4.09754
1203 1 -16.5826 -10.4901 -17.0836 1.32071 0.243471 -4.0906
3101 1 -23.5565 -14.5821 -19.7372 -2.27155 -0.77995 5.40758
1230 1 -15.0015 -17.1719 -7.96185 2.90766 0.394038 -3.40162
1231 1 -19.3581 -11.0461 -10.6078 1.65044 0.319658 2.46847
1233 1 -2.43966 0.44608 -20.5304 0.471665 -4.6528 -2.48437
1245 1 -19.1157 8.84545 -21.6459 -0.789466 1.15884 0.104939
1247 1 -2.28578 1.36082 -9.80394 4.22679 0.908956 -2.64891
1257 1 -6.15384 -22.6185 -9.10123 -2.6797 2.52031 0.0545558
1263 1 -15.1299 -7.06776 -2.64575 1.45284 0.416036 -1.87361
1264 1 -22.5433 -10.9783 -2.78839 -4.0106 3.51792 2.11593
1268 1 -23.3314 -11.563 -18.9829 -1.55994 6.47724 -3.92612
1276 1 -2.81393 -10.2413 -21.8817 2.27837 -2.55281 0.861537
1286 1 -5.4291 5.33565 -15.9756 -1.65832 -2.36915 1.03231
1299 1 -12.3385 -10.0418 -6.86777 1.77898 0.742498 2.45364
1582 1 -13.2451 6.05441 -0.659451 1.12925 1.99378 -0.973195
1303 1 -6.04764 -7.1269 -16.8048 -1.6479 -2.82863 2.86461
3662 1 -2.58758 -0.118125 -23.3026 3.16486 -3.33192 0.145752
1011 1 -17.4206 2.31289 -1.07138 -0.986725 -0.456544 -1.82498
2995 1 -5.23215 10.4951 -6.73819 1.80678 3.96964 -1.87114
2236 1 -23.4589 4.09017 -16.7156 -0.994743 -2.0845 -2.99509
1315 1 -20.6305 -11.1266 -22.2111 3.14902 4.74121 2.93424
1317 1 -11.4534 9.89704 -11.9505 2.92734 5.00801 4.42126
1324 1 -10.7514 -22.1351 -21.1906 -4.85663 1.15993 -0.34599
1326 1 -19.7312 -17.529 -19.7968 4.39736 0.0677962 4.45139
1331 1 -19.561 3.1028 -2.64041 -9.44743 -4.5227 2.51233
1343 1 -9.53116 -10.359 -9.93025 -3.57923 -6.33176 -2.53501
1345 1 -21.2937 2.31974 -20.1199 4.25139 -3.73355 -0.201939
1347 1 -18.0679 -11.091 -20.9644 -1.81442 0.832528 3.04957
1350 1 -15.2075 -0.844286 -2.43878 1.0662 -4.1692 -5.3271
1356 1 -18.848 -12.4025 -3.20181 -0.127359 0.616801 -2.59278
1357 1 -23.1329 -7.06605 -10.2351 0.517396 -1.11338 -0.403858
1363 1 -15.5455 -9.19571 -21.1122 1.76778 1.74607 -2.69345
1371 1 -19.9151 7.71853 -0.925451 0.475544 0.705998 2.56347
3912 1 -6.5507 -11.8113 -0.449447 -1.1437 1.73 0.238684
3972 1 -3.74702 -7.84028 -10.5597 2.85523 1.36796 -0.165679
1399 1 -1.92081 -23.414 -2.00772 -0.573065 -6.07869 1.80127
1402 1 -19.7967 -3.81926 -16.8561 0.578308 1.54575 -3.21939
1406 1 -5.82737 2.04272 -12.3046 -5.00192 -1.12873 5.04117
1407 1 -24.2679 7.96199 -2.05687 0.344213 1.61311 0.875353
1724 1 -19.1049 -23.581 -4.66624 0.812487 3.61246 -4.08267
1413 1 -12.5052 2.83301 -19.5104 6.92766 5.7732 5.52395
1422 1 -13.3757 -19.3364 -15.3789 -2.05236 -2.73516 0.0406795
1431 1 -9.31351 3.01968 -10.6815 3.98804 6.75735 4.36205
1433 1 -20.2828 -9.33257 -17.6939 1.15803 -3.00974 -3.34452
1436 1 -18.7004 -3.38844 -14.3487 -3.09103 1.56889 3.46221
2194 1 -18.5961 2.88808 -21.1652 -1.86539 2.97941 2.66645
1439 1 -19.6025 8.42548 -10.421 -0.120711 3.04289 2.35739
1442 1 -21.3243 -8.788 -5.50764 4.06821 -0.886324 -3.17987
1450 1 -2.75838 -5.67096 -8.76304 -2.69516 -3.22967 -0.795518
1452 1 -6.99595 -23.6909 -16.0132 0.607218 -2.00733 -1.09672
653 1 -23.637 -18.9421 -12.9608 0.671795 -0.441886 -0.854024
1455 1 -14.8277 -18.7726 -2.78954 2.31616 1.15583 -1.88709
1457 1 -17.2233 2.44566 -18.4551 -1.14296 0.950826 -4.96847
1459 1 -10.2314 -12.475 -4.67871 -4.28887 2.88623 2.02381
1460 1 -14.1815 8.96603 -11.2447 0.124009 5.15459 3.52624
1466 1 -17.7639 -6.83338 -3.90955 3.33234 4.4228 1.93302
1471 1 -1.48289 -4.77136 -12.4492 1.06056 1.81965 -0.637616
2028 1 -1.0405 0.0155473 -17.1954 -2.23687 2.72705 -1.63224
1487 1 -3.22834 4.36907 -17.2389 -2.25922 -0.209553 -0.535676
1490 1 -21.3149 6.49665 -3.54863 1.51523 -2.28957 1.01262
1493 1 -4.2416 -6.7587 -14.6815 -5.07253 -0.909936 -2.2534
1494 1 -7.71399 4.87935 -17.8042 -2.88403 7.72212 -1.72769
1840 1 -20.0876 -12.2061 -0.268053 -0.928787 -3.10692 5.36143
2257 1 -1.06412 4.42145 -7.52349 0.360532 -2.54558 -0.868356
1504 1 -3.47355 -23.1801 -4.67007 0.0103332 -3.54927 -1.68155
2646 1 -4.34927 11.2249 -2.87506 -3.2888 -0.263251 3.95529
1514 1 -12.702 -5.0579 -6.45096 -0.311999 -4.93792 -1.88839
1522 1 -13.2125 -1.00499 -13.9763 2.88911 -0.451724 -0.325584
3343 1 -23.8858 -6.70924 -17.4419 1.80662 -6.69236 -2.57332
1540 1 -20.3139 5.09588 -22.1611 -4.42192 -0.788917 2.90449
3124 1 -15.4824 10.8264 -7.49508 -2.82978 -4.50478 -0.258615
1554 1 -6.55226 -5.18438 -20.3292 0.595682 -1.49361 -0.535357
1555 1 -20.0467 -3.44425 -4.29818 0.386132 0.0415133 5.73596
1570 1 -22.6002 1.50551 -11.7534 0.181705 -3.26297 -1.24112
2009 1 -5.05438 1.96792 -1.79479 1.19609 -1.08102 0.873584
2015 1 -1.00943 -7.76584 -3.91627 -0.0255605 1.46152 1.8531
2061 1 -16.2906 -24.3358 -22.457 3.10346 3.90127 -3.36379
1589 1 -11.5826 -21.166 -2.01413 -3.18535 -3.12267 1.85007
1596 1 -3.54721 -2.82735 -15.8945 1.40631 -1.54804 3.27349
1602 1 -21.171 -12.9692 -19.986 2.20771 3.55296 -3.36665
40 1 -1.83929 2.4842 -15.7156 -0.192662 1.4847 2.26113
1615 1 -5.8647 -15.7413 -8.27572 2.11523 -0.318648 -3.51421
1617 1 -15.4666 -14.2729 -12.9266 5.09293 -1.03788 -3.42596
1632 1 -4.69469 9.84253 -21.1812 -5.47973 4.22709 -2.10601
2922 1 -16.8688 -21.3066 -23.341 -1.12582 1.74885 -2.59315
1640 1 -17.6978 -23.2548 -12.9038 4.07468 3.25321 1.88203
1645 1 -2.17065 -7.2749 -6.48787 3.84545 0.541864 -2.4179
1646 1 -22.2697 -8.26894 -19.5245 4.64939 3.29361 -0.214279
1369 1 -24.3335 2.09957 -4.98988 0.259394 3.90961 2.65071
1649 1 -19.3923 -6.96671 -11.8956 -1.75491 -0.781775 -2.95871
1662 1 -9.42598 -21.2831 -7.63811 3.01529 2.53392 3.4082
1663 1 -14.5002 -3.04919 -1.17651 2.01095 -0.630495 0.94206
1676 1 -19.2706 0.704672 -4.31296 0.491631 0.704952 1.94846
2347 1 -13.3342 8.66448 -15.544 -3.49942 -3.17686 -0.927384
2252 1 -23.1556 -12.6343 -0.221537 2.94444 1.87187 -0.711792
1688 1 -19.6969 -2.56289 -11.924 -2.35479 1.57808 0.176745
1694 1 -15.5317 3.0414 -12.8113 -0.0817971 1.57564 -0.370683
1710 1 -11.6132 -21.6981 -14.3003 1.82617 -0.975652 4.60844
411 1 -0.741658 -4.19849 -9.91217 2.54317 -1.70483 1.96788
1725 1 -14.8362 5.21779 -15.9097 6.49196 -1.84979 -1.66614
3959 1 -19.5635 -4.99642 -20.8972 4.1373 0.461192 0.142983
2936 1 -22.9702 9.29303 -6.14007 1.01642 0.699124 1.8827
1737 1 -18.0877 -1.6853 -5.58114 4.6924 -2.69784 6.48279
1753 1 -22.8871 -16.2149 -21.9428 4.29913 -4.48718 2.0067
1755 1 -7.49979 1.03935 -10.0554 1.51076 1.83068 4.15163
1760 1 -16.4793 -13.1664 -21.8257 -0.643453 -4.45369 -2.24601
1778 1 -17.6114 -7.60502 -14.0494 1.14457 1.22139 -3.50821
1782 1 -22.4474 -13.5971 -10.9565 2.13483 7.39562 -2.46724
1785 1 -7.79684 7.23156 -8.60553 2.31862 2.28066 -0.23745
1786 1 -2.37041 2.43293 -5.88397 -3.74143 -0.757375 -2.19859
1680 1 -23.7135 -18.4074 -20.6873 -0.363868 -2.08642 -1.19576
1310 1 -0.801006 -18.778 -2.76356 -0.0264313 -4.62187 4.83332
1801 1 -11.9797 -18.9551 -3.5642 -3.06265 -0.812931 0.259995
1802 1 -17.7528 -20.3973 -8.62433 1.93606 -4.2303 -3.92609
1804 1 -3.45454 -20.3788 -13.4904 0.298829 1.30682 -5.38153
1812 1 -10.5802 -3.64748 -20.1884 -0.562373 1.36006 -3.29422
3618 1 -0.546134 -10.2079 -10.138 6.30981 0.637668 -4.34655
1830 1 -16.3717 1.27881 -15.8784 -2.84325 3.62611 1.04902
2619 1 -0.650248 9.26703 -22.4853 1.16088 5.34772 -0.30916
1851 1 -7.21407 4.12795 -1.73008 -3.08749 -2.1621 2.74341
1861 1 -14.8318 -21.544 -16.6025 2.555 1.26922 -0.40334
1862 1 -10.6001 -3.30515 -9.99667 1.45846 -1.65381 -0.361168
1863 1 -4.04487 -12.5277 -7.32897 -1.84121 -0.544847 1.23717
1872 1 -2.90511 -11.4886 -11.2401 0.484964 0.0445539 2.23047
1874 1 -9.78989 -15.7465 -20.0519 2.80931 1.43664 -3.15626
3973 1 -11.625 -21.1698 -5.59182 2.17426 2.8281 1.3068
1876 1 -21.7307 9.30199 -20.4394 -0.0348295 -5.19365 1.68494
1879 1 -19.9524 -16.6441 -17.0757 2.23158 1.10857 2.0238
1883 1 -7.94566 -10.9296 -6.01735 -1.70224 0.90799 0.0748087
1888 1 -10.501 -19.0705 -13.3584 -0.75338 0.511558 1.08386
873 1 -5.59356 -1.68875 -23.1993 -0.378931 6.22701 -4.6885
1959 1 -23.8404 -4.67932 -1.51085 -1.7428 1.07306 -2.85695
1901 1 -10.5197 -13.4663 -18.4604 1.11586 1.0891 -2.17065
1905 1 -15.9223 8.28388 -6.50033 1.62848 -2.61405 0.579103
1918 1 -18.205 -1.80629 -21.6272 -0.588131 3.50138 -1.34611
993 1 -22.317 0.577691 -22.1551 3.24933 -1.61531 -3.06733
1571 1 -1.8843 -11.3225 -1.24661 0.66955 -0.432685 4.35605
1930 1 -6.62165 -17.5003 -18.378 -0.0328494 5.74314 -3.26681
400 1 -24.1457 -16.0668 -1.7021 -3.79383 -0.891183 -1.69013
3968 1 -2.97795 5.68793 -1.1944 -2.10672 0.747351 -3.36186
3945 1 -21.4394 -12.3308 -15.0438 4.07171 0.864897 0.186771
1944 1 -20.9282 -22.7743 -2.9173 -3.12788 4.51114 -1.2893
1949 1 -8.61466 -7.7994 -8.96604 -1.60101 5.25382 2.54875
1960 1 -15.67 -5.51942 -18.3938 1.05333 0.122474 8.35022
1966 1 -18.4876 -18.8023 -11.051 2.75219 2.02356 2.99249
1980 1 -20.2949 6.01067 -19.3888 8.63538 2.95258 3.47995
1996 1 -8.83115 6.61859 -22.7029 2.35342 5.60795 -0.831942
2001 1 -7.35462 -9.48779 -1.77862 2.44208 -3.0085 -4.41623
1383 1 -6.7207 -24.0965 -13.4304 4.88829 -3.20249 1.16094
3877 1 -22.0718 3.6249 -4.50833 0.261507 -2.08542 3.98158
2016 1 -6.21599 -13.146 -5.73732 0.0796168 -4.2273 -0.869212
2031 1 -8.05784 -21.0097 -12.5546 -3.06566 2.11875 -2.50612
2034 1 -7.98626 -2.42227 -16.5201 -2.22259 -1.78143 -2.55895
2036 1 -13.2476 6.23953 -22.4326 1.22156 -0.144461 -1.71218
2040 1 -6.2209 -22.9863 -3.54598 -0.297837 -0.302146 2.43874
2050 1 -11.708 6.72543 -8.99603 4.1306 -5.14156 4.95343
2051 1 -21.9739 9.40175 -3.10457 0.426131 4.63077 -0.438691
2052 1 -9.87583 3.99173 -19.7132 0.52585 -2.02805 -1.01039
2060 1 -8.17375 -1.00738 -5.14173 0.866938 0.589453 2.6385
1550 1 -1.10613 -7.49353 -11.3802 2.52244 3.07747 -0.694548
2063 1 -10.9584 -10.705 -17.6262 -4.33528 0.378909 -2.86414
2068 1 -13.9233 7.59747 -4.77738 0.63974 2.00348 -2.32261
3994 1 -15.4397 -20.5384 -21.0377 -1.30123 -0.37634 -2.65157
2073 1 -17.9341 7.18599 -14.6546 0.040746 3.82525 1.30931
2078 1 -12.5671 2.24045 -22.3138 -0.731398 -0.160951 -4.80439
2419 1 -22.9448 6.06169 -18.5267 -2.20228 -0.314704 -3.28851
2085 1 -20.2911 -21.2627 -7.94272 -4.12845 1.98368 1.64376
2087 1 -10.2639 5.9261 -16.3826 -7.26373 3.97623 1.49026
2098 1 -15.5099 -16.6427 -4.92224 -3.23381 0.768245 4.31398
2106 1 -20.1055 -15.1001 -21.3067 -1.51789 -0.0824921 -6.69994
2107 1 -6.44012 6.20539 -11.0503 -2.41889 -1.56539 4.58168
2118 1 -12.0663 -1.60505 -4.88108 -0.681892 -1.15518 3.03643
2128 1 -18.4515 -19.2392 -2.00954 2.10126 -1.58005 5.17654
2130 1 -22.6206 7.61306 -9.09171 0.645411 3.24443 -2.84584
2139 1 -8.45931 2.18886 -16.3983 0.118049 -3.63691 0.937754
1897 1 -13.0773 -23.6137 -5.44194 3.35644 -2.56804 -0.190737
2167 1 -14.6667 -12.4355 -17.5675 -4.61806 0.961666 -1.60606
637 1 -9.5178 -24.1946 -22.7604 -0.907936 -0.919346 3.7699
2195 1 -10.637 -19.1058 -8.92682 1.34457 2.38677 3.89898
2196 1 -2.4334 6.28159 -11.3401 -0.686165 2.31516 -2.21607
408 1 -0.600288 -2.03086 -15.4218 -2.45168 -1.61332 1.26685
2206 1 -2.44005 -8.95329 -15.0813 -2.01136 3.99326 -4.37432
2207 1 -23.5832 -8.35796 -3.62049 -4.99325 -1.62583 3.57535
2211 1 -16.6247 5.09199 -19.776 1.35952 -1.02554 0.302375
2212 1 -17.4315 -5.85352 -6.37832 3.79404 3.14666 0.886352
2228 1 -8.93439 -10.1161 -22.3227 1.14584 4.7987 -4.97971
2233 1 -10.4748 1.25814 -14.6279 -0.617558 2.73107 -0.719666
2234 1 -3.40705 3.75586 -3.52154 -0.807297 2.52785 2.06285
2241 1 -23.2907 -1.94219 -18.7146 1.36687 -2.22337 7.93658
2812 1 -8.31124 -0.0579743 -23.5871 0.655788 -0.969823 0.507488
2251 1 -12.2194 -6.63439 -12.5849 -2.75786 0.0443599 6.06872
2930 1 -20.912 4.97861 -0.780773 -1.6972 0.808491 -0.549925
2267 1 -11.3501 -15.0109 -3.21195 1.48665 -1.55618 1.11916
2278 1 -14.4371 -13.8297 -5.29303 -2.23631 -0.520836 -2.14386
2292 1 -12.012 -10.1688 -3.99833 -3.26129 1.4639 3.26834
2294 1 -20.5204 9.371 -16.6736 -0.193989 1.2869 -1.60139
2296 1 -22.9979 -10.3913 -16.3562 -0.148492 -1.22922 1.22081
2298 1 -2.14469 -20.7564 -5.7846 0.292303 -4.52404 -3.82964
2317 1 -4.49094 -10.1901 -9.27834 -5.70309 -0.680831 -5.14914
2328 1 -8.2148 -8.65383 -4.33991 2.42933 2.27414 -4.77253
1502 1 -23.6414 -6.57394 -7.23497 -2.69691 1.42457 5.47221
2361 1 -21.8367 6.98407 -11.704 0.600437 0.0568328 -2.52216
2368 1 -6.91766 -19.9821 -7.68495 5.00932 -0.951383 0.409511
2370 1 -22.4937 -10.4774 -7.51739 1.1194 -1.02271 4.58165
1293 1 -7.80085 -2.73571 -1.22902 0.865195 1.34282 -2.52574
2374 1 -5.26455 9.22502 -0.543955 -0.0240177 7.19308 1.93391
2377 1 -4.96944 -8.26515 -5.5763 -4.73089 2.19728 2.70533
2390 1 -20.8543 -7.38577 -8.13993 -4.10485 3.35023 -0.221882
361 1 -23.4761 -19.1138 -1.71048 1.02489 -2.90042 4.21673
3886 1 -10.3164 -16.704 -7.37515 4.41498 2.71533 -3.97311
2404 1 -21.2782 -6.81531 -21.8151 -1.41869 -3.26536 -2.9661
2288 1 -24.6087 -9.13403 -8.72491 -4.68291 -2.81906 2.15353
2408 1 -23.2985 -3.5761 -14.0787 1.4174 2.66486 -1.21761
933 1 -19.7403 -21.4842 -22.8253 1.4263 -0.97735 -1.30724
279 1 -21.5376 -2.91874 -0.831497 -0.396502 3.75759 -3.63577
2425 1 -13.9833 8.96298 -21.7752 -2.74394 -1.08673 9.55632
2429 1 -9.62962 -7.59624 -13.2754 7.31524 1.80744 6.05598
3812 1 -3.50552 -13.581 -1.95598 1.39878 3.83898 0.441643
2438 1 -5.03711 -21.981 -22.7328 -0.265672 -1.84919 0.565834
2442 1 -2.48354 -9.54058 -18.0011 -5.94971 -2.58333 -3.0973
2454 1 -5.8811 9.81789 -16.9293 0.700774 -3.45211 3.93074
2465 1 -7.69901 -14.1561 -10.3237 0.534456 -1.22444 4.38342
3944 1 -14.5461 -6.48542 -15.8537 5.65228 -0.356832 -1.69031
2474 1 -5.29399 -9.79738 -17.7643 -0.689763 -4.47803 -2.3436
2476 1 -5.82432 -23.1252 -20.2823 -1.04318 4.20107 -2.87618
1425 1 -0.243786 7.9736 -10.3647 4.97058 3.39591 0.261265
2481 1 -14.8624 -7.73241 -9.93446 4.84175 -2.33901 3.22949
3993 1 -4.89153 -10.106 -3.20177 3.02704 0.678634 6.31205
689 1 -1.62745 -1.50634 -5.37816 2.06161 -1.99637 1.11146
1467 1 -23.61 -16.3599 -17.5181 -4.28987 1.19809 -5.8215
2510 1 -22.4182 2.35745 -1.84073 -2.17834 1.04748 -0.609864
3099 1 -21.0657 7.54756 -23.7871 -2.79806 -0.373094 1.2804
2520 1 -21.1915 1.50283 -6.25261 -4.29165 2.83541 2.71758
2523 1 -17.1478 -24.083 -19.7381 2.12367 -0.0904549 -0.623551
2525 1 -14.8043 -14.7416 -9.3341 3.41141 1.95925 -0.486818
2526 1 -9.99613 -6.82533 -16.0694 -4.22798 2.78251 0.301264
2529 1 -19.0791 -9.66754 -4.36762 -3.4342 -1.73385 -3.6169
2531 1 -18.2309 -8.57231 -19.54 1.08106 0.870192 -4.52302
2534 1 -16.4332 -10.9213 -2.07211 -1.34008 -1.10598 -0.222996
2538 1 -6.40313 5.44528 -23.7808 4.66031 -2.06819 1.13784
2542 1 -12.5528 -8.00916 -19.9441 -0.592785 0.987448 -1.55627
2543 1 -17.0391 -7.8961 -8.01666 -4.6557 1.70759 1.05023
2550 1 -21.9718 -18.6573 -18.5142 1.93224 4.46621 -2.40037
2558 1 -18.6888 8.39685 -18.6141 5.68907 -1.14063 2.88576
2562 1 -21.6045 -4.81058 -11.7081 1.16502 -1.78067 -3.11518
2564 1 -10.269 -15.7614 -10.335 -1.40232 -3.47137 -0.0440048
2567 1 -12.6115 -2.17117 -17.6984 4.81648 -1.34039 0.662864
3874 1 -19.948 -22.9653 -14.3001 2.62976 3.33887 -0.689648
2574 1 -19.9954 -24.0311 -7.21928 7.25642 2.80141 -0.685537
2578 1 -17.6024 -14.2402 -4.98252 -0.290495 -1.32522 -1.28558
2584 1 -12.1442 -22.4582 -11.5348 4.48067 2.45381 -4.25741
2949 1 -9.14207 -20.1572 -22.9341 2.33825 -1.16057 1.88759
2595 1 -1.85083 -17.7548 -18.6002 -1.2021 4.79275 1.29339
3864 1 -1.87237 -1.91074 -11.5403 0.807709 -6.56568 -2.99437
2597 1 -22.4692 -4.14373 -17.05 0.679243 -1.16198 2.32988
2602 1 -5.8823 -12.9873 -2.99739 3.13538 -0.963875 0.747545
2605 1 -14.7565 9.56597 -0.970563 1.20773 -0.0355286 2.71483
2609 1 -12.2872 -4.57092 -16.0573 -0.645782 -0.655321 -2.03405
2618 1 -8.84721 -18.3307 -11.0346 3.21471 -0.461317 -0.46887
2799 1 -0.700052 -15.4292 -7.84548 0.219913 -2.14979 -1.42104
2633 1 -5.6614 -15.9649 -11.7744 2.19085 -3.38095 0.569983
2403 1 -11.7476 -0.477505 -22.4979 -2.35592 -2.66136 -0.52621
3947 1 -24.325 10.7817 -23.5026 -2.1522 2.6849 -2.17658
2652 1 -21.7128 -6.0712 -14.527 -2.71856 -1.54926 0.0579985
2653 1 -8.13083 7.81135 -0.710322 -0.521469 -3.61661 -7.28903
2656 1 -2.97516 7.95224 -19.1032 -0.777843 2.95538 2.56518
2667 1 -9.02407 -5.22134 -3.5293 4.28392 3.00709 -0.283772
2668 1 -9.2912 -18.6028 -18.9645 2.52452 7.36321 2.33781
2673 1 -13.8446 -22.9709 -2.77169 -3.76377 2.25959 -0.195045
2674 1 -9.00312 -21.0953 -0.726251 -0.387384 3.23203 -2.20324
2681 1 -15.2918 -8.34058 -18.1668 2.46437 1.91425 -6.88808
2683 1 -17.0461 6.46359 -17.1992 -4.45067 3.59307 4.33564
121 1 -5.18967 -18.985 -22.9511 -2.92715 -0.312424 0.716184
2689 1 -4.91451 -4.03199 -8.20297 1.25186 7.2038 -0.60772
2690 1 -16.2086 -14.2538 -19.142 -0.115174 -2.91311 -3.42813
3146 1 -3.28026 8.48114 -7.40986 0.794427 2.96002 2.16028
2714 1 -18.0661 5.9231 -10.4012 -4.72087 -3.81533 2.18505
2720 1 -13.3652 -10.6462 -19.5107 5.14456 1.03158 0.945865
2725 1 -1.38269 6.28164 -17.2783 -5.28889 0.673892 -0.107789
2726 1 -11.1125 -8.26169 -22.5051 0.339371 -6.06523 -1.59224
2727 1 -12.781 -18.8959 -0.385148 -2.96458 1.89597 0.407611
2729 1 -4.66525 -22.8427 -17.294 2.59542 3.55747 3.413
2733 1 -6.9605 9.01402 -19.434 -4.94398 -2.5469 1.95298
2735 1 -5.23963 7.93681 -14.7917 0.514379 -5.33539 -3.09855
2740 1 -12.5364 -15.5954 -21.1613 2.66708 3.86376 0.153222
2744 1 -16.7839 -18.4874 -19.4942 -3.96929 -3.11934 1.32604
2748 1 -4.46043 -1.89692 -10.3359 2.45632 1.79813 0.141675
2758 1 -21.2444 -17.1156 -8.78356 0.166561 -1.15759 5.47064
2767 1 -13.2254 -19.1405 -19.9572 -0.836473 2.37062 2.67485
2771 1 -19.0469 -11.877 -18.2507 -0.0551647 -0.245742 0.622552
2780 1 -10.8668 -2.79909 -7.25438 0.623694 -0.0973386 -1.74923
888 1 -8.5558 10.5128 -16.0823 1.51341 2.1059 -1.7438
2790 1 -7.54793 -5.12253 -15.3117 7.7808 1.57661 -0.14121
2798 1 -21.326 -1.22899 -3.377 4.51779 0.687178 -2.94388
2141 1 -21.2018 -24.0003 -0.367234 0.195211 -1.44316 5.07938
2800 1 -11.5851 -15.1555 -16.4523 -2.0324 -0.554676 1.55058
2805 1 -13.6489 8.73319 -8.3221 0.901409 -0.204033 -2.59266
3923 1 -24.0728 5.11978 -11.3072 -0.173985 -0.00132709 3.24468
2643 1 -0.364414 -13.0893 -23.6624 3.45167 -1.86625 1.17584
3862 1 -3.62184 0.151336 -15.8686 -0.66052 0.629487 -1.27886
2839 1 -17.4544 -4.62087 -22.5245 -0.768264 0.762856 -4.77186
2842 1 -4.71437 -13.6846 -10.0355 1.98659 -0.295196 3.45451
302 1 -1.09177 7.83462 -0.767111 3.1739 1.70425 4.53557
2855 1 -16.3754 -7.3046 -23.2375 0.0032314 -2.20986 0.220789
2417 1 -2.89901 -3.25902 -1.19957 5.79141 1.985 3.60174
2885 1 -6.63096 3.93678 -7.36354 -1.56957 -5.13147 2.64794
2888 1 -11.0006 4.79396 -22.2388 -1.67241 1.03035 -0.635214
2890 1 -1.36596 -5.83568 -21.3862 0.355746 5.40404 1.61073
2898 1 -9.21891 -9.16455 -19.314 -3.01232 3.79819 0.400361
2901 1 -13.8872 -16.8747 -16.5396 0.0955355 6.71095 -0.222508
2902 1 -16.8248 0.623078 -21.542 0.283254 0.387206 2.7654
2909 1 -10.3776 -5.61483 -22.4877 0.905714 -3.48211 -4.64028
3958 1 -1.83588 8.23543 -4.72951 -0.855978 -2.23319 -1.18171
2837 1 -17.8655 10.3625 -9.03074 -7.1178 2.69635 -3.64382
2926 1 -10.4548 7.08689 -11.6744 2.72009 1.11869 0.387293
223 1 -21.7089 -6.63209 -2.18957 -6.34123 3.72544 -0.329202
79 1 -23.2683 0.401663 -17.084 -1.54562 4.24399 3.72134
2937 1 -17.5583 3.62118 -14.9338 -2.96144 -3.60179 1.58236
2938 1 -6.41313 -6.34549 -4.05326 -3.35364 1.07967 5.56661
2941 1 -4.22038 1.94936 -8.01214 -2.10726 4.7648 -2.19363
3255 1 -17.5117 10.8687 -17.8801 -0.02421 -1.31738 -3.32907
3080 1 -20.6917 11.1748 -6.83816 2.65757 -1.00505 -4.01167
2960 1 -13.0659 -2.27644 -20.5166 0.810779 -1.62096 2.75851
2961 1 -11.9753 -12.8655 -21.0978 -2.11155 -1.07708 -5.31561
2962 1 -8.72791 -1.15535 -13.9737 -0.781937 -1.76657 -6.43439
2972 1 -8.87611 9.43664 -10.7499 3.07637 -1.29193 -2.17379
3922 1 -18.2574 -14.2992 -17.0061 1.11917 0.415611 0.978363
3007 1 -7.55286 -20.8051 -20.5056 -0.128545 6.75571 2.15146
3010 1 -15.0417 -19.0475 -12.9244 -3.31783 -6.48377 -4.08691
3011 1 -8.41245 -1.71091 -10.8664 1.31246 1.0616 -0.509685
3018 1 -23.1154 -1.00953 -14.7442 0.41544 0.165664 2.63366
1073 1 -1.60409 -21.5644 -9.7518 2.35413 -4.28535 4.86031
3034 1 -12.2582 -8.37704 -16.9159 4.28468 -1.46953 0.0200949
3038 1 -20.7445 -24.2347 -16.6996 -0.599482 -0.955545 -1.15321
3049 1 -12.2601 -20.8241 -17.9415 -2.15353 -8.33389 -0.314419
3051 1 -17.5772 -0.665186 -10.7824 -0.254969 3.5838 -2.84291
3059 1 -9.24751 -22.0942 -3.67987 -1.27682 1.80272 4.36181
3071 1 -4.34153 -4.4433 -5.08028 -1.51131 1.95131 -6.04888
3077 1 -14.9327 -23.7932 -7.61031 1.4657 4.69812 1.67476
3078 1 -20.9703 7.57659 -14.3855 0.204126 0.29584 5.81666
3085 1 -15.2446 -3.96185 -6.05154 4.95578 -0.725773 -4.3098
3093 1 -13.825 5.29803 -19.7393 0.525579 -1.69863 4.96721
3095 1 -15.1246 -13.3431 -2.5146 -1.63878 -1.33556 2.50752
3097 1 -6.58192 -10.1458 -20.5404 -4.9696 -2.04689 -2.74104
3991 1 -16.5648 9.72385 -22.7748 5.66883 1.0084 -1.68547
1891 1 -8.57992 -15.7215 -23.0139 -2.15657 0.343675 -7.00516
3120 1 -11.504 -5.79756 -18.6013 1.90425 2.97672 -3.71855
3125 1 -2.49483 -16.4987 -2.27093 5.53277 -2.16357 1.52455
3135 1 -19.2709 -12.104 -6.23948 2.61012 0.788627 1.23382
814 1 -18.6874 -3.00154 -0.278542 -2.05116 1.21032 5.56644
751 1 -18.819 9.43105 -13.0433 -2.17202 0.69787 -3.59819
3963 1 -15.7226 -16.0444 -2.01906 -0.297077 2.03305 -6.35228
3161 1 -9.64531 -17.3203 -3.78426 1.88145 -0.841278 3.89097
3162 1 -13.9799 -14.2015 -15.7059 -0.184534 -1.52756 0.874572
1412 1 -18.7303 8.97789 -6.75396 0.697273 0.0875157 2.30968
3202 1 -17.2825 -15.3408 -10.4775 -5.78078 0.374381 0.722966
3205 1 -11.9134 1.35639 -4.3243 -0.335478 -3.87556 0.463005
3210 1 -13.2157 9.97122 -3.26297 0.206769 1.78791 2.6013
3212 1 -12.6841 6.71641 -17.7769 2.32812 -0.166266 -4.91356
3213 1 -1.51288 4.19444 -13.1697 1.41286 -3.60546 -1.39059
3219 1 -8.7552 -21.4092 -15.6679 -3.93753 -2.60335 3.32946
3221 1 -2.8504 -8.57372 -2.09039 -0.2687 -3.49208 -1.9676
2161 1 -1.23479 10.9104 -5.01526 1.56259 -3.65844 -2.10573
1799 1 -11.0354 9.98982 -14.7177 -0.555457 5.17819 3.7532
3229 1 -9.1363 1.43999 -3.49945 2.98553 -2.0229 4.15481
3896 1 -5.28528 -7.06714 -1.5277 2.24071 -2.72884 -3.91497
3240 1 -15.0152 -22.6773 -19.0273 0.203166 1.9796 -3.2592
3247 1 -4.47579 8.26679 -11.5222 -6.41169 -0.790262 3.77947
3261 1 -14.773 -2.97054 -15.6325 -0.839744 4.21578 2.54931
1931 1 -9.45454 5.24559 -0.501514 2.47542 -0.57907 -2.10655
3294 1 -19.5721 2.4513 -13.4149 -0.86564 3.96385 1.51097
3300 1 -3.25564 5.73312 -8.52816 -2.7786 1.68315 -0.0945974
2170 1 -8.644 -16.2257 -1.06047 -3.65056 2.30423 0.418717
3326 1 -22.8991 4.47052 -21.1451 2.76173 -2.6336 1.14819
3331 1 -19.1105 -5.26016 -2.24345 -2.61418 2.47942 -0.0327371
1890 1 -23.4674 8.17624 -22.2761 -1.53705 -2.61763 -0.0601754
542 1 -24.0297 5.737 -4.18591 1.16352 -1.0334 5.59294
3355 1 -17.1837 -19.5805 -4.66728 -3.54466 0.397771 -0.511241
3362 1 -6.99407 3.65173 -14.281 1.20728 -1.33393 -0.381155
3364 1 -20.4761 -9.22357 -1.61534 2.20742 -0.718931 1.46
3366 1 -23.0869 -23.0533 -17.9091 -0.0604179 -1.12674 1.54548
3888 1 -5.5233 6.67704 -18.9174 -0.194367 0.465845 -1.11
3370 1 -18.9814 -15.3213 -12.699 -2.8662 2.86243 -1.21977
3381 1 -2.57861 -18.1104 -22.6993 2.42784 -1.44235 -0.459427
3385 1 -3.99667 -19.6804 -7.64987 3.15029 2.0567 -2.67918
3389 1 -13.3926 -8.54948 -14.1866 3.99412 5.77163 -0.458631
3392 1 -6.42535 0.152797 -16.6834 2.00311 -1.17223 -1.0487
3396 1 -18.5348 5.58044 -3.53943 -1.60138 -0.528704 0.801196
3398 1 -6.7968 -20.3174 -4.73551 2.26829 -1.34392 -5.78211
3401 1 -21.5275 -23.6737 -12.0242 -2.41057 2.60435 1.59274
1438 1 -1.56601 0.145871 -13.5588 1.69795 -0.0791161 0.968427
3413 1 -4.26945 -18.8276 -17.2087 -4.24304 -3.09153 -1.79387
3414 1 -18.1127 4.63924 -6.33882 -0.61668 -2.4914 4.02244
3415 1 -18.3737 -0.681705 -14.8871 -3.02022 -4.63833 1.55343
3431 1 -9.2108 -6.11844 -0.753999 4.68968 2.5984 4.49414
3433 1 -7.74415 -2.33849 -20.2486 -0.905852 2.42402 -1.36618
3445 1 -11.4488 1.46485 -9.86029 -0.343747 1.65989 6.77289
3446 1 -2.91989 -20.9882 -16.0888 2.28345 -0.809825 -0.451
3447 1 -5.59214 6.71974 -6.89285 -1.2339 -1.91802 2.12302
3450 1 -1.32826 -12.8845 -15.7542 -2.5882 -1.3077 -0.750523
3452 1 -11.0351 -0.260516 -12.0163 3.2194 -2.07437 2.95256
3466 1 -10.7055 4.19397 -6.52498 -0.638662 1.93844 -1.37748
3470 1 -15.48 -21.0112 -6.50588 -7.14173 -1.13608 -1.84236
3471 1 -17.47 -20.5347 -17.3743 -1.52756 -1.32281 3.74969
3472 1 -14.2789 6.97384 -13.4008 -5.7869 -2.31542 -3.47134
3477 1 -20.8577 -0.219902 -13.2901 5.55281 1.12642 -0.112369
3491 1 -9.0779 7.02792 -19.908 4.89657 -2.05234 -0.586116
3496 1 -9.46784 7.669 -14.2238 -1.10753 -3.99337 1.66497
3508 1 -2.39936 -13.2135 -21.4414 -3.52225 -0.293972 4.04652
3509 1 -22.569 -20.9864 -21.7713 3.86064 2.25281 -0.326711
3513 1 -20.8655 -20.404 -14.4124 4.76042 -5.40511 2.08769
3516 1 -19.3711 4.45342 -17.1019 4.93227 -2.67214 0.20904
3952 1 -4.28975 -5.81227 -18.4191 2.93342 -1.12607 1.94221
1903 1 -1.71338 -15.4986 -14.8795 0.930604 -1.21041 0.55559
3980 1 -23.3431 -16.0587 -13.3301 0.740241 0.705086 -0.713933
3558 1 -20.0426 -14.7228 -1.69799 2.88989 -2.90699 -2.66509
3569 1 -5.0775 4.03485 -9.94907 -7.85876 -2.3941 0.0530923
3572 1 -14.5479 -16.6196 -19.1245 -0.266716 3.08205 0.575526
3574 1 -17.6628 -4.79227 -11.1778 7.49617 2.90875 0.104758
3575 1 -9.78566 -10.4377 -12.7631 -2.59476 -5.51793 0.837632
3577 1 -9.26844 8.27198 -6.24751 -6.49396 4.15098 -0.0577804
3579 1 -18.0393 -13.891 -8.05109 1.75862 -2.18343 -4.54431
3588 1 -21.9812 -8.48714 -12.8079 3.13218 4.00512 1.23372
3589 1 -12.6382 -0.575374 -7.88194 0.942656 3.40308 -2.2287
3592 1 -7.97456 -17.7703 -5.93727 4.81552 3.09077 -2.4707
3596 1 -6.54849 -9.11644 -7.6374 -0.867776 -4.59567 -0.197524
3598 1 -14.0782 -10.5591 -8.96675 -5.80772 -0.932774 0.996386
3601 1 -23.9645 -12.3975 -6.03961 2.3369 0.741789 1.07181
2572 1 -24.1179 -16.0663 -5.28032 5.15763 3.886 -0.974987
3626 1 -13.5298 3.19968 -6.0077 0.615163 1.00605 3.51725
3645 1 -18.0336 -17.529 -8.64507 3.13518 -2.48944 -0.387798
3649 1 -18.9253 -2.04606 -18.9715 3.47827 0.384335 -1.68589
3663 1 -21.4257 -16.1067 -11.473 -4.63556 4.76823 5.72504
330 1 -14.2989 -22.7201 -23.8684 7.59728 1.37252 1.56763
2688 1 -16.6664 -5.10561 -0.692878 3.17864 0.507 -2.08999
3961 1 -3.15252 -20.721 -2.95324 -0.400795 2.30834 0.432207
3690 1 -11.0553 6.88746 -4.88305 -3.95394 3.33069 -1.05857
3694 1 -19.068 1.14244 -8.46618 1.98238 -2.63192 -4.86828
3700 1 -6.17485 -19.869 -15.0457 -0.606033 6.21653 -2.63433
3702 1 -5.99423 -2.6898 -12.3087 -0.625624 -2.13038 2.71969
3706 1 -13.8307 2.63622 -15.2361 2.23057 -1.37773 0.341631
3724 1 -3.65075 0.246681 -4.1443 -1.94245 0.316017 1.47733
3726 1 -7.73011 -12.5551 -13.0899 -0.908784 3.765 -4.21155
3729 1 -21.6531 -11.2529 -12.492 2.91228 -0.493612 -6.71298
3741 1 -19.2232 9.81386 -2.9913 -3.26791 0.190812 0.818653
3742 1 -4.28494 -16.3747 -15.7366 1.01567 2.18203 0.855124
3748 1 -16.3616 -2.8383 -18.1015 1.59901 -0.161243 -2.57874
3881 1 -15.8461 -0.139292 -13.2624 -0.884831 2.46505 2.76703
3759 1 -11.6026 8.36889 -19.6603 0.375398 0.904579 -1.06087
3950 1 -5.67075 1.47427 -19.1988 2.41398 5.33633 3.24314
3906 1 -17.5419 8.0732 -4.15807 -2.21368 -5.16234 -1.89607
2915 1 -14.0303 -12.1935 -22.8361 1.98979 3.45077 1.7386
3794 1 -3.858 -19.7746 -10.5497 -0.452982 2.27629 -1.65818
3796 1 -12.0489 -11.3768 -11.0351 -0.0169222 1.32255 -4.2652
972 1 -7.847 -18.9654 -2.10163 1.17409 0.723886 1.79238
3823 1 -6.21599 -17.9709 -9.95802 -0.136164 5.19507 -2.72439
266 1 -21.0503 4.81611 -14.8988 -4.1116 -3.51943 4.53526
3829 1 -12.7096 -17.2463 -6.084 -2.2995 -4.04445 -0.619121
3838 1 -5.99448 4.81052 -4.66012 2.81547 1.2124 3.45723
3845 1 -3.60342 4.82218 -23.4791 -1.02013 2.34306 0.655495
3847 1 -16.3177 -15.8394 -15.408 -3.58054 -2.15952 -0.774787
3851 1 -3.46724 8.30385 -2.61141 -2.56769 1.34819 -0.41699
1648 1 -20.0537 -13.4803 -23.8173 1.02093 -0.366085 1.85886
3267 1 -17.5684 9.26811 -0.42892 0.0921219 -0.369439 -2.43974
3231 1 -18.0584 -16.6187 -0.705063 -1.5025 -0.84121 -3.09858
2295 1 -12.3819 10.4322 -23.8032 -3.40261 -2.1579 -0.889463
3151 1 -11.3693 -24.3982 -14.5189 0.176434 2.35449 -1.91272
2306 1 -1.02072 -2.46511 -23.1763 1.00014 -0.595793 1.85822
2506 1 -21.63 10.4061 -9.60129 5.29323 -2.82873 -2.774
2153 1 -9.3781 -12.2877 -0.108833 2.30917 -5.0095 2.51883
3998 1 -11.4487 -4.32743 0.0425876 -5.11268 4.31126 2.37812
742 1 -7.35019 -22.3932 -23.8524 5.54764 -0.033817 -1.53485
597 1 -24.2647 -23.5312 -11.91 -1.70454 -0.140573 2.47175
2069 1 -24.5033 -21.8232 -9.94183 -6.84968 5.15051 2.75876
1289 1 -24.4938 -11.7637 -12.4009 -3.40839 5.27697 3.94005
3126 1 -0.230869 8.38964 -7.53022 7.76498 -6.70475 -4.97717
2893 1 -11.2517 -16.426 -23.9641 2.93343 1.34244 1.1251
2625 1 -5.09217 -7.74601 -23.9235 1.83591 5.16328 4.00718
1359 1 -21.2096 -23.5471 -24.2375 -0.228608 -3.06219 -3.08369
222 1 -11.1259 -8.45443 -0.517099 -1.31047 0.281007 -1.18079
3181 1 -20.5413 -16.2873 -24.0455 -0.25504 1.61915 0.598317
2478 1 -3.8123 -21.8675 -0.210432 -5.09095 -1.83742 -3.49766
3469 1 -1.07147 -7.8315 0.11925 -0.526711 3.7117 3.21608
2711 1 -12.7788 -4.6525 -23.5693 -3.74138 0.672236 0.401425
5 1 -20.4704 -19.3917 23.5825 -2.20352 2.06882 -0.825903
9 1 -15.7606 6.02535 4.87428 -1.32949 -2.20289 1.35682
13 1 -20.4891 -14.3028 12.7442 -1.87643 1.16071 -0.00288939
16 1 -18.0993 -0.591842 6.52021 0.772003 0.670047 2.22193
1478 1 -0.51097 5.46766 4.58262 4.54283 2.29146 -1.43535
906 1 -8.58119 -24.4953 18.5912 4.56654 -3.42872 -1.42513
28 1 -19.7969 6.70043 2.57887 -2.59612 0.890087 -5.01544
34 1 -19.2198 -23.2981 16.2905 1.09152 9.50279 -2.30473
1149 1 -1.05923 -12.7057 8.50899 -0.345197 -0.820653 -4.92369
43 1 -12.6015 -6.48055 1.37787 -0.758901 -1.51209 3.19035
46 1 -23.0514 -21.3703 19.2472 1.18316 2.4717 0.255503
47 1 -7.36719 3.76678 21.5507 1.36148 0.506795 -1.87037
51 1 -8.32388 -3.50857 18.9625 0.244068 1.20624 4.24138
56 1 -16.4378 4.49518 2.6437 -1.08478 -1.09749 -2.31362
3008 1 -1.95306 -19.4494 23.1276 -0.393517 -1.01103 -0.118444
76 1 -23.1728 -3.2504 3.7216 0.201118 -2.59131 0.522505
1208 1 -24.1854 -8.08437 9.15288 3.46736 -1.09967 1.54311
64 1 -9.1653 -2.85746 1.3384 3.59274 3.18331 -2.00224
71 1 -9.76805 1.26089 3.71258 -1.11541 -2.06321 -0.596543
73 1 -11.8248 -18.6351 15.1918 0.464735 0.514492 -1.8157
2601 1 -1.23083 9.82763 6.12316 -0.584098 -6.76233 5.27193
89 1 -9.50659 -3.67186 23.1239 -3.49647 0.308339 4.25976
93 1 -17.1219 -23.8025 18.092 -5.53104 -0.0367661 5.64692
165 1 -17.2845 10.7046 16.6007 4.82512 -0.0041938 0.0361424
108 1 -10.3363 2.85759 23.6988 -0.234981 3.31827 0.629713
113 1 -4.99288 -6.65557 18.4939 3.76801 1.1567 0.770358
114 1 -21.0727 -18.9456 19.6649 -3.09348 0.128955 -1.02519
320 1 -0.796234 -1.1488 8.9143 4.44671 -1.9677 2.35615
122 1 -5.95992 5.9934 20.6146 5.93622 -2.17203 0.398049
133 1 -16.9339 2.76845 17.2061 -1.24423 -2.76571 -4.00387
146 1 -10.6142 -10.422 14.2823 6.94116 -4.01357 1.92814
152 1 -6.77057 -4.7168 16.7703 -0.0345873 -0.863172 -0.107872
159 1 -20.7413 -11.2034 12.4502 -0.666218 0.0120263 -1.37917
162 1 -14.7945 -12.1237 19.832 1.94361 -2.07861 -8.5286
3494 1 -18.1331 4.67065 22.4534 -2.27552 2.15724 -0.471357
171 1 -14.6945 0.39977 14.6796 1.86082 -1.44344 3.47758
173 1 -19.9668 1.01161 22.6775 -0.829652 -0.391919 -3.15418
177 1 -4.41514 -20.8833 14.4382 -0.838201 -0.663046 -3.48122
1920 1 -22.8958 -14.5952 1.93613 -4.52075 -2.15677 -0.740209
182 1 -20.1264 -4.12547 14.155 2.53703 -2.83318 -2.85865
189 1 -4.401 -3.0287 2.34156 1.66954 -1.54055 -0.980968
1153 1 -3.88672 -19.4569 1.43778 2.74623 -4.62229 0.500829
264 1 -23.7874 0.225029 16.5262 -1.7263 3.54588 1.18897
2966 1 -4.1645 -24.5654 16.898 2.67883 0.908021 4.26364
464 1 -13.5268 -23.6909 5.07237 -5.29122 -2.84228 -0.788619
232 1 -2.23635 -16.6185 11.1676 -2.25047 1.03704 0.246381
241 1 -21.2412 -15.982 10.457 0.00379756 3.55666 3.30673
243 1 -6.87668 -9.00323 8.68506 2.97333 1.0502 3.2663
986 1 -1.3091 5.13195 11.8953 -2.64254 -5.53992 -2.65124
247 1 -23.9796 -7.41955 13.8136 0.0419905 -3.37741 -1.61756
1796 1 -22.1603 -10.7618 23.5697 0.441978 -0.620857 -0.131916
1006 1 -23.1141 10.003 18.1181 -0.0834437 -2.07009 -0.986925
1994 1 -22.3233 -16.4888 4.20175 -0.612321 -0.0773931 -0.00559399
270 1 -21.5813 -16.6811 17.5211 -0.983661 1.88105 -3.40644
273 1 -17.5946 -10.1759 13.2579 -4.71267 -0.124737 -3.40835
289 1 -6.71059 -21.8109 10.8145 -1.80751 -1.29581 -3.77922
291 1 -10.1758 -20.9153 14.7042 -3.286 -0.395415 4.68835
304 1 -19.8562 -19.1395 13.4435 -1.95531 -5.09203 -1.83589
308 1 -16.7024 -21.9999 2.64069 -4.80878 -0.812974 -0.171457
935 1 -24.1039 -10.1949 0.767709 -0.728475 -1.75928 -4.69485
319 1 -12.1738 0.988079 13.1199 -2.90168 1.47472 0.566243
1163 1 -17.6242 -24.0156 12.8674 -4.87039 -5.00912 0.597557
323 1 -14.5454 0.389005 3.03997 -3.69265 -4.68995 9.11827
325 1 -1.97809 -23.1642 19.4633 -2.64848 -0.486894 -3.86144
326 1 -18.1001 2.16156 1.73048 -2.37571 -2.04123 -3.58889
327 1 -4.35589 -11.9418 20.7122 1.11436 8.21526 1.63729
61 1 -11.7601 -1.56436 1.3665 2.53618 1.05992 1.95789
345 1 -11.6764 -6.00827 14.1185 0.584741 0.748873 -2.29713
348 1 -10.8937 -5.19642 9.13287 -0.340031 -3.46048 -3.5985
349 1 -4.93802 10.4583 22.7181 0.444878 -2.06957 1.60634
351 1 -16.982 2.30378 12.1211 1.89207 0.0467251 -3.52285
355 1 -3.25801 -1.85602 6.95824 2.85175 1.07955 -0.684824
357 1 -7.36356 -15.0979 1.17322 1.85421 2.8489 2.11187
2753 1 -0.792569 -4.75944 13.3619 2.27748 -2.06693 -1.97108
363 1 -18.5785 -19.6272 8.91704 0.649916 -0.94682 1.05951
3893 1 -7.4348 9.03137 9.35122 0.96221 -1.97124 1.25001
806 1 -2.20565 -14.0928 14.6522 -0.031638 8.13507 -2.15625
585 1 -8.83371 9.04986 15.7407 -0.0229383 -4.81536 3.82763
224 1 -12.0012 -2.15958 23.2237 -0.395924 0.00346337 0.919454
381 1 -22.0358 -17.9354 15.1925 0.366032 -3.65864 0.106369
385 1 -8.58129 1.92199 19.4224 1.63322 -2.24528 1.95541
3087 1 -9.87583 -24.1957 12.5539 0.4966 -0.114501 0.964466
389 1 -12.7386 8.02775 6.83043 -1.46939 2.75544 -0.357474
3931 1 -2.6356 10.7668 3.78079 2.55435 -1.87113 2.39325
2485 1 -1.70886 -19.407 4.68817 -3.05771 -2.6283 -3.49887
404 1 -14.5177 -2.21316 1.49796 0.575732 -1.9962 -3.44528
1519 1 -10.6548 -17.2757 0.892895 -0.417717 1.27961 3.27592
412 1 -17.0095 -5.08974 6.27786 1.41973 2.12254 -3.28792
417 1 -12.4713 -0.804522 9.73645 -3.75273 -1.38448 -0.128252
420 1 -1.59293 -2.99711 11.0173 -1.69237 -2.70478 -4.837
423 1 -7.89749 3.6197 4.46213 -2.18603 -1.97569 1.06549
427 1 -15.0684 -22.8775 21.6526 -6.3299 -6.69147 -5.03486
3749 1 -21.6353 -3.17082 11.7231 1.13066 4.90277 -3.65441
448 1 -15.262 -1.87242 12.9821 2.11472 0.756165 3.00611
462 1 -6.48333 -19.0926 21.3333 -2.06509 0.633747 -1.42993
2075 1 -6.82377 -14.4571 23.2454 -0.378186 1.1688 1.0858
1223 1 -22.6146 9.64416 11.6196 0.229997 0.160688 3.97402
467 1 -2.67705 -11.0336 10.6342 0.207318 4.67053 1.82663
472 1 -16.0757 -5.08839 17.5974 -2.32793 -0.841846 1.20673
2793 1 -2.04597 2.56572 6.14043 1.26868 -0.611774 1.99589
491 1 -18.0324 -11.8996 10.9507 3.2142 2.83475 1.88917
500 1 -4.80728 -14.9075 9.49198 -1.45219 0.0585865 2.02824
504 1 -3.23216 5.27035 5.34046 -2.511 -0.0122289 -3.20066
513 1 -19.4382 -13.5367 15.549 -2.30327 3.39213 4.42195
3913 1 -8.72379 3.23659 1.49348 -2.0164 -0.412711 0.0597022
524 1 -2.88445 -2.80821 17.9017 -8.72662 1.38183 -0.860838
529 1 -7.526 -13.7865 8.64123 1.19359 -1.408 6.95274
530 1 -9.51833 2.46682 9.93285 5.74619 -5.76542 -7.38783
533 1 -13.5511 -22.7916 13.2384 -0.993352 2.93503 1.00095
538 1 -18.2981 -8.08417 11.3582 -1.98694 3.23885 3.36215
540 1 -11.0154 -11.4127 3.83809 -4.57916 -0.663866 2.15671
541 1 -13.614 -1.87165 16.3661 1.62669 -1.548 -0.710628
549 1 -19.9766 -5.42002 6.82926 -2.74102 2.8243 4.44096
1971 1 -22.4636 -2.15339 8.18338 1.28281 -2.86167 2.44191
558 1 -5.11526 -15.5729 14.5549 -3.01031 -5.91004 2.82837
559 1 -8.34284 -18.51 7.17512 -2.08662 0.886869 -4.33296
564 1 -10.3076 -21.404 11.7699 -0.685758 2.04205 -1.65423
581 1 -15.4968 -8.02783 15.0402 -1.06604 -6.25806 -3.24752
592 1 -13.7507 -14.927 12.0392 -6.37016 2.06677 0.169055
593 1 -12.9977 -22.7732 17.4618 3.53705 0.948137 1.36506
594 1 -18.7184 -1.25216 3.75377 2.23966 -1.35242 -4.6916
596 1 -10.9427 -20.0608 8.26243 -2.37148 0.229118 0.0334131
602 1 -9.93813 4.85599 21.5914 -0.410605 2.30256 -1.03706
605 1 -21.8429 -1.99697 18.558 0.562209 3.7885 -1.40912
607 1 -0.791358 -2.46141 15.5614 0.166073 -1.61496 -2.8603
622 1 -21.0968 -9.59883 1.12151 -1.50419 3.13336 -6.48469
631 1 -6.53474 -18.0299 15.4875 2.93828 1.61554 -1.65781
632 1 -13.3781 -20.8771 4.16145 2.85623 -0.750853 5.48181
634 1 -10.269 -3.39748 16.7976 2.60536 1.46361 -3.71458
642 1 -10.8373 -2.55856 8.00042 -2.98648 -5.09385 -0.938592
650 1 -9.11407 -0.92401 19.9718 -3.05689 -1.68942 1.60456
664 1 -15.4849 -20.8581 13.866 -0.994928 1.08441 3.04342
665 1 -2.28405 -5.67306 18.3245 -0.577806 4.5725 1.12439
2247 1 -23.1506 -12.3877 9.75242 3.28561 3.42398 -0.134221
686 1 -16.5848 -2.36433 17.3168 1.46662 0.451481 -1.64111
687 1 -14.6514 9.68778 11.3717 -3.27062 4.43907 -0.498273
692 1 -8.62562 -7.70904 3.46083 0.235254 -0.257343 -2.58747
696 1 -8.38934 -21.3951 8.17239 -1.6446 0.994308 -1.90148
699 1 -15.0373 -12.2531 16.1931 4.64086 -4.39664 3.19369
702 1 -16.9093 -5.45591 11.6311 -0.207564 -1.58451 0.0539317
704 1 -7.74095 -11.364 13.7271 0.154637 3.31622 -4.7116
707 1 -15.8656 0.862346 19.9279 3.61918 -1.50435 3.65418
710 1 -2.66459 -8.01861 11.2327 3.80955 -1.45559 2.42462
1864 1 -5.9488 11.1836 19.4453 -2.515 1.15755 2.40791
718 1 -11.4513 -8.18421 3.28707 -0.747486 0.778652 2.788
726 1 -3.80315 -9.27402 19.5485 -0.261819 2.2685 -0.182918
733 1 -13.3094 -18.2664 5.77382 0.297972 -4.36412 -1.24301
738 1 -11.3481 5.59537 17.4987 2.76013 0.972976 -1.84126
739 1 -16.3633 -17.5381 1.91178 -1.39015 -3.65616 -1.07691
3222 1 -14.6306 -20.2435 1.40541 -2.40357 4.33942 -1.66653
745 1 -20.5303 3.15727 20.4879 -1.83094 1.93689 0.629238
3842 1 -22.6814 -0.178345 22.127 1.68117 -1.82863 0.764509
748 1 -10.9974 -21.3243 23.2269 1.68453 3.84003 -1.84511
2984 1 -2.00362 -0.473014 22.1002 -2.38006 2.25581 -1.85195
758 1 -13.939 -18.5186 20.7949 0.466914 -2.79731 0.301211
1176 1 -1.80494 -11.0077 14.4041 1.10468 -5.4536 2.66038
768 1 -5.53313 10.105 7.22924 -1.64262 -4.87213 0.685894
781 1 -16.3487 1.12823 8.33469 2.75439 3.64318 2.38663
788 1 -20.0289 4.70635 4.61688 0.466004 -7.38635 5.4074
797 1 -16.314 -13.7284 12.6062 -2.76606 -0.359978 1.7383
800 1 -17.0652 -12.5637 18.2754 2.66903 1.8692 3.97136
802 1 -18.2673 -19.8073 16.9137 4.06082 2.86637 1.00226
3224 1 -4.13176 -5.8206 1.04542 -1.48898 -0.295929 -0.233461
818 1 -8.66125 7.42037 20.5369 2.74982 1.4812 -0.492322
825 1 -22.8782 5.52844 3.93123 1.21979 -0.861592 0.246009
3841 1 -24.2222 3.64567 10.602 -1.25821 0.439674 -2.04989
828 1 -7.30132 -20.5181 14.6184 -1.83881 -3.35893 2.36646
830 1 -9.23563 -9.23638 19.0986 1.27955 -1.23181 -2.06995
832 1 -3.91185 -3.38883 9.50796 -4.02359 4.71519 -0.155012
854 1 -19.9889 -14.0174 3.06425 -2.04686 0.384696 -3.05073
249 1 -0.413003 -21.039 9.45449 1.38137 -5.49863 -2.16438
864 1 -13.043 1.14809 19.2678 3.61735 3.14374 -0.64538
1075 1 -1.40481 10.6158 13.4055 -6.18213 2.32293 5.70437
881 1 -2.94188 -2.93483 20.7469 2.95899 -0.258515 -2.34336
889 1 -13.8044 -4.47072 15.4173 -0.0425752 2.97462 -0.368369
891 1 -22.116 -1.5129 1.67076 -1.22024 -1.00172 2.36485
42 1 -14.1127 -16.3974 0.0682895 -1.81697 2.90216 -2.58114
1998 1 -13.4595 11.4952 0.387834 1.71976 8.15192 -0.524375
908 1 -8.11753 -19.5242 12.0839 1.77171 4.09137 -6.68249
916 1 -16.7497 -18.0821 21.8545 2.79561 3.13652 -1.15785
918 1 -3.37504 6.08751 2.4361 1.35917 4.16754 0.287326
3147 1 -1.195 -16.2616 1.47642 4.05894 -3.79973 1.75981
3289 1 -17.2165 -23.0905 10.252 -1.25395 -2.79179 -3.34156
946 1 -13.5922 -9.08009 6.34471 3.12298 -0.616725 -6.43956
950 1 -20.2223 6.20084 13.3707 -0.677114 0.736478 2.21696
957 1 -5.13673 -3.23872 13.7327 5.09115 4.67573 -2.61372
3182 1 -17.664 -22.8698 22.4238 -1.56501 -2.01435 1.46193
960 1 -3.36 -21.7801 4.44928 -0.870291 1.74292 5.75559
966 1 -16.6221 -5.33924 14.415 4.83278 -0.131149 -0.799478
973 1 -11.7982 -5.84101 17.0036 -4.01418 -0.524498 -1.66136
975 1 -9.39104 -10.7625 6.30575 -3.46328 2.88076 -1.93581
976 1 -15.8062 -7.87492 10.1865 -1.5451 4.11338 -2.77753
982 1 -5.7529 -8.45135 3.13695 -0.301446 -2.21543 -4.56541
983 1 -21.2618 6.62666 18.0475 6.00412 -4.23336 1.42448
362 1 -20.054 8.82769 4.40509 3.51064 0.253113 -2.99236
987 1 -21.8715 -18.4793 11.5197 -2.80262 5.18983 0.300383
988 1 -10.0522 -23.6587 8.25985 2.69607 4.20002 -0.320778
991 1 -5.24976 -6.90431 5.9272 2.65683 -1.24811 -0.749132
3591 1 -6.52661 -11.4839 22.5879 -3.7675 1.35332 1.02062
2662 1 -21.0185 -23.0637 10.6341 7.94722 -1.08359 -0.0423985
3461 1 -13.2811 -24.0032 19.9891 -0.115279 -0.623176 -5.93008
1002 1 -12.1915 -15.8944 4.68507 -0.200393 -0.740662 0.0888087
865 1 -0.585611 -21.5314 12.2863 -1.68 0.873234 -1.34536
3827 1 -0.647522 5.29431 17.1594 -0.296681 2.3901 -1.79858
1016 1 -20.6777 2.95397 6.79183 -0.303569 -0.743683 0.200413
1017 1 -8.05583 2.48307 16.364 -0.812052 3.07394 2.1757
1018 1 -21.5733 -20.735 5.61424 -5.50374 1.77752 -3.12641
3495 1 -23.9758 -6.04641 17.419 3.66955 0.916906 -0.3749
1027 1 -21.0299 -8.13001 12.9466 -0.245003 -3.35937 1.63378
2737 1 -22.5025 -19.2478 1.08122 4.33895 -0.939769 1.80131
1037 1 -10.8669 -17.9389 17.7775 -1.64286 5.00196 0.0592642
1038 1 -3.77231 6.61896 11.3708 -0.454986 1.37679 0.411412
1014 1 -20.6032 -23.4181 2.41017 -3.81939 3.81688 -1.90245
1047 1 -16.2523 3.70279 20.1405 -5.57551 2.31623 -1.23673
1060 1 -17.2226 -12.0135 8.25163 0.799382 -1.17649 0.711758
1062 1 -8.64771 -1.15363 10.3108 0.55076 -2.04817 -6.69179
1067 1 -20.1108 5.05403 8.90381 0.695424 1.0678 3.38192
1070 1 -8.04439 6.29471 10.6465 2.07362 0.100919 3.07625
1079 1 -14.9948 -2.20467 10.0772 3.94151 -2.19615 0.728419
1089 1 -16.6553 5.72537 17.6234 3.09167 -4.83574 1.93387
1536 1 -5.06973 0.836942 23.3531 1.33902 5.57156 -3.9299
1098 1 -11.9737 -5.57491 19.858 -6.88223 1.94551 -1.25542
1104 1 -20.9655 -0.104709 6.83976 -3.6686 1.21635 3.74897
1106 1 -16.0134 -18.5529 6.29355 -5.73746 0.0659983 -1.56359
1109 1 -17.6899 -12.9458 4.61886 -1.86285 -2.0849 2.09409
1112 1 -2.8143 -13.3397 17.3265 -0.721189 -0.344901 -0.792287
1114 1 -18.2875 -3.55631 9.98097 -1.46104 1.34932 -1.7914
1116 1 -13.8142 2.69016 7.73027 7.13403 0.708623 0.803132
1125 1 -23.1137 8.35777 3.99302 -3.27876 0.688979 -2.24159
1138 1 -22.95 -22.7271 4.18184 0.112175 1.16619 3.10686
3070 1 -23.113 -7.25127 1.38421 -0.185396 -0.840778 1.38915
1141 1 -19.2299 9.67295 13.3238 1.50819 4.62127 -2.49933
3518 1 -3.92152 2.69546 0.709972 0.188895 1.3164 -5.64073
3695 1 -6.8909 -4.89101 0.689682 -0.874013 3.17172 -5.44259
2749 1 -12.1516 -9.60467 23.3407 -1.4188 -0.760586 -2.46976
589 1 -1.60681 4.17567 0.805701 -7.31485 -7.72836 -0.159126
1158 1 -17.9368 0.214963 17.992 -1.02363 -3.55142 -2.95322
1525 1 -7.22582 -7.89954 0.666084 3.7974 -1.63093 -2.27782
1164 1 -18.3539 -15.0648 11.1715 -0.951795 -1.40953 -2.64628
1139 1 -8.50349 10.4186 3.99391 4.43915 2.47058 1.07867
1178 1 -2.92711 6.71409 7.85941 0.582785 -3.17687 2.7851
1205 1 -4.24925 -20.0614 11.753 -0.556483 1.14729 -0.77184
1211 1 -14.7783 -11.2511 13.2973 3.18605 0.945627 -0.175517
2405 1 -3.32734 -9.90457 23.6062 -2.13419 0.867996 2.59316
1236 1 -4.9875 -21.7365 17.5109 -3.37828 2.91947 -0.0511508
994 1 -24.4419 -16.2318 17.5744 -2.16813 2.49008 3.91046
1240 1 -5.46046 -23.2496 3.1636 -1.18726 -1.30252 4.08972
1244 1 -16.8079 -0.232103 10.8971 -3.67061 0.24914 1.23266
1246 1 -5.1072 -15.4003 5.81068 -0.246077 -1.29788 -1.06589
1254 1 -20.407 -18.5574 4.11284 0.472613 0.0210769 0.947624
1255 1 -2.9081 -8.75626 6.71319 -2.51507 4.99445 3.33956
1258 1 -14.5722 8.2897 21.0823 -5.34715 0.611422 4.17566
1272 1 -20.6706 9.46729 16.8556 -1.06817 -5.12347 3.45876
1033 1 -3.81341 -16.7689 0.273311 1.12949 3.49956 0.813153
1296 1 -4.54776 -10.5804 4.81676 -0.442528 -5.48525 -6.63059
1305 1 -5.34365 3.46233 9.99118 2.05288 -0.801651 2.75725
1308 1 -16.7004 -2.7786 7.62894 -1.00059 -3.50032 -0.480847
1312 1 -16.6381 -10.3774 3.93229 2.70371 7.34436 1.8738
1608 1 -23.0568 4.78598 8.43348 -4.08392 -0.169419 4.56558
1361 1 -7.03562 -22.1862 5.58421 1.63356 1.02311 1.50196
1367 1 -6.89063 -13.4695 15.666 1.55006 -2.24335 4.86281
1373 1 -13.1658 -8.74989 13.9843 -1.61634 -3.46342 -6.56566
1379 1 -17.6718 -17.2436 4.65844 -3.01286 -0.987943 -0.0993782
1386 1 -15.7156 8.47411 3.59292 0.912307 3.16738 3.86776
667 1 -22.7498 -21.1887 23.2805 1.50026 4.02698 4.44862
1396 1 -16.7309 -9.61476 6.73887 -2.2431 -1.79428 -1.19292
3686 1 -23.7591 10.1375 -0.0514914 1.38326 -2.42323 -4.71119
1415 1 -7.3449 -21.4608 1.85694 2.41233 -5.40236 -2.93605
1416 1 -20.175 -8.43998 9.31566 1.59251 1.99201 -2.68905
1428 1 -3.61781 -18.7421 21.064 -0.947191 -0.938641 2.28235
1429 1 -19.7608 -16.4564 6.63966 0.55249 -0.517776 -0.281584
3163 1 -21.749 -1.86852 15.6645 -4.28235 4.63488 0.553583
1434 1 -23.6515 6.56364 23.3082 0.0477651 1.30373 2.66983
1441 1 -18.6789 -14.7083 19.5365 1.31267 -3.95203 -2.15951
1448 1 -16.8438 1.03138 4.606 1.89623 -4.31327 -8.70599
1462 1 -9.31747 -18.0662 9.93164 -2.02203 0.605681 1.01975
1470 1 -3.44865 -12.6767 2.66842 -7.82549 0.629229 2.70123
2691 1 -19.1744 -22.7874 20.0712 -0.307444 -1.66423 1.14993
1486 1 -18.7696 -5.9546 17.4753 0.315386 -3.74252 1.00001
1488 1 -17.7027 -17.3839 12.9374 -0.384283 -1.48818 0.240452
1495 1 -21.1744 -10.434 20.689 5.48503 -0.986861 -1.47914
1498 1 -15.0295 5.33527 11.1065 2.48947 -2.14815 1.00176
430 1 -21.9693 -2.79984 23.5179 1.39251 0.613202 1.62566
1513 1 -20.7836 0.930898 18.5111 -2.4066 0.60051 4.40029
1515 1 -6.77816 -21.8186 21.3225 2.73291 -0.885409 2.78927
1239 1 -2.28439 -23.4962 6.19286 -0.575319 -2.98455 -3.45921
1521 1 -7.62595 -9.75525 16.2398 0.556991 1.87661 0.272494
1523 1 -7.0915 3.85373 12.4077 3.18109 -0.532664 -3.23986
1267 1 -23.954 -13.2669 4.4867 -0.797935 0.113051 4.2602
1529 1 -7.65397 1.18837 11.4928 2.38363 2.44768 2.99089
1534 1 -13.2604 -8.71335 11.1011 2.54748 1.12813 -2.31686
1542 1 -20.8732 -5.69596 19.7867 3.20438 -0.637608 -5.22221
1545 1 -9.40294 -14.8686 15.4371 6.93382 3.50818 -5.25393
1546 1 -14.034 -14.5815 21.1906 1.17356 0.916833 -0.202377
1560 1 -18.7215 -20.2161 21.5449 -2.17791 -2.36805 1.92374
1563 1 -2.95737 -4.82293 15.5485 -3.07511 -4.28545 -1.4565
1572 1 -1.70309 -18.8842 12.6211 0.249844 0.531035 -3.38772
1573 1 -8.19282 -11.9079 18.0974 -1.20692 -3.42367 -1.60913
1581 1 -5.81789 -5.11445 10.6374 -2.26629 -2.39613 -1.85015
1584 1 -3.6015 -5.60685 12.8248 -3.97558 -2.91681 1.05326
1585 1 -8.86644 -11.7492 20.8575 0.630513 -2.77941 4.51114
1586 1 -17.559 -20.0486 0.550737 1.14068 -0.262678 -2.10017
1599 1 -20.8515 -4.30711 9.23593 -1.78046 -1.93434 0.449054
1612 1 -22.8199 -20.3575 16.3949 -0.473003 -1.27544 2.2361
1614 1 -15.4736 -14.5329 2.15896 -5.24561 3.99328 3.40305
1621 1 -19.5788 3.36823 12.5016 2.38901 0.643619 -0.532258
1623 1 -8.14903 -16.6629 17.26 -1.7815 4.00119 -2.30123
402 1 -1.2655 9.09693 18.3913 -5.55127 -3.94694 -0.35685
2665 1 -23.5236 1.02686 1.76768 1.57377 -0.857816 -3.2825
1644 1 -19.547 -1.30338 11.4626 7.29403 -3.59366 -1.8037
1659 1 -5.06638 -23.8551 7.17427 -2.84388 3.26198 1.40852
1665 1 -6.06896 7.01933 17.9185 -3.67803 -2.08816 -1.92896
1667 1 -13.6075 -4.97945 7.98173 0.834502 2.54961 2.97958
1671 1 -12.9556 10.5666 21.3667 1.74032 1.8781 0.209243
1690 1 -7.17707 -23.1288 13.3384 -2.29782 2.03806 0.284565
1691 1 -15.4752 -14.4221 7.83249 0.0948515 2.17213 -2.13562
1697 1 -11.19 -22.0006 5.98138 -4.7812 1.31473 1.08683
1704 1 -7.2674 -12.0175 5.00085 -5.43494 3.7637 -1.94129
1707 1 -10.0191 -8.22558 16.4296 -2.96648 4.46594 3.14428
1711 1 -5.73888 4.1103 2.40842 -1.26641 0.193238 -0.317468
3843 1 -1.36339 -18.0475 15.1205 -1.10187 5.5555 -0.49517
1729 1 -14.9912 6.86107 15.2872 -0.89337 -5.1516 -2.41585
1733 1 -11.4313 -16.1473 10.2658 -0.531665 -4.74686 -0.978181
1739 1 -7.45649 -20.8156 17.5246 2.07876 1.04573 1.49611
1756 1 -16.7758 3.99065 8.14048 1.9217 0.647825 -3.48558
1763 1 -2.49056 2.79832 12.9645 3.68329 -3.58465 1.28568
1766 1 -17.4871 1.40689 14.7424 -3.63379 1.58213 3.41525
1770 1 -9.39316 -5.15599 20.8578 -1.4684 1.45117 3.84089
2980 1 -6.22944 11.265 2.74062 1.85359 0.626055 0.810304
1788 1 -14.3439 -15.888 16.4108 -2.73746 5.97716 2.35917
1792 1 -15.0152 8.68627 8.65007 3.23131 -2.45081 -5.08297
1807 1 -17.2345 -10.7768 22.4298 4.3209 -1.20766 5.56898
1813 1 -17.2273 7.9977 19.6715 -0.681683 4.27818 4.86125
1818 1 -21.271 -10.157 5.64167 -3.61405 4.2351 -3.80055
1819 1 -12.9945 -11.6073 18.0014 -0.446903 -4.21216 -4.20784
1824 1 -16.3255 -18.2721 9.11488 0.156196 1.12294 -0.365335
1832 1 -22.6763 -13.4855 23.0927 -0.677086 -1.48112 -3.37276
1833 1 -10.8217 2.74676 16.2612 -4.91509 -2.66431 0.599353
1857 1 -0.903614 -19.6788 1.92071 4.18029 -5.46482 0.182174
1844 1 -5.5818 -3.28576 5.8551 0.630499 5.60717 -1.14644
1865 1 -8.82785 -4.61514 3.66785 0.421559 -2.97333 1.41322
1868 1 -5.56965 1.4413 17.6824 2.75483 1.73144 -10.1598
1870 1 -17.4377 8.29502 15.081 -0.901946 0.65521 0.778437
1877 1 -15.3527 -7.11628 7.57693 -1.15462 -4.35904 2.33303
1882 1 -8.78121 6.75054 17.5181 2.72155 1.41979 -2.30349
1889 1 -12.5031 2.00536 10.0369 0.439147 5.22837 0.349842
3045 1 -2.42219 -1.29634 4.29771 0.640977 -3.45937 1.16102
1895 1 -18.4485 -8.76969 18.099 -1.25064 1.41393 2.47262
1900 1 -12.1314 -0.531414 4.12369 -0.718548 -1.28166 -4.37918
1904 1 -9.99018 -22.3628 17.1627 0.750298 -1.91437 -0.553614
827 1 -1.04066 1.21498 3.56529 -1.17455 3.52776 1.36407
1907 1 -22.5435 -11.7039 16.4088 -5.2547 0.299809 -2.7347
21 1 -23.529 -1.2619 11.5044 -4.4527 1.43835 -0.502674
1910 1 -4.81668 -11.0257 12.781 -0.719556 -0.156919 -0.249008
2747 1 -2.34307 1.40098 15.3469 -2.45002 -1.47301 -3.89714
2522 1 -4.57797 8.79632 2.51035 0.849698 2.18891 4.68657
1945 1 -22.3396 -17.6673 21.9439 1.77777 -3.87144 5.69856
1951 1 -7.12152 -16.8192 12.6737 -3.92781 1.46743 2.46032
1955 1 -11.354 -19.038 21.7875 -0.998015 2.69584 -4.77953
1956 1 -2.93123 0.913038 8.21319 -2.516 -2.24131 -1.14443
1928 1 -24.3308 -2.7177 6.07947 -1.54352 -1.73037 1.1773
1969 1 -5.49914 -7.93155 10.772 -0.188719 1.82399 1.88471
1972 1 -1.68956 -6.83511 8.60338 -1.12899 -4.13847 0.814134
1982 1 -20.5156 -3.03685 21.1296 4.03493 -1.016 4.31072
1987 1 -21.3701 2.87783 10.1486 0.409576 1.52536 2.30752
1989 1 -9.72375 -15.5279 12.5928 2.00485 -1.96174 1.44899
1991 1 -21.9091 -23.1044 21.1766 -4.3507 1.93808 2.34464
1912 1 -14.1355 2.6359 1.62817 0.858529 0.294475 2.64401
3803 1 -17.9797 -3.79693 22.8351 -3.14147 -2.32818 2.43928
2383 1 -23.9503 -16.8478 6.33238 3.93179 -0.0678033 1.54378
518 1 -24.0352 -21.6575 1.56989 1.17862 4.25505 -1.16147
2014 1 -6.87771 -8.51458 12.9761 1.91149 -2.06015 -3.12095
2018 1 -14.3208 0.335745 6.19016 3.81361 -0.795505 -0.997211
2023 1 -19.5543 -12.357 6.75917 0.0976506 -2.46506 4.61354
2032 1 -9.10274 5.20579 6.69749 -0.517426 3.99011 0.531293
2037 1 -18.5901 7.61625 11.42 3.69538 1.08025 -1.94946
2041 1 -12.4961 -13.9123 23.3983 -1.78124 -7.88819 0.799823
2047 1 -5.21165 -12.8443 7.08914 0.153626 4.54227 3.57591
2064 1 -12.7959 -17.7317 12.5796 2.79888 1.90796 2.5963
3711 1 -12.928 10.0286 14.0744 6.06992 2.75832 4.45878
2071 1 -22.4512 -12.9722 20.0776 -0.720002 -2.07791 -1.4677
2072 1 -19.5013 7.41191 21.8695 0.949654 0.873039 2.818
375 1 -24.0451 -7.04219 22.162 -0.55565 -0.635313 -0.213194
2077 1 -16.7395 -5.21088 3.46771 1.20497 3.93592 0.30465
2086 1 -10.0733 -15.1411 7.97043 0.019567 -0.748064 6.82112
2091 1 -10.3079 7.27584 12.3871 0.295103 -1.35196 -6.34096
2095 1 -20.2487 -8.16782 3.5504 -2.12514 -1.87987 2.05405
2097 1 -5.60701 6.48989 9.1198 2.68922 -4.98682 -2.6205
2100 1 -0.944156 -3.80029 22.5465 -4.73352 2.1433 3.24433
2101 1 -21.2375 -9.4157 17.8162 -2.20111 8.14531 1.58521
2104 1 -21.5564 -5.644 23.4089 3.64199 2.61643 -0.442886
2108 1 -12.1351 9.73343 2.24163 -4.78662 -2.23186 -5.49728
2109 1 -3.38885 9.63262 20.3702 -3.18582 6.22126 -2.17753
2112 1 -10.7262 5.11989 14.4314 6.11705 2.77345 -1.0626
2113 1 -16.4537 -1.35832 21.6516 0.788837 2.98482 4.99196
3103 1 -2.93135 -12.7991 23.263 -1.86428 -4.07509 4.43441
1730 1 -2.14255 -7.96012 21.8231 1.79659 3.05021 -2.64208
2133 1 -12.523 -14.0574 6.98875 -0.629687 1.36149 4.87533
2136 1 -5.89737 -19.6374 5.87616 1.59568 2.42655 -0.259968
3925 1 -23.3454 3.80601 1.77642 8.70073 0.672448 -3.13147
2142 1 -17.0396 -10.3957 16.1209 0.330803 0.228542 1.90417
2160 1 -19.0848 -0.697131 20.5384 -5.54624 0.8098 -1.78477
1409 1 -0.572903 5.6294 22.4463 2.51523 4.65573 0.640085
2171 1 -4.84678 2.61089 4.93589 6.90651 3.26608 1.13904
2181 1 -15.8479 -20.6105 20.3929 -5.00099 2.84622 2.9884
2182 1 -1.52896 1.08952 10.7857 -3.42434 -1.28619 -0.354876
2188 1 -13.1126 6.25777 9.08699 -3.83218 -6.03884 -7.12492
482 1 -24.1717 -3.52808 19.2023 -2.2727 2.12705 -2.49198
2200 1 -2.47718 -22.8649 2.05059 -3.01188 -0.481525 3.22847
2218 1 -16.1626 -5.72978 21.3453 3.82047 3.4716 -0.730602
207 1 -6.48812 7.95661 22.8769 -3.36597 -1.69509 2.21072
2239 1 -14.7576 -9.61822 20.8256 -3.01775 3.78202 -3.73819
2242 1 -10.241 -15.2708 18.793 0.209899 -1.07438 8.45152
3688 1 -11.2472 -22.9562 0.340338 -7.3798 -1.97284 1.18356
2259 1 -19.6267 -9.16357 22.9451 -3.80044 5.10927 -0.507226
2265 1 -1.27137 2.03626 19.4904 3.28013 0.108589 0.292435
2266 1 -21.6908 8.77725 14.2432 -0.131845 7.1176 0.386388
2273 1 -20.4425 -21.3287 17.8343 -1.76906 -3.94373 -2.21129
2274 1 -6.19548 -1.71029 19.5526 2.91617 -1.16497 -0.631434
244 1 -22.055 10.098 23.0057 1.05886 -2.95406 1.7039
2277 1 -13.5683 4.54432 20.8484 -0.601743 1.66486 7.64328
2279 1 -11.4165 1.59482 6.16059 -3.68277 1.10375 -0.658697
3621 1 -8.89343 11.0667 10.9008 -1.44034 -1.12534 6.67834
2312 1 -18.9099 -21.3172 6.63228 -1.07007 2.16907 -2.94745
2314 1 -17.8385 4.81226 10.5214 1.82937 -3.84346 -2.57746
2316 1 -17.6358 -12.3122 1.79096 -2.75438 -0.0804276 -0.39115
2331 1 -15.3504 -18.7656 11.9829 -2.52443 -1.80107 2.65235
2346 1 -3.31437 -20.805 9.08505 0.537948 -0.0948157 0.083479
2355 1 -8.02881 -0.343213 1.61997 1.24652 2.36615 4.38913
2357 1 -0.966999 -0.214601 0.865769 1.265 2.8775 -0.183832
3390 1 -23.4285 -22.8973 15.286 -1.91996 3.2306 4.88307
2784 1 -11.2466 0.807549 0.0176917 -4.84622 3.20832 -0.255224
1511 1 -21.8726 -7.40836 15.8125 -0.77371 0.913139 5.75009
2387 1 -11.5045 -6.60096 11.276 2.547 3.76926 -3.07213
2391 1 -7.78848 -3.05016 7.41201 0.736771 2.88226 0.392201
2397 1 -16.1663 -7.72702 19.3677 2.84797 2.71227 0.637324
2398 1 -9.37618 -1.92525 14.5512 6.02815 3.8998 -2.4088
2399 1 -11.1138 -10.3671 10.2164 5.56427 -1.07716 -1.13646
2407 1 -12.4093 -12.4922 14.4754 -3.21224 -0.780571 -1.63908
2422 1 -13.9379 2.51343 16.7831 -1.74542 1.41831 -0.237361
2430 1 -14.1723 -7.40703 17.4841 3.09048 -3.83982 1.81141
2436 1 -6.06132 9.6645 16.9733 -0.253031 -1.63931 -4.03568
2437 1 -14.2452 -5.00202 10.7883 -5.41164 -7.02621 -3.05955
2446 1 -1.86653 -7.48303 16.0584 0.0578429 0.456559 2.35386
1156 1 -17.3378 -13.261 23.6261 3.3878 3.78712 -1.63218
2453 1 -1.53121 8.48265 11.5877 -2.66531 0.223595 4.35944
2457 1 -4.81937 0.889849 10.756 -1.02554 -0.0508854 0.178319
3634 1 -2.79145 4.0389 8.68922 3.10943 -4.12295 -0.0585267
2472 1 -19.7218 -0.431578 14.1132 2.26373 -0.577982 -0.0751101
3924 1 -9.55108 -8.65323 12.0666 -0.499694 2.61034 -3.5241
2479 1 -21.1017 -5.30008 0.840452 6.35693 -3.24744 0.469068
3438 1 -17.7313 10.5089 4.1872 -2.67439 0.981646 0.686026
2486 1 -3.28239 -18.8957 7.11367 -1.76763 -5.36464 2.9054
2498 1 -6.89642 8.19125 5.17858 2.91562 3.14568 1.88088
2499 1 -22.9691 -14.8775 8.41282 1.35019 1.07383 1.47841
2502 1 -4.68962 -10.5693 8.49238 -7.05686 1.80417 -0.206988
2509 1 -3.01392 -8.27707 2.06671 -1.44657 5.79575 -3.14115
2512 1 -10.2432 10.0103 13.3484 -2.82638 0.833373 -3.5693
2517 1 -10.6497 -12.841 16.9279 -5.78197 -0.0864798 -1.79606
2708 1 -12.5876 2.20954 22.1181 -4.1196 -2.00484 8.39938
2532 1 -11.9835 -14.9191 1.72617 -0.753073 0.50304 -1.27047
2974 1 -23.6667 0.0225966 19.3867 -4.13091 0.19319 2.47603
2546 1 -14.1774 3.01061 12.1207 3.16455 -0.369642 -4.32357
2547 1 -12.7948 -3.52827 4.68389 0.263271 -3.27861 -5.12169
2552 1 -0.773059 -9.67295 8.52133 6.26422 -3.7385 -0.0888331
2556 1 -8.14377 -13.3219 11.5681 -9.29106 4.55965 3.27352
2559 1 -16.4412 6.6972 7.47371 -3.27828 -2.46307 1.24394
2561 1 -8.4921 -4.1336 10.6128 1.51749 1.50785 3.52092
2579 1 -10.2405 7.89853 3.23661 -2.92564 -4.13849 5.57952
3920 1 -10.8164 9.71999 17.5735 -4.22572 -1.71466 -0.439333
992 1 -23.7002 11.2432 2.683 1.53866 -0.991385 -2.51999
2933 1 -23.9672 -4.89247 12.0986 -3.83166 0.111068 -3.3472
2599 1 -5.88309 0.822054 7.0519 1.73546 0.694235 5.99942
255 1 -23.0384 -21.0745 11.0942 -4.72912 -1.19165 -2.02662
2612 1 -13.3778 -20.0857 18.266 -1.98464 -0.671618 6.79685
2613 1 -23.2537 4.46836 17.1805 1.18852 -1.42387 -4.74183
2615 1 -3.12404 3.23326 17.365 -5.79859 -2.22573 -3.63721
3737 1 -0.945059 7.4397 2.38251 0.0081113 3.38721 -2.21575
261 1 -2.08525 -24.0082 11.2375 1.74752 -0.633964 0.814414
2626 1 -3.37016 4.94226 21.8336 3.80511 -1.09163 -5.12256
2629 1 -20.6742 -2.77691 5.55036 -0.514875 1.87092 2.31351
2630 1 -11.8958 -9.09122 18.4027 0.958653 -3.40979 1.41863
2636 1 -14.6509 -18.9276 15.932 1.3857 -1.68723 -6.48387
2642 1 -5.41869 -16.5094 3.19369 0.809814 -0.58219 -0.419195
2647 1 -11.0512 4.15837 4.90268 -3.7824 -0.952687 -0.337224
2650 1 -5.23917 8.38331 12.9766 -2.66237 4.41419 -2.08852
2651 1 -17.1499 -17.1108 15.533 1.10736 -0.610293 0.0407828
2655 1 -3.8615 -10.6701 0.609691 -5.50393 1.51905 1.95367
2657 1 -9.70039 -5.77148 6.37608 1.41371 6.24473 2.05358
2658 1 -5.14793 0.0880993 15.276 1.23919 3.51772 0.229898
1742 1 -0.626403 -6.10923 20.3936 -1.12419 0.157514 6.4037
2663 1 -7.6234 10.2373 21.6068 2.97375 -6.06018 -4.90897
2021 1 -5.8413 10.7908 11.4535 5.11486 -0.639343 -0.789495
1631 1 -23.3931 -19.4147 7.4035 -8.38432 1.84263 -1.28223
2682 1 -21.4856 1.49169 13.6605 0.0374685 1.06429 -3.42449
2685 1 -1.32156 -8.34574 4.28796 -3.3747 -1.44672 2.18567
3121 1 -1.36804 -23.2885 16.6082 2.53994 -3.82764 -0.878024
2694 1 -2.05792 -13.7571 20.3574 -0.163768 -1.81455 1.06203
2700 1 -6.26541 -19.0857 3.18549 -1.16423 -0.849341 4.01675
2705 1 -1.62954 -5.47579 5.08469 0.733145 -2.26879 2.66182
2707 1 -9.72348 -13.6153 2.54209 1.32028 0.347515 0.234881
553 1 -11.5268 5.83676 1.82762 0.324231 -2.37423 -0.904405
2715 1 -10.1376 10.3033 20.3429 -2.60938 -0.834323 -1.4814
2724 1 -6.07059 5.47106 6.40725 1.19016 -3.1671 -0.788873
2730 1 -5.00748 -17.3672 10.982 0.123074 3.94767 -3.43884
2684 1 -21.6996 -11.5422 3.10103 -0.560404 0.799464 0.552645
2738 1 -7.62024 7.36076 13.6305 4.73873 -0.67364 0.118248
2739 1 -12.6554 -7.89664 21.0799 5.00193 0.210709 7.83494
2741 1 -7.45128 7.57092 2.20135 3.11309 -2.42695 0.985627
1661 1 -21.2987 -4.5266 16.8633 2.84259 -8.15099 3.23515
1510 1 -15.0696 -12.1587 0.291192 -2.93391 0.715592 -1.63096
999 1 -20.3149 9.20106 7.57572 0.0382026 0.754086 -2.33349
2759 1 -17.7169 -15.8021 8.55122 3.08659 -1.91775 -0.968039
2761 1 -6.48894 -15.2915 19.2446 -3.70227 -0.559446 -1.17875
2762 1 -10.3246 9.47698 8.37546 0.23772 -0.376069 1.34494
2763 1 -5.44423 -12.9766 18.288 -1.84472 -0.375957 5.11549
2775 1 -3.96205 -19.0182 16.6581 -1.30726 4.15722 1.01242
2792 1 -5.86648 -5.27227 3.53632 4.07183 -3.96775 2.06072
3468 1 -7.5075 -8.98285 23.3905 -2.92423 7.13656 -3.09825
2566 1 -23.3632 -11.9515 13.7106 0.245936 3.58314 3.14901
2822 1 -14.3633 -4.65004 2.66585 -0.551825 -2.58881 1.65428
2830 1 -21.9891 7.95872 1.13471 1.73748 -0.973714 5.31392
2833 1 -22.5846 1.31049 5.24469 -1.06182 -0.0559667 0.575243
2834 1 -9.59074 -17.0547 21.9901 -1.57138 -0.111751 5.101
2846 1 -20.7909 0.86704 2.75004 -5.79999 -3.18209 1.45771
1045 1 -7.31312 -1.99512 22.3519 -1.06163 4.1846 0.340584
2860 1 -22.794 6.78246 20.3975 -3.34899 1.8326 -1.2039
2869 1 -18.8845 -17.3407 18.1974 -0.72763 2.61981 3.00407
2873 1 -9.9076 -2.38905 5.22895 -0.675522 0.743097 1.32681
2880 1 -1.66728 -0.722159 13.2733 -1.14719 4.47057 -2.09058
2882 1 -20.9401 -15.1686 21.281 -0.336433 1.29041 0.0295603
3017 1 -13.2004 6.43321 22.7177 -1.38445 2.85628 1.21172
2894 1 -7.58048 4.96274 15.1448 -4.13696 -4.58826 -2.62164
2896 1 -11.2171 3.48226 19.1755 0.690084 -1.27109 -1.40173
2899 1 -2.52777 -20.3637 18.9194 -0.721632 -0.259243 -0.0863732
2903 1 -13.4738 -13.3011 3.93715 -6.62913 0.625312 -7.14578
2910 1 -13.7721 6.4516 18.8186 -0.34198 -3.08996 -1.76379
2917 1 -10.0202 7.74301 6.11222 -1.19532 -0.926883 3.3354
2923 1 -11.4109 -1.28669 18.4422 0.850051 -0.653299 1.43235
2954 1 -13.8342 -2.38327 7.0334 0.457082 -0.891232 -3.53478
2592 1 -1.58553 -16.9835 8.60811 -0.188682 1.78013 0.98631
3873 1 -4.48544 4.73761 13.2769 1.41658 -7.10309 1.93586
2969 1 -5.37642 -2.28822 16.509 -2.8069 -4.34315 -1.92767
2981 1 -13.1846 8.7557 16.634 2.12658 3.30116 -1.34311
2982 1 -12.3348 -6.58084 5.73516 0.332082 0.16737 4.57566
3785 1 -3.31545 -23.3785 23.7073 -0.033619 0.340828 0.953096
2985 1 -11.2962 -13.0151 11.576 -2.14556 1.73045 -3.51048
2997 1 -5.64283 -17.3442 7.7713 0.728862 -1.58529 3.30861
746 1 -14.0527 -6.53483 23.306 -0.723498 -4.95894 1.03055
3009 1 -14.1245 -22.822 10.1366 1.40859 1.13083 -3.59716
1048 1 -1.48183 -0.240364 17.4974 1.84294 1.25671 1.55111
59 1 -18.9935 10.2219 19.0549 -4.61184 -0.419857 1.23973
3019 1 -18.9451 -20.988 11.315 -1.71821 -4.20943 -1.91801
3020 1 -12.3188 -11.2083 7.48432 4.27597 -0.994424 -3.87368
3033 1 -13.3779 5.17921 6.27031 2.06799 0.881152 0.572433
545 1 -23.8756 -17.8005 13.3237 4.77472 0.563662 1.39165
4000 1 -17.0657 8.52652 22.6452 -0.508455 -1.16086 -0.416046
3074 1 -8.04833 -8.07745 6.20318 -1.08771 1.70301 -6.07425
3081 1 -19.1675 6.725 6.66829 -0.786429 -3.71507 1.74085
3971 1 -5.10839 -3.96812 22.2218 0.126436 3.17455 -1.99817
3084 1 -15.0363 -23.0959 7.35092 -1.50753 0.972233 -5.05046
2219 1 -11.5791 -23.5731 14.9037 -6.9704 -0.158589 0.952106
3091 1 -3.28881 2.10066 21.4447 -2.09534 -2.12277 -2.18887
3092 1 -8.08718 -7.45912 21.1383 3.89027 2.72927 2.15432
3098 1 -10.5638 -19.11 5.30707 1.9821 1.11705 1.29077
3869 1 -7.39266 3.12815 7.96813 1.68632 -3.82614 3.81512
3104 1 -19.2597 -8.25883 6.63387 -1.0942 -8.34995 -2.41843
3933 1 -1.40772 -9.5031 17.9412 1.93682 -4.07192 4.73316
3119 1 -6.56604 -11.0951 2.3173 -1.13174 4.72642 2.81312
3907 1 -21.2374 0.133071 9.83131 1.00681 0.114932 -1.98585
3129 1 -2.17316 -13.8802 11.7943 0.863282 2.46365 2.56004
3136 1 -16.1012 -21.1139 5.43923 3.08544 0.00773333 -0.178434
3903 1 -15.7705 -15.0659 4.90605 -0.480869 2.75814 -2.39786
1147 1 -9.77159 9.97291 0.430285 -0.600867 2.76039 3.75889
3164 1 -21.111 5.15103 22.5804 0.292014 0.056499 -1.42637
3168 1 -16.0616 -21.1727 17.6837 -2.79287 -1.99585 2.01089
3172 1 -7.99471 -0.350153 5.74663 7.15458 -0.842495 -0.647691
3943 1 -20.2258 -20.7071 1.96391 -1.41171 4.18135 -0.720065
469 1 -23.0642 -14.2284 12.0153 0.668901 0.326039 5.01077
3187 1 -19.2435 -16.6587 2.04022 -1.74322 3.08085 -0.204169
3194 1 -17.4667 -8.01117 2.55433 1.26273 -1.16649 0.954579
3195 1 -17.2483 -0.769474 1.31862 2.84081 2.77409 -1.97297
3197 1 -3.74617 8.44432 5.31711 1.85998 4.63954 5.15892
3201 1 -15.2327 -3.45049 19.7848 -0.622738 2.07054 1.88797
3204 1 -15.3589 -10.8244 10.4387 5.33634 2.23153 0.745601
3220 1 -4.49972 -11.4792 15.882 0.980029 0.812432 3.05595
3155 1 -4.82139 -14.1238 0.609322 -4.52269 -1.2432 3.43264
1393 1 -1.61243 -3.6698 2.94086 -4.75079 3.23376 0.745946
3225 1 -8.64522 -6.0964 14.8752 -2.04355 -0.209659 1.1634
1562 1 -1.4914 -5.01171 0.355807 -0.96332 2.40219 0.559426
3239 1 -13.4048 -18.2927 8.72609 -0.126193 -1.52086 -4.83653
3257 1 -10.456 7.17534 23.1261 3.27919 -1.13898 2.80415
3258 1 -18.9887 -6.46539 21.9977 6.54816 2.15274 5.04361
197 1 -24.4569 -4.14487 21.9574 -1.47658 -3.44881 -1.72387
3277 1 -2.65254 -16.9877 3.76479 -0.459568 -2.91258 1.46879
3281 1 -5.31034 -13.9552 12.1532 -0.415575 -1.09157 -3.40116
3283 1 -4.30207 -0.881572 12.6814 -3.2024 1.2073 -2.9046
3287 1 -3.15619 -16.3113 16.7257 5.93167 0.386434 -2.00492
324 1 -24.0443 3.6284 5.78728 -3.8638 6.22797 0.309996
3296 1 -16.6695 -14.441 15.6082 -1.4538 -2.38357 4.52798
3302 1 -18.4036 -10.715 19.8508 1.23599 -3.68304 -1.77592
859 1 -13.5317 -9.69943 0.606689 -1.61717 1.3811 -2.06288
3312 1 -22.9046 6.02049 14.5569 2.81342 -1.97435 4.46901
3318 1 -11.2675 -0.0751037 15.787 0.963143 0.0422182 2.55898
3321 1 -10.614 -20.5993 19.3075 0.60508 2.39389 -2.16439
3332 1 -3.34051 7.89375 22.8509 -4.62172 -7.17188 -0.75817
2943 1 -23.8242 7.32254 8.71931 -3.85979 1.28367 -2.23556
3348 1 -9.06919 -19.1726 2.51792 -2.02543 -0.518343 2.10296
3350 1 -3.48826 -8.49241 14.0073 1.65712 0.559348 0.703409
3351 1 -20.9067 -14.0723 17.7198 -3.98446 -1.62661 -0.434639
3353 1 -23.4649 3.86152 20.2978 -0.508276 3.6559 1.32369
3360 1 -8.56004 -18.6588 19.5624 -0.538947 4.31428 -1.52578
3371 1 -9.74498 2.79351 12.9066 2.10304 -3.43642 3.25191
3376 1 -15.8734 7.63413 12.5601 1.27946 5.18897 -0.0888001
3983 1 -21.1185 7.84723 9.93699 2.97371 2.15572 0.716186
3387 1 -19.1529 -3.86905 2.51047 -0.6026 -1.99456 1.78375
3388 1 -19.0861 -6.82996 14.8925 -5.31148 0.0984917 0.0199006
3391 1 -7.55397 -14.7915 4.37077 0.489857 -0.313935 -3.2637
3394 1 -11.0249 -1.46779 12.089 1.85583 -1.12978 1.30954
3397 1 -6.07084 1.25771 20.5185 3.41232 2.83446 -3.34458
416 1 -24.0313 1.46524 12.5661 2.53713 0.207564 -0.227818
3409 1 -3.06548 -16.2248 19.5173 -1.61991 2.3862 0.918009
3410 1 -19.8583 -10.729 15.3319 -1.95213 2.69167 -4.84705
3411 1 -5.20755 -6.87324 21.4652 1.59079 -0.144811 -0.111109
3417 1 -20.7564 -11.1092 9.5229 1.36881 -1.11437 0.943523
3419 1 -9.29554 -9.95007 1.69067 -2.68186 2.10246 -0.247184
3420 1 -17.7743 9.70166 9.52567 -0.37283 1.09088 1.06099
3423 1 -11.4097 2.84732 2.0089 3.22996 -1.68816 4.75643
1942 1 -2.51434 9.475 0.739262 3.75046 2.073 -1.96412
3426 1 -21.1947 -5.54729 4.18134 1.52604 -1.0947 2.38181
3430 1 -13.0717 -16.3557 19.1384 0.223184 -3.41337 -3.50407
3432 1 -2.5128 9.61329 8.90912 -0.976123 7.7027 0.418932
3436 1 -3.87789 9.48515 15.0781 4.11976 1.48519 1.04818
691 1 -1.04203 7.14395 14.1587 1.86287 -3.17894 1.63935
3442 1 -6.13801 -1.00445 3.75621 0.272954 -1.45099 -0.495558
3448 1 -19.2772 3.62089 15.5407 0.550589 1.71913 1.76364
1103 1 -24.3067 8.33477 15.8658 1.20794 -5.11962 -1.81694
3464 1 -18.2265 -21.3415 14.226 3.15899 4.28984 -1.37207
315 1 -14.9079 -24.0318 2.55996 3.63682 -1.18809 -2.10349
316 1 -24.0543 -6.05915 3.63207 1.44418 5.20872 -0.65388
3105 1 -22.7161 -7.96863 19.5994 -2.64449 -3.44586 -0.623309
3490 1 -17.3115 3.69648 5.24592 -1.64359 -4.2188 -3.08384
1020 1 -19.3149 -23.4774 8.42682 -0.00988267 6.91632 -0.613132
3497 1 -15.2618 9.96209 18.6643 -3.60393 2.0108 1.42649
3510 1 -13.4363 4.46612 14.6888 -1.21568 0.838047 0.444868
3512 1 -20.5429 3.73381 1.9512 -2.21962 3.391 2.7847
3519 1 -4.77304 5.34294 16.1131 1.29343 -1.64451 -1.24798
3520 1 -5.36413 -16.3988 21.4972 -4.3088 -3.3161 2.15285
3523 1 -12.9032 -20.3171 10.6477 3.5105 -0.566312 -0.215804
3529 1 -21.3303 9.2986 20.3643 0.333758 3.40814 -0.237678
3549 1 -13.6272 9.83248 4.67931 0.301212 -1.01749 0.708109
3556 1 -8.67174 -14.5387 20.911 -5.83116 4.88299 5.3026
3566 1 -9.35108 -16.3978 5.52682 -1.72054 0.0114143 -0.201047
2537 1 -2.52761 -23.1318 13.9732 1.11052 1.94581 -1.49494
857 1 -22.1275 -6.91034 10.4296 4.27261 4.02154 -0.960803
515 1 -2.6499 7.19345 16.5382 -5.44056 -0.576702 1.9833
3595 1 -2.72077 -14.8064 7.42847 2.14672 6.39458 1.40423
3603 1 -6.02471 -1.36297 9.03691 6.43255 0.962368 -3.15862
3607 1 -19.0301 5.39658 19.3866 0.41341 3.37646 -5.65615
3616 1 -10.5192 -12.0555 23.0201 1.97784 -1.90751 2.69561
3629 1 -3.96838 0.611127 3.00317 0.281542 0.109869 -7.70174
3632 1 -12.214 -15.5145 14.5418 5.24145 4.15116 0.445713
3863 1 -12.8039 -3.58142 12.8107 3.65521 1.43144 1.98962
3642 1 -2.50368 -14.4379 4.74268 6.05177 -5.50899 1.23984
3651 1 -11.9933 8.4629 10.4881 -1.24561 -2.72346 -4.41718
3656 1 -9.51432 -22.6057 20.9911 -4.77348 -1.48864 5.11553
3668 1 -12.4345 -3.08209 20.4313 1.42784 3.0323 2.15615
3979 1 -9.14887 -22.7286 4.12617 0.784057 1.0549 -7.23106
3673 1 -4.19223 -23.7624 20.9019 -0.0936306 1.24293 3.11241
3678 1 -19.0737 6.15125 16.0724 -0.398481 -5.95579 5.94353
3681 1 -7.81122 0.418084 14.2183 -2.89005 2.19062 -3.06399
2815 1 -23.023 9.16781 6.72441 7.07151 -2.29648 1.01558
1940 1 -18.5039 -23.2626 4.30569 4.34266 0.101086 -0.339444
3698 1 -21.7389 2.36297 16.1872 1.52071 0.494614 -0.379222
3699 1 -7.70016 -3.80008 13.2637 -4.46577 -2.37641 -1.5393
3710 1 -5.04685 -8.94104 16.8207 -4.31196 -1.83716 0.271769
3714 1 -10.3809 0.185313 22.4047 1.60576 -1.49991 -1.45582
3718 1 -17.2363 7.03268 1.41006 -3.214 -0.550841 -0.0645012
3738 1 -5.80424 -6.77128 14.7439 1.32837 -3.42173 -0.516491
1421 1 -23.6071 -9.66379 6.88738 -3.75274 -1.85331 4.30365
3751 1 -3.55517 -0.850727 0.373817 -1.42762 0.634062 1.47936
3754 1 -10.3365 5.37619 9.23617 -6.24044 4.78044 6.11764
3767 1 -10.9798 -21.3442 2.53839 -3.67439 -4.50562 -1.39655
3769 1 -21.1147 -18.1465 8.60341 -3.12062 5.17017 1.27864
3770 1 -7.00495 -5.82348 7.95882 4.58573 -4.4136 -4.75919
3779 1 -9.98155 0.325774 8.20026 2.54875 -2.99355 -1.35728
3781 1 -3.5537 -5.01746 7.09586 0.140023 -3.1278 2.26116
3792 1 -8.61267 -11.1574 9.18644 2.59171 -4.49932 -1.76985
3797 1 -13.6155 -13.0167 9.56831 -1.89925 -2.67426 2.22022
3810 1 -17.5693 -2.59265 14.6223 -4.61034 1.6938 3.07913
3354 1 -14.0874 7.79737 1.21849 0.541584 -0.886994 -2.81887
3816 1 -13.7359 -10.3836 3.54421 2.26518 1.75753 2.71607
3404 1 -18.0331 -9.8105 0.114806 0.46764 0.656652 -2.57208
628 1 -21.7269 -16.5292 0.00378322 -3.21882 -8.58728 -5.60766
3844 1 -21.4484 -14.2392 5.9714 -5.38636 -0.0162382 5.7795
1720 1 -4.65122 -23.4741 9.87606 -0.479109 4.693 -3.76161
3861 1 -16.6684 -15.1043 21.4698 -0.326255 -1.21678 -3.76486
3936 1 -0.785429 -21.8942 23.6967 0.878254 0.602139 -5.20137
3939 1 -24.2226 -1.7766 14.419 1.72685 1.56533 -2.81674
3855 1 -2.45166 -5.98512 24.0947 0.151116 0.0889725 3.63752
465 1 -0.444086 -13.5167 2.76309 0.622098 -6.67616 3.94151
1908 1 -15.2949 -7.34501 0.51151 4.54235 1.74847 -0.199918
1432 1 -9.45477 9.99137 23.8478 4.81456 -0.550304 -0.539584
944 1 -14.8626 -1.48514 23.8997 4.06174 0.520712 -2.07948
2376 1 -14.6801 1.32143 23.9256 4.53363 -0.178893 -1.20762
3403 1 -13.9371 -22.7926 0.261005 2.96258 -2.03665 2.07196
373 1 -15.9543 6.24234 23.9542 -5.86268 1.82709 3.80162
959 1 -13.5187 -18.2088 23.8142 -5.76687 -1.77893 0.0609468
406 1 -7.61881 -18.2025 23.9281 -6.05349 -4.50699 -1.26092
2835 1 -5.53594 6.09899 0.180882 -3.74339 0.412028 -5.08902
2372 1 -23.6615 5.89182 -0.0213947 -1.04901 2.2012 -2.44969
1681 1 -15.0457 -9.98248 23.941 6.7051 5.98588 2.72174
3082 1 -1.89433 2.55708 23.9528 1.99562 -0.534472 -0.173419
3941 1 -17.4883 2.22026 24.2281 -0.316909 -1.51656 3.49884
4112 1 -5.94549 44.0197 -0.167674 -3.01532 -1.77887 -1.55925
36 1 -12.8299 19.5777 -18.5502 3.01298 -2.67805 0.375613
45 1 -10.8877 13.1322 -4.05297 0.548139 -2.20908 0.684536
1034 1 -14.573 12.8043 -9.35766 -1.67617 2.03865 -0.985323
67 1 -14.854 21.385 -11.4814 0.784 -3.45646 -5.44434
1180 1 -9.98625 44.9725 -10.8222 0.339193 1.42639 -4.12802
70 1 -16.2327 15.8988 -15.2003 -1.85114 -1.88405 -2.9267
3524 1 -0.942297 23.843 -1.50053 4.825 3.768 2.4502
78 1 -19.5069 13.045 -8.76157 2.18214 -1.58277 3.18539
80 1 -13.3458 13.9012 -13.2252 0.451621 2.4928 3.12203
83 1 -21.9653 11.8531 -1.60777 -1.04297 -3.7113 -0.974133
88 1 -10.3008 24.5033 -18.2613 1.02933 0.421241 0.321841
109 1 -13.6739 16.579 -13.8551 -4.03358 -1.25695 -4.12253
130 1 -7.68922 17.8238 -19.557 -0.585611 5.83104 -2.54253
154 1 -9.28488 21.8152 -6.34104 -3.89085 -2.39257 -0.75082
172 1 -20.6091 20.9448 -20.9372 3.82971 -0.107467 -3.86819
176 1 -6.76919 23.2804 -1.61837 0.556797 1.28917 -0.326218
209 1 -6.21139 18.306 -15.5293 -6.58819 1.75794 2.86386
2754 1 -13.8726 25.2981 -0.0850496 -2.27654 0.920136 -2.75817
212 1 -16.993 25.3135 -2.89249 1.98334 -1.98727 2.17256
4182 1 -1.9017 37.0007 -0.693103 3.48127 -2.42967 2.53109
245 1 -9.17335 25.4917 -9.80745 -0.758866 0.301211 -4.09032
267 1 -11.2349 19.8447 -10.2392 1.17389 -6.28818 2.41292
268 1 -20.8841 20.1635 -12.2897 1.65031 2.77805 0.161306
210 1 -18.9525 11.9726 -0.963365 3.04136 -1.27372 2.93608
301 1 -7.69073 21.7195 -20.3541 -3.90766 -1.49219 -1.37128
2983 1 -7.28798 13.4844 -22.7801 -2.00263 1.04142 2.54224
374 1 -6.8452 18.292 -11.0403 -2.03605 -3.85168 -2.45633
2172 1 -2.23386 22.084 -3.70081 -5.74791 -4.20764 -3.87258
4205 1 -3.29344 39.567 -1.19608 3.74242 2.40137 -0.125123
3116 1 -12.2408 17.3255 -1.28272 -0.427495 -0.926325 5.07732
439 1 -3.10554 23.6618 -5.96294 3.2629 2.22697 -6.12624
440 1 -9.78763 13.9238 -13.8222 1.39066 1.22415 -1.04827
489 1 -12.4927 23.3247 -11.0858 4.86884 -5.30306 0.853022
2760 1 -0.733962 13.9041 -17.5162 -0.279363 -1.44254 -4.97111
521 1 -11.4488 23.7031 -5.51534 -2.06252 -3.75302 0.345247
526 1 -20.0542 14.615 -5.6801 -1.83272 -0.00083036 -1.23443
527 1 -5.44074 14.2391 -6.58295 -3.49901 1.12617 -2.45809
528 1 -17.1514 15.246 -10.5945 2.59294 -3.71456 -3.04388
556 1 -11.5071 17.888 -4.06323 -0.504193 -2.91702 2.86837
567 1 -21.6931 21.7822 -4.13085 1.01475 0.636337 0.889882
569 1 -8.13796 24.6183 -14.597 4.88508 0.555745 -1.20114
612 1 -4.70003 13.0274 -13.9885 2.53199 -3.33317 -0.579291
617 1 -13.2132 23.7608 -19.4415 -1.55211 -0.401358 -0.722339
621 1 -6.32213 15.7841 -13.8718 -3.50315 0.391025 -0.481068
4198 1 -2.45415 41.684 -8.30279 -1.85296 -0.300785 -0.776087
1054 1 -15.9721 23.8634 -0.61386 0.411613 0.118248 -3.56365
682 1 -4.75841 17.0766 -5.69608 -2.51662 -6.97568 2.0418
697 1 -22.3886 15.9622 -23.4093 -0.445246 -0.367518 1.35507
723 1 -22.4569 12.9551 -5.70274 -0.863546 -0.520543 0.311096
724 1 -10.0745 22.505 -9.21083 -0.995965 -1.60116 1.03571
728 1 -11.396 17.7959 -8.59742 2.09086 -5.35802 2.04461
731 1 -11.5784 12.3196 -21.9393 3.26859 0.674065 2.50328
757 1 -19.0247 12.1592 -4.88197 0.275023 1.28846 2.77008
4221 1 -3.91124 43.9115 -8.23537 -1.5279 2.51754 -1.82643
766 1 -9.78524 17.6112 -17.0618 1.84503 1.90259 -4.72551
1489 1 -23.2876 15.6702 -1.32367 -0.40509 0.0112044 1.0772
4170 1 -2.06524 37.25 -5.04763 2.07077 0.865453 3.54857
792 1 -22.1967 15.6273 -7.38381 3.75551 -1.99299 2.23998
799 1 -10.7156 20.586 -3.00818 1.98321 -1.57545 -1.74241
809 1 -6.68455 24.1951 -17.0213 0.663832 -0.798032 -3.12337
813 1 -14.9792 23.0658 -16.9582 1.47357 3.50312 -4.21492
839 1 -23.5231 19.1904 -11.2397 -1.73095 -0.604744 -3.29546
848 1 -4.15528 17.6504 -12.3431 -1.10243 -1.62667 2.44361
851 1 -21.4729 15.3298 -14.8045 -2.21652 1.87404 -0.103079
855 1 -16.8526 22.8434 -21.5243 2.69982 -1.81248 4.9368
4230 1 -1.56931 45.7824 -0.639179 0.573069 -1.1361 -1.60549
3880 1 -8.71432 19.3968 -23.4423 -4.50381 -8.01751 7.40481
903 1 -7.74293 24.5117 -19.6854 3.39476 -0.996398 -5.01053
912 1 -16.2492 22.2336 -9.15093 -0.392057 -2.49079 -1.45507
934 1 -3.28442 20.547 -21.8808 -1.65437 -0.835635 2.20976
955 1 -11.0177 21.575 -18.5398 2.99127 0.980558 -3.94232
963 1 -17.6301 21.8656 -13.9302 2.64174 -0.131255 2.96758
968 1 -2.34674 22.4542 -14.7973 -6.85741 1.52826 -0.716279
984 1 -17.3198 16.8921 -5.2398 -1.4721 -1.63798 -3.33001
2053 1 -21.5297 11.8364 -19.8672 0.947091 -5.84877 -3.14775
1044 1 -6.4763 21.0445 -11.2497 -0.115933 3.53328 2.46586
508 1 -1.49845 19.4275 -8.98865 -6.23295 -8.34973 3.54432
1071 1 -19.2207 23.6099 -15.4988 -9.23423 -2.29768 -7.95126
1074 1 -11.6623 12.7191 -15.3066 1.33691 5.0344 -2.06446
4218 1 -2.22632 46.2639 -5.26721 0.837109 1.293 2.39055
821 1 -23.3521 46.9868 -22.5973 0.76801 -0.12094 4.70815
1095 1 -9.29579 21.3942 -11.8742 2.60147 0.561939 -5.27646
1122 1 -9.3766 23.2961 -2.62206 -0.774318 -1.12288 -1.76866
1124 1 -3.14169 14.6312 -16.8523 2.91839 -2.77042 2.6128
1130 1 -3.14604 15.4012 -14.1575 0.0758745 0.912209 2.32197
1187 1 -14.1146 16.9732 -7.32506 -1.01958 0.53902 0.00789083
1210 1 -3.31133 17.8973 -2.68882 -2.36959 0.623042 -1.49231
1232 1 -18.6405 15.854 -21.8059 0.891976 -3.61044 -1.67122
1265 1 -9.32191 13.3354 -8.72127 1.28866 -1.76115 -0.408978
1277 1 -12.9382 21.1007 -4.97541 1.60995 -2.91291 -1.62849
1279 1 -19.931 16.6243 -12.9036 -3.293 1.24449 2.18844
1292 1 -5.34362 19.6672 -4.02399 3.43249 5.27694 3.59263
1311 1 -2.9926 20.0552 -13.1922 0.829936 0.392363 4.41356
1327 1 -10.1284 21.3429 -21.3383 1.68418 1.86147 0.0470974
1330 1 -8.97285 16.2076 -8.88218 0.111745 -0.995368 -3.84132
1335 1 -14.8645 22.4171 -14.3008 3.30056 -2.68256 -1.14189
1368 1 -19.4981 19.3298 -0.834843 2.95395 -3.2851 0.611605
1400 1 -13.4214 14.6478 -22.6018 4.69348 -5.95221 -1.68926
296 1 -1.75427 14.8412 -1.72005 0.870888 -1.673 2.44568
1420 1 -11.7271 19.3068 -22.7889 -5.33764 -2.94491 -2.65866
1440 1 -23.4047 13.4777 -3.1635 3.06068 2.6529 -1.58086
1465 1 -21.9581 23.6244 -14.8814 -1.0253 1.38791 -3.48234
1476 1 -21.2154 14.2188 -21.337 -0.351567 -1.97616 0.223274
1481 1 -8.10017 16.7174 -2.31691 2.22371 -0.0387386 1.0804
3273 1 -18.7148 11.3669 -15.2972 2.06705 -1.89263 2.76731
2093 1 -6.13171 12.1844 -0.205364 -1.14722 0.289882 0.533417
3719 1 -1.17857 15.3784 -6.109 -0.391767 -2.42053 1.00848
1537 1 -3.69736 23.8597 -17.0894 0.202197 2.77565 -5.1294
1544 1 -5.71472 21.6048 -18.0304 1.29251 -3.37499 4.50021
1553 1 -10.9183 21.6919 -15.5966 -1.09851 1.09555 -7.7568
1565 1 -8.58139 15.75 -11.8649 -0.172124 -0.661903 -0.317445
1579 1 -6.22165 14.9239 -3.80838 2.07242 -3.76646 -0.174995
1609 1 -23.6296 17.3525 -20.9593 -2.93102 2.70422 -4.24202
1610 1 -13.1489 20.0587 -15.0561 -2.15021 -1.16858 -1.28521
1637 1 -4.65893 21.5934 -1.75428 -1.65706 1.80199 -3.94127
1643 1 -7.20058 22.1407 -8.44458 -2.01965 0.155642 4.99184
2787 1 -14.3376 15.4161 -0.68333 -1.62073 -1.72502 -2.00938
2081 1 -23.2831 17.1553 -16.0629 -2.32895 5.88057 -0.576396
1734 1 -7.97416 24.8962 -22.2727 -3.01207 2.10473 -5.37534
1764 1 -14.7014 16.6414 -11.1853 4.14331 1.47241 2.0387
1803 1 -18.6879 17.5632 -9.27334 -4.06903 -1.75526 2.16904
1817 1 -3.20517 17.1108 -18.3922 0.267366 -0.959577 0.524847
4173 1 -3.84523 34.6066 -8.02824 3.09929 0.12193 -4.02072
1899 1 -8.06378 18.9542 -5.34627 0.985455 -0.344531 0.0307291
1933 1 -3.59319 19.9598 -19.1036 1.32015 3.60624 -3.91149
1947 1 -17.6281 13.4409 -13.9016 0.0296421 3.95655 -3.69118
2002 1 -22.1919 21.4734 -9.84375 5.94194 4.7864 -2.3702
2007 1 -11.0321 14.1766 -11.1881 2.00525 -4.43492 -4.38867
2987 1 -22.9748 45.2413 -8.80168 10.8802 1.55663 0.170424
2062 1 -19.3333 19.3647 -7.14849 0.319955 -2.85271 -2.65522
2076 1 -14.0092 23.9378 -8.63069 1.88139 2.56128 3.80762
2154 1 -11.0244 16.3165 -22.7313 0.526717 -0.609164 1.60877
2092 1 -19.5431 22.5863 -23.1365 1.60603 -2.36243 2.69264
3540 1 -3.42343 12.4733 -5.37301 3.6181 -1.6737 4.32066
1927 1 -7.97301 46.7525 -20.6119 3.57948 3.74909 0.776326
2156 1 -22.0306 18.3748 -7.52694 -2.16017 0.642796 1.38442
2166 1 -15.1302 20.3536 -17.0692 -4.65876 4.17673 0.0525195
1083 1 -0.858438 20.8541 -18.6486 -4.10596 0.297934 4.11089
2224 1 -16.7566 13.8227 -4.34263 -4.11803 3.42633 0.761194
2232 1 -23.1774 23.315 -17.3448 4.80506 -3.32069 -0.0210172
2249 1 -14.4654 13.6155 -16.2474 -3.65463 -2.39398 -2.45869
2258 1 -9.37184 15.5654 -20.3623 -1.56315 -1.21625 -3.01311
2275 1 -12.1028 23.7707 -13.9509 -2.21874 0.0708943 1.01836
32 1 -8.74047 11.3533 -21.5974 2.99956 0.196972 1.64088
2289 1 -2.63524 12.707 -20.9987 2.73863 -2.3129 -0.765627
2303 1 -13.3572 19.138 -12.1753 -0.623595 -2.00676 6.66353
3736 1 -24.3467 11.9654 -9.52251 2.25162 -3.38601 2.43234
2056 1 -5.78945 24.1039 -23.6011 2.3264 0.127511 -2.48497
2382 1 -12.6861 17.6198 -16.4667 -1.77695 2.11114 -1.43404
2401 1 -18.9766 23.2716 -4.12453 -1.02222 2.97737 1.30023
770 1 -5.86466 21.4789 -22.5888 -0.86652 0.547812 -1.08456
2431 1 -21.3334 17.9339 -10.3815 0.261823 1.53615 3.87966
1836 1 -11.3694 46.6328 -17.3889 -1.66839 4.07405 1.47671
2459 1 -17.9122 14.9515 -7.63326 0.142978 1.15598 2.71449
2461 1 -19.7086 16.5777 -3.70688 0.860967 1.61092 0.625355
2471 1 -1.60949 22.9054 -22.2613 -0.663731 -1.7617 -4.48583
2533 1 -14.076 25.3466 -3.21635 -0.759418 0.35858 0.545715
4181 1 -3.28178 34.7475 -1.55706 0.857693 -3.48058 0.81814
3052 1 -20.6381 11.4163 -11.9913 -3.77349 -3.99709 -4.74599
2570 1 -21.8339 15.8838 -18.9835 -2.38562 1.26369 0.164047
1880 1 -1.99993 23.4884 -19.3908 3.46987 -0.821703 -2.62135
3408 1 -16.6299 12.5064 -23.755 -3.15369 0.362451 -1.5397
2611 1 -23.1004 25.1836 -21.9763 -5.23523 0.263853 -3.84798
2614 1 -10.1698 13.7775 -17.9096 3.02865 5.1828 -0.171427
322 1 -13.7308 14.473 -3.38598 -1.96434 -1.20257 0.741226
2623 1 -20.2336 18.1721 -23.1869 -0.410813 -2.45661 0.918171
2624 1 -20.7219 19.0819 -4.81973 -5.12188 -6.34225 -1.67292
3689 1 -24.3806 15.0431 -17.6639 -1.51444 2.23527 -3.20339
2649 1 -18.4796 20.924 -10.9994 -1.87445 -1.02378 -0.862126
2699 1 -17.1532 14.1441 -1.47783 2.88045 6.63235 -3.07672
2702 1 -6.28507 18.7105 -22.0275 5.05818 4.55713 3.04663
2722 1 -10.9193 19.3532 -6.41304 -2.58947 -1.22951 2.72913
2750 1 -14.5967 24.4099 -21.7154 -1.99033 0.642411 -1.17953
2752 1 -9.51537 18.5068 -12.6321 -1.57455 -1.03415 3.46259
4193 1 -3.30244 39.5358 -4.02487 6.37204 3.30933 4.97443
3671 1 -2.34243 11.7153 -14.5962 2.25286 0.876643 -1.90624
2772 1 -13.9417 18.6107 -20.8606 -1.71055 1.13835 5.51087
4206 1 -1.65932 41.7427 -0.590377 1.44999 -0.848627 -3.02503
2804 1 -19.3639 14.0105 -11.6074 1.54545 0.352561 -4.82389
2806 1 -4.72581 20.7649 -15.5647 -3.46761 -1.30878 -4.3549
3041 1 -20.9071 23.769 -1.96427 1.14185 -0.0826476 -1.12685
2836 1 -14.5319 17.1839 -4.47685 -2.43341 -1.75113 -3.38492
2866 1 -20.8178 23.5683 -6.53065 -0.417866 1.49367 -3.03725
2867 1 -17.1803 17.4234 -12.8577 -1.55156 -1.62557 0.979398
2870 1 -12.8643 15.2797 -9.4004 -1.24862 0.45998 0.916347
2878 1 -18.9361 19.3452 -14.2903 -0.913295 -0.327082 1.43104
2881 1 -16.8222 14.6865 -20.1467 -1.22871 -3.78617 1.5097
4013 1 -11.0917 25.5344 -0.443199 -0.897474 -0.611582 -0.948013
2904 1 -9.09627 13.3533 -1.3968 -3.82113 -1.23273 3.7181
2907 1 -17.319 22.5363 -6.42402 -1.56157 -1.38445 3.04716
1735 1 -0.243583 18.0292 -18.6517 5.65658 2.23404 -0.363453
2956 1 -16.4625 21.145 -1.38889 -1.00542 -0.160681 -2.34477
2959 1 -18.6451 18.587 -20.5638 3.21007 0.202608 -0.0442866
4229 1 -3.32058 43.9405 -1.24804 -1.77022 1.60607 4.04413
2976 1 -21.1355 19.1386 -16.0381 0.180662 2.44702 -2.16619
789 1 -14.2037 19.3358 -0.639123 0.0301038 -3.02929 0.316712
2986 1 -4.68531 16.8628 -22.9094 -1.71995 0.123026 1.61237
4197 1 -3.78149 39.3599 -8.82917 0.0451606 -3.36956 -3.66754
3021 1 -19.4176 26.0326 -1.62791 3.39034 0.495251 -2.96587
3030 1 -16.4329 18.9794 -10.4706 -6.07302 0.712473 5.11699
3044 1 -7.73168 16.3131 -6.14364 0.773651 -1.82713 -0.956894
2223 1 -19.2869 11.6741 -21.517 -0.593966 0.710088 1.05199
3060 1 -23.8184 24.1157 -6.27031 3.11328 -1.75005 -6.13969
3061 1 -10.7652 25.4887 -15.7056 0.46172 -0.85505 2.86278
3062 1 -8.17541 15.0723 -16.0826 2.27451 1.40346 5.21616
4217 1 -3.44263 44.1159 -4.12857 3.21891 1.37046 4.80979
1516 1 -10.5335 23.6184 -23.0237 5.55655 -5.97081 1.554
3115 1 -17.1618 18.4253 -16.4759 -3.58205 -4.17768 -4.81286
3228 1 -11.7618 11.8218 -9.74115 -1.43939 0.46917 -2.69756
644 1 -7.12974 12.2416 -3.20712 -0.588719 1.88905 -3.11011
3133 1 -2.29321 16.7912 -10.3674 2.07442 1.43309 -2.37128
3152 1 -14.1345 15.9548 -20.2238 0.126594 -2.13593 -4.13772
3165 1 -6.3498 22.387 -13.8843 -3.0598 -2.17911 -1.55338
3171 1 -6.66232 14.7876 -20.4663 -3.13872 -0.18101 -5.34417
4222 1 -2.57039 46.3499 -8.18772 0.651103 -4.77784 1.09237
3185 1 -16.2922 19.981 -21.4744 -0.292776 0.300055 5.1563
3188 1 -21.5738 15.122 -10.0548 -3.60565 -1.02373 1.06915
3190 1 -21.9829 20.7597 -18.0856 3.72541 -0.839673 -1.26228
3218 1 -5.15686 21.7438 -6.23445 -1.21436 3.84803 0.895724
3226 1 -22.8831 22.2984 -12.5838 0.0286169 0.665929 -2.07571
384 1 -11.1611 12.0731 -6.92818 1.09119 1.54251 -0.347204
587 1 -20.6199 46.2086 -10.0195 0.162642 -2.81684 0.397867
3525 1 -16.4945 12.1458 -20.9423 -6.17786 -2.32497 -3.82363
3256 1 -6.19787 17.2188 -8.47072 3.98182 3.28496 0.978996
3299 1 -14.5336 23.6924 -5.67746 0.579462 4.69771 2.57352
3308 1 -18.5662 20.5412 -3.17401 4.68277 -0.677979 -5.08583
3330 1 -8.49902 20.2892 -14.8348 -0.499468 2.99632 4.20322
1692 1 -1.08804 19.3175 -3.88286 0.984355 3.62718 1.40747
3383 1 -21.7135 24.4899 -19.5378 2.05203 2.44336 1.03718
3393 1 -12.6495 14.9067 -17.9582 1.52016 -1.15056 -2.11869
2617 1 -4.45565 12.2574 -16.8325 -1.8381 -6.99848 1.54075
3435 1 -4.13075 23.7171 -13.1001 -4.20821 1.89866 -2.30774
3462 1 -12.6207 21.2531 -7.87284 -0.632122 3.54354 3.106
861 1 -23.477 20.0972 -14.2485 -1.69437 -3.42033 0.788554
3499 1 -22.6809 19.6202 -22.3014 -4.19919 -2.15321 -0.99484
3501 1 -16.8689 19.86 -5.7069 -0.401152 -0.647997 -0.452672
3502 1 -7.37172 23.1509 -4.72773 0.73269 2.79378 5.63919
3506 1 -23.7536 19.4409 -3.75827 1.94249 -0.38227 3.3424
3514 1 -3.68121 20.887 -10.5303 0.759469 -2.30544 -1.38338
4088 1 -5.95593 39.598 -0.381513 -0.0291281 -0.15288 -0.34311
2458 1 -23.5299 24.45 -0.403111 -0.86793 0.923543 -1.51656
3480 1 -23.5624 23.8287 -3.41736 1.16913 -1.49753 -0.844359
3543 1 -15.1508 14.3872 -6.98462 0.825583 0.251441 -2.19704
3544 1 -8.13321 19.3982 -2.50973 2.61905 -3.99462 0.875566
3553 1 -9.83032 15.743 -4.37549 -6.36968 2.01733 -3.05251
3560 1 -17.1001 13.8799 -17.5155 -1.45482 -2.17228 2.75461
3600 1 -19.5228 22.0472 -8.65354 -1.39305 -3.39039 2.19799
3611 1 -17.7405 23.564 -17.7726 -2.55468 -3.84818 -1.50431
3612 1 -3.14429 15.239 -4.03892 2.7787 -0.924871 -1.99357
3620 1 -4.43552 15.0636 -9.24506 -0.831337 2.75848 -0.013466
3655 1 -9.48954 24.2861 -12.1648 -2.73196 -2.87893 0.433136
3675 1 -15.1019 19.5878 -8.08412 -2.14931 -3.81958 -3.02223
3717 1 -3.52692 15.4478 -20.8052 3.76219 -1.79459 3.65631
3427 1 -23.774 12.6001 -16.3004 0.426895 5.02779 -3.17709
815 1 -21.0492 12.3059 -16.9511 -0.0879293 0.0271809 -1.67641
3725 1 -14.7808 19.732 -3.43821 2.42196 5.14252 -1.23493
4016 1 -5.72142 25.7106 -0.727277 -2.43022 1.61835 2.26846
3747 1 -19.3043 23.482 -20.1959 1.84178 -2.90585 3.11856
3752 1 -19.6899 14.8821 -16.9005 -1.29996 1.26631 1.2063
3791 1 -10.9548 16.7539 -14.3788 4.8307 6.04951 -0.456482
3805 1 -5.76249 16.3746 -17.4926 0.265314 -1.69015 -0.518047
3807 1 -8.44701 20.2281 -17.9824 2.31902 -0.357517 -0.882797
3826 1 -3.06745 18.1104 -15.5147 2.71761 -1.11171 1.36233
3828 1 -19.4352 17.6869 -18.0634 1.11636 2.95571 0.786628
4169 1 -3.16844 34.8385 -4.1528 -3.0671 -2.07151 -3.27997
3929 1 -2.49534 12.7461 -8.25092 1.83155 4.96869 2.02253
4194 1 -2.3021 41.8101 -5.26554 -4.52711 1.35757 2.14561
3901 1 -15.704 13.2753 -11.8816 -5.76247 0.976447 2.67806
3910 1 -4.41384 19.4913 -8.02919 -3.26086 1.99375 0.394511
4174 1 -2.65601 36.9438 -7.76511 -1.79588 -0.744394 0.260321
3940 1 -3.12145 23.6915 -10.481 -1.76461 0.272517 -1.30401
3956 1 -13.6019 12.1337 -5.41652 3.25099 3.47909 2.25969
3235 1 -4.79424 12.8865 -11.0791 0.175067 -0.25311 0.0717819
3984 1 -6.47276 13.5813 -18.0683 -2.95721 -2.51335 4.64949
4001 1 -11.1366 25.3745 -3.19828 4.56823 3.80843 2.90979
4002 1 -10.4668 27.7005 -4.61718 0.0094783 -2.69955 0.66143
4003 1 -7.67638 27.9444 -4.32093 0.0194127 2.9742 0.771375
4004 1 -6.45727 25.763 -5.63603 3.14585 -1.8845 2.13697
4005 1 -11.4029 24.9878 -8.07922 1.94768 -0.00663028 1.52887
4006 1 -10.7531 27.5576 -7.34617 -0.453111 3.26173 1.88084
4007 1 -8.73883 28.2326 -9.36901 3.52603 1.30468 3.84495
4008 1 -6.75773 24.8713 -8.17512 -0.763145 -4.97426 -1.97253
2545 1 -11.4116 11.2904 -19.2608 -4.69554 -0.668006 -2.7622
3765 1 -24.4868 46.1902 -2.72599 -3.53399 3.20732 1.63428
4015 1 -7.23825 27.8478 -1.57537 -2.39774 3.25653 -3.53895
1698 1 -11.2953 11.3543 -1.64314 0.928055 -4.21004 2.59901
4025 1 -11.4591 30.2676 -3.82493 1.87871 -0.507384 -0.241622
4026 1 -10.4432 32.6617 -4.59596 1.64115 -3.30836 0.169084
4027 1 -7.70954 32.3335 -4.02726 6.19212 -2.48501 -1.55403
4028 1 -6.66769 30.1226 -5.26899 -0.719135 -5.32752 1.33068
4029 1 -11.9989 30.1482 -6.8404 -3.72108 -2.21395 0.932792
4030 1 -10.8731 32.4175 -7.56016 -1.41745 0.570579 -3.60067
4031 1 -8.1962 32.3319 -7.95726 -0.477368 -0.121656 -1.45357
4032 1 -6.79392 29.9239 -8.26455 -3.80023 -1.00613 2.94857
4037 1 -10.9152 30.2545 -0.96963 -0.964148 -0.563333 7.12168
759 1 -0.707421 14.3446 -9.70795 2.42432 1.65435 -0.654003
4039 1 -7.20553 32.3469 -1.2806 5.19131 -2.21209 1.71609
3532 1 -7.52066 12.1247 -7.05528 -1.46989 1.74925 -0.300755
4049 1 -11.6016 34.7119 -3.32506 -0.588838 0.570417 1.62494
4050 1 -9.87783 36.9833 -4.227 -1.53883 2.43661 3.23972
4051 1 -7.36227 36.9042 -3.33216 2.3649 -5.04318 -0.467174
4052 1 -6.11565 34.5886 -4.59271 -1.16067 2.73314 -2.10711
4053 1 -11.6255 35.2127 -8.34407 3.18402 -0.899011 1.48559
4054 1 -10.2867 37.116 -6.83039 -0.753841 2.06875 -3.42233
4055 1 -7.6019 37.1997 -7.53297 0.80351 -0.949006 2.53889
4056 1 -6.49603 34.607 -7.40093 0.0742252 3.91744 1.29679
4061 1 -11.2864 34.864 -0.477283 -5.23349 3.04354 -3.74624
74 1 -1.05344 14.8274 -12.5269 1.23737 -0.737869 2.74001
4063 1 -7.35319 36.8865 -0.692906 -0.0956976 -5.09214 1.68754
1161 1 -8.72201 46.9378 -17.9335 0.939044 -0.643222 -3.99322
4073 1 -11.2687 39.5156 -3.53394 0.123924 -1.36902 -7.08391
4074 1 -9.82415 42.085 -3.84918 2.27464 5.12615 -1.52893
4075 1 -7.13639 41.5026 -3.63013 -4.10644 2.37405 -2.07766
4076 1 -5.99499 39.135 -4.4437 -3.93689 1.90776 4.40088
4077 1 -11.475 39.4789 -6.33019 2.31845 -1.67602 2.75727
4078 1 -10.3245 41.9807 -6.60806 0.980842 0.257336 1.58579
4079 1 -7.89681 41.3983 -7.95014 0.677441 -3.50377 3.90327
4080 1 -6.04668 39.3991 -7.10818 2.30541 -0.875713 2.76698
4085 1 -10.1726 39.4031 -0.863187 -1.6682 -1.26761 -0.0322148
2321 1 -3.0721 24.6237 -23.8502 1.40228 1.89761 -4.61454
4087 1 -7.41626 41.7477 -0.912108 2.98323 1.188 -3.83946
2807 1 -21.6895 18.0911 -2.15574 -0.330143 -3.31688 -2.86907
4097 1 -10.0824 44.74 -3.14155 -1.8108 0.697239 0.112065
4098 1 -11.392 45.8535 -5.23273 6.34276 -5.20006 0.259653
4099 1 -7.71646 46.1586 -3.68524 0.097153 2.45156 -2.59848
4100 1 -6.19239 44.1907 -4.68952 -5.11092 2.25836 -0.639057
4101 1 -11.4123 44.2465 -7.54944 -4.07272 -3.5223 1.65103
4102 1 -8.82699 45.0151 -8.20057 1.72441 0.0722621 -5.18265
1919 1 -22.5344 12.9847 -13.3383 -0.736065 2.05883 3.12667
4104 1 -6.5819 43.8178 -7.58271 -2.02811 -2.00741 0.940498
4109 1 -11.2142 44.1845 -0.724721 -3.43191 1.54341 -0.726752
2580 1 -23.8146 12.7214 -21.6759 7.65178 -0.349081 -0.666381
4111 1 -7.36833 46.2856 -0.979181 1.72165 -3.16858 2.81124
2945 1 -7.50892 12.3494 -10.8211 0.889193 5.05465 -0.755735
4121 1 -3.80958 25.8787 -4.48606 1.94835 0.746596 1.70212
4122 1 -2.56781 28.1468 -5.72953 -0.781434 1.20836 1.71431
4125 1 -3.75862 25.18 -8.18652 -0.643845 3.34617 -1.6842
4126 1 -2.70693 27.8235 -8.50233 1.56772 0.111509 1.01335
4133 1 -3.2949 25.3147 -1.91327 3.77072 -0.912774 -0.667317
4134 1 -1.78435 27.5449 -1.12891 -3.63363 2.03212 -2.85144
4145 1 -3.89798 30.1104 -4.57786 1.00726 0.856653 -2.60252
4146 1 -2.50057 32.4385 -5.50512 0.986679 -1.19355 0.377646
4149 1 -4.00839 30.1319 -8.91047 -0.543642 1.17415 2.16296
4150 1 -2.43715 32.1201 -8.18043 -4.28831 3.68593 -0.116473
4157 1 -3.30322 29.9256 -1.79822 2.45832 2.22081 2.56109
4158 1 -2.10474 32.2749 -1.1337 -0.384201 3.71349 -0.759465
3293 1 -9.98427 13.8817 -23.8234 -2.74556 -2.3412 1.63252
4040 1 -6.06661 30.0639 -0.459308 1.80695 -1.34371 -0.302371
673 1 -1.24291 16.5592 -22.1541 1.33602 0.722207 3.34583
951 1 -9.21016 46.9365 -12.4896 -2.83236 3.48198 -2.4845
3857 1 -12.9549 44.5577 -10.1582 1.09092 -3.10842 -1.22025
286 1 -5.22355 16.0725 -1.27533 5.5864 2.37777 -0.0604307
3721 1 -1.96763 18.2669 -6.48486 -3.69879 -3.99509 1.6259
2731 1 -24.6135 22.5563 -8.69093 -3.9776 -2.27068 -1.17631
4064 1 -5.76703 34.6077 -0.29831 -2.3512 0.967224 2.25351
3780 1 -23.9042 18.7423 -18.373 2.00672 -0.0722221 -1.37483
104 1 -14.8593 46.449 -10.3268 2.23021 -0.797459 -3.2861
3653 1 -1.45759 17.484 -0.454102 -0.540833 1.22828 -4.74655
1291 1 -19.3641 15.4968 -0.877382 -0.0828078 2.83889 -1.09686
3174 1 -23.7776 13.9914 -11.2582 1.06634 -2.13559 2.25709
4014 1 -9.65483 27.8528 -0.210649 1.30144 0.338313 -0.481249
2634 1 -4.44 12.1208 -23.1378 3.56082 -1.64801 1.53222
1518 1 -1.3836 11.8913 -23.4142 1.37848 4.94444 0.581329
3661 1 -24.2423 11.5922 -18.8464 2.90446 3.67779 -2.20638
2551 1 -7.49507 12.0696 -13.8796 -2.58942 -1.86487 1.6816
1828 1 -13.2913 46.8697 -22.3787 1.00015 -2.83643 -1.9436
1128 1 -2.21846 11.9692 -0.905503 -2.22924 8.26673 -7.28176
902 1 -9.8116 15.9558 -0.128658 3.80775 -0.521297 -0.696791
604 1 -0.26557 26.1702 -23.8965 3.08767 1.67201 -0.286244
2313 1 -8.47297 11.3979 -18.7454 -3.41312 5.63679 -6.30158
2848 1 -17.7977 46.4398 -10.8594 0.72243 -3.35965 2.70736
4038 1 -9.75979 32.5731 0.0329426 1.96218 4.22341 4.22358
228 1 -11.7039 20.9506 -0.368259 -3.19283 2.75542 2.90671
388 1 -18.8613 46.8424 -24.1088 -4.67214 0.0247626 -1.72914
422 1 -2.47774 18.3978 -24.0792 1.65439 -0.565199 0.422899
2 1 -8.93653 14.9904 2.49175 1.60291 -5.10004 5.67326
19 1 -15.3795 22.3811 19.4986 -0.225059 2.92356 0.508306
26 1 -1.26621 16.2514 10.4636 2.87549 2.56282 -2.65731
53 1 -3.44599 23.2895 12.373 -5.14735 1.97758 -1.88967
69 1 -10.5199 15.1607 9.63761 1.4861 1.27967 -1.17214
98 1 -3.42538 14.3288 13.092 1.35366 1.78017 -0.772239
148 1 -18.604 13.5837 13.6614 -2.4132 -0.296289 0.657702
2129 1 -13.4158 44.5427 13.708 -0.422095 -0.32028 -0.151572
196 1 -17.606 24.07 4.10019 1.61694 -2.26695 -0.101963
4115 1 -5.39964 45.8301 11.2062 -0.842551 1.64223 1.59754
219 1 -6.52652 23.7716 21.5 -0.804698 -0.650682 -1.69987
230 1 -7.09396 13.7894 20.1725 0.559318 4.68646 -6.4478
233 1 -12.6423 16.5985 12.4448 7.98769 -4.89838 -6.99484
234 1 -8.04197 18.685 7.77217 3.16478 -0.595046 -0.399518
237 1 -17.981 23.355 1.31557 -2.10169 3.47348 -1.29703
239 1 -21.0203 18.9939 17.6099 1.28184 -1.86067 -0.977626
285 1 -16.0222 19.3089 14.2209 1.48633 -0.822364 -1.5141
371 1 -12.4324 45.4313 16.1882 4.39609 2.21206 -2.62188
2528 1 -9.27761 11.5822 6.40914 4.22879 3.28899 -0.67432
372 1 -9.50165 21.3647 7.60424 3.99726 -1.069 0.714281
2307 1 -13.9986 12.8068 23.3493 3.02875 -0.487344 -1.59204
4166 1 -1.11683 32.1613 6.61288 -1.94208 0.727199 -1.12027
425 1 -20.4704 13.8093 17.565 -3.32084 0.554296 -0.0293621
453 1 -19.488 13.5046 9.24187 3.95718 2.65824 -3.68341
3840 1 -12.124 44.317 11.2269 -0.46501 -2.28367 4.56647
514 1 -14.4227 19.8689 19.2558 1.16023 -0.0157142 4.49919
3000 1 -3.47057 12.3088 15.3248 2.41493 0.53941 4.85493
577 1 -10.3192 23.3368 1.11891 2.1235 0.788136 -7.70827
583 1 -22.2814 23.4675 13.1002 -3.44502 1.19783 -2.05544
2276 1 -0.614089 11.5706 1.64917 0.0976436 -1.46035 2.16503
588 1 -18.8879 21.965 5.3455 1.49899 -0.133059 3.85755
590 1 -6.77646 19.0878 20.9966 5.98679 -5.17916 -2.00723
600 1 -21.9786 24.0314 16.1763 4.15739 1.1694 0.637913
630 1 -23.0287 23.737 10.4724 -3.10801 -2.46928 -3.98378
641 1 -16.1418 18.2089 5.61635 -1.5436 2.11872 0.375776
668 1 -11.2697 12.6253 17.5526 -1.69396 3.20333 -0.287691
693 1 -9.59336 23.5375 3.99691 -5.61796 -4.31119 -0.470406
729 1 -12.9642 15.7587 15.1137 -1.65093 4.40128 -1.63663
734 1 -19.806 23.3601 19.3677 -1.00313 3.31946 -4.70913
4114 1 -8.39833 45.7049 10.909 -0.570518 0.758942 2.58414
754 1 -14.4558 24.6058 15.7827 -1.57192 -1.39612 -0.334882
785 1 -3.2914 21.5687 20.7311 0.548974 0.583091 3.1957
786 1 -23.0398 19.8051 22.9282 -2.02486 -2.68391 -0.572276
791 1 -3.84714 23.8996 15.1688 -3.11763 4.06643 -1.03495
743 1 -23.6758 19.038 2.05999 3.94167 -2.53444 1.2421
886 1 -5.54136 22.4825 1.90628 0.167384 3.77847 7.38999
1968 1 -22.2531 11.7 13.6928 -2.31352 0.389939 1.44389
913 1 -6.39912 24.1439 16.4168 4.33059 4.70069 3.58373
914 1 -21.6612 15.9662 10.4803 4.58187 3.20208 -0.125937
919 1 -7.11072 15.6686 12.818 1.12145 3.4882 -0.480413
924 1 -8.5519 15.7224 8.03134 0.803596 -3.75366 -3.09829
932 1 -20.1899 15.6282 14.9134 -1.75371 2.34492 -1.84256
941 1 -20.881 23.0302 8.69199 3.27072 -3.12436 0.312355
947 1 -9.64262 16.5034 17.8819 0.717999 -1.04468 -0.527631
949 1 -2.81036 14.741 21.8947 -0.394082 1.50028 -3.79232
961 1 -8.60016 12.5271 1.26903 -0.319838 2.30927 -0.264774
965 1 -16.6614 13.5621 8.01172 -1.17421 2.71448 2.57289
985 1 -17.5594 19.4339 11.7826 0.293715 0.044982 -2.00647
350 1 -24.2695 17.1638 22.6816 -3.90666 -2.09922 1.35225
1055 1 -9.08669 15.5366 15.1754 -4.2616 5.92823 4.94873
1056 1 -8.55105 18.9467 4.73165 -1.32171 -3.94834 -1.85772
4214 1 -0.804425 41.1732 6.8806 4.96318 -4.46912 -2.98069
3581 1 -15.5039 11.9258 5.63346 2.68387 2.28964 4.77656
1088 1 -21.4944 23.2785 6.03456 -1.18525 4.16641 0.643987
1110 1 -11.5201 23.4255 7.83654 -0.133867 0.664877 -3.96314
1113 1 -20.3722 19.1122 22.4638 3.36634 2.67699 2.09729
1117 1 -8.53221 13.7024 11.2185 2.38586 -1.34903 2.62178
1150 1 -14.3817 15.6796 8.3655 1.46178 6.6492 1.06146
1152 1 -13.9951 14.637 19.6905 -2.77089 3.54429 3.48849
1166 1 -16.714 23.2652 17.0649 3.48761 -1.89555 3.83251
1629 1 -5.82456 46.7099 19.052 -1.91502 -1.06844 0.785537
1175 1 -9.90241 13.0458 21.5038 5.37771 -2.14518 -4.25714
1197 1 -20.1458 16.3378 20.9906 0.754885 3.81758 2.9428
1204 1 -3.68642 21.3492 3.87073 -0.739157 1.96351 -0.83901
1220 1 -22.2927 21.178 16.2858 -1.65673 0.267734 5.60874
2426 1 -2.53501 18.1317 18.8457 0.256957 -0.764598 0.613644
1237 1 -19.511 19.2876 15.1865 0.980766 0.577442 -2.45261
1642 1 -1.20698 23.3199 7.45106 -4.46044 -1.40631 -3.18428
1285 1 -12.7851 22.294 15.8012 3.06363 1.7371 -0.426041
2441 1 -22.56 12.6239 18.9646 -3.19079 -4.41823 1.65552
1325 1 -6.34584 14.0199 9.22415 -4.93522 -5.78582 -3.5038
1340 1 -20.2228 18.6454 10.912 -1.73334 4.88036 1.66727
1355 1 -9.51368 21.4305 18.0971 4.90043 -1.16669 -0.961107
1358 1 -9.40149 23.0929 22.4152 2.68924 -2.09482 6.59156
1372 1 -12.0994 14.5151 2.94414 2.46762 -0.425564 -0.361278
1374 1 -19.301 24.6411 16.8877 1.42104 3.16126 4.34128
3890 1 -0.778721 20.1511 14.6892 1.52819 0.732188 1.18662
1385 1 -17.4251 25.0428 14.6478 -2.67164 1.87416 4.34194
1391 1 -12.1565 19.4871 20.8185 -0.712526 -2.8214 0.545724
1456 1 -17.2087 15.4524 12.0782 -3.74712 1.85455 -4.4378
1458 1 -21.5083 12.5361 7.07404 6.30263 -4.32114 -2.01866
1461 1 -13.5908 15.5636 22.6371 0.490886 0.373712 4.43822
1492 1 -11.7653 13.6416 11.9591 1.33723 -1.78598 -2.97954
1500 1 -17.7221 16.9859 14.3251 2.94156 -3.63393 2.06627
1091 1 -12.5863 13.6875 8.02031 2.59583 0.32838 -1.72903
1575 1 -19.4201 15.3602 4.69786 0.884552 -1.48377 0.771274
1606 1 -22.2421 19.0609 6.62455 -2.2753 -0.371445 1.43703
1622 1 -18.0783 21.4522 15.1556 0.93042 -1.49808 4.68585
4186 1 -0.856321 36.5294 9.24666 3.4342 0.353883 -4.67521
1655 1 -2.69599 16.4514 14.9705 4.73979 4.64025 1.32395
1656 1 -4.19396 13.1527 18.0015 0.654614 -0.217066 -2.07324
1658 1 -18.3403 21.7271 8.16035 3.31625 0.863651 -5.14658
1668 1 -12.4815 17.4708 7.44823 4.36143 0.134489 1.18778
1679 1 -11.1462 22.1256 20.3471 4.71832 -4.93893 1.42006
1005 1 -15.7341 17.5475 0.770153 -2.10379 -3.74426 3.80839
1705 1 -1.83703 25.5963 19.3603 4.21276 3.82813 4.42674
1708 1 -8.93987 24.7743 15.2454 2.9415 6.53097 2.7363
1377 1 -13.3168 20.4331 23.3761 1.24451 0.473997 -1.28733
1167 1 -1.21583 15.9045 17.4766 3.29898 2.15676 1.95819
1784 1 -9.40575 12.8607 13.9148 0.497561 0.937124 -0.854751
2849 1 -21.1772 47.1601 15.0163 1.37238 2.3954 -2.02126
1869 1 -1.5774 24.3787 16.5707 -1.29444 -0.730489 -1.12338
1873 1 -11.2844 17.8371 10.1229 -1.90521 0.374437 5.77365
1885 1 -9.23379 16.7806 23.1895 -1.35607 -1.22733 -1.44211
1898 1 -21.4336 18.8943 13.3655 -0.450889 -3.01017 5.02497
1916 1 -8.0943 14.829 5.26602 -2.54404 1.34262 0.537622
4142 1 -1.59975 27.4348 5.70296 1.62814 -0.613531 1.19756
765 1 -24.1627 11.5212 7.43735 0.0717784 -0.995229 -2.67982
1963 1 -2.7525 17.9494 2.00835 -2.8617 0.511075 1.88464
3015 1 -4.32366 11.7735 9.18688 -4.76105 -0.863684 -1.78651
2492 1 -22.5683 14.9216 2.65849 -0.204907 1.92915 -2.31178
2008 1 -9.88628 24.1116 12.6073 0.237662 3.46239 -0.0325968
2013 1 -15.0232 24.3713 4.60071 -3.74729 0.953758 -2.49633
23 1 -11.0789 46.6581 21.1402 -4.20331 0.288227 1.54834
2046 1 -8.40874 13.8288 17.5316 -1.39282 -5.94598 3.20217
1148 1 -11.6706 11.6001 9.66022 4.56188 7.98354 3.08031
2082 1 -7.34463 17.2508 2.7249 -3.57525 -3.91511 -1.39842
2119 1 -10.7669 18.4513 1.03263 3.51154 4.90762 -0.766557
2157 1 -4.58721 16.3439 20.3026 -7.40688 -2.17364 -0.760679
2158 1 -16.1636 12.6213 15.0381 -1.4151 2.92911 1.97401
2168 1 -20.2053 17.4794 3.06058 -1.86558 1.71572 0.81449
4233 1 -1.43299 43.6879 10.8792 -2.77132 1.15843 -1.58441
1771 1 -1.12325 23.975 10.6954 1.11899 1.17778 -1.38427
2231 1 -13.9788 24.9251 10.7009 -0.885358 -1.51264 0.409308
2264 1 -5.49294 15.6416 4.36161 4.23747 0.442497 -0.77908
2270 1 -6.58973 20.9058 4.86925 2.60052 0.677052 1.82913
4209 1 -1.98983 38.7839 10.4998 -3.7712 -0.213018 -4.61686
2282 1 -6.72387 22.5656 8.04362 -0.292015 -1.79966 -2.31239
2285 1 -21.8831 17.3131 0.837269 -4.509 1.04652 -3.67593
2305 1 -14.0345 18.9681 12.1659 4.03474 4.40741 0.511513
4119 1 -6.0873 45.4182 6.65303 -1.84499 0.179717 -2.5452
2315 1 -12.4153 12.8424 14.8836 6.17932 -0.00684591 0.46066
3669 1 -0.780999 21.8652 4.64047 -1.97177 -1.28964 3.19729
2322 1 -5.41536 20.6324 18.6879 -0.0983736 1.926 2.12673
2334 1 -9.80094 16.9387 12.7095 -4.87814 1.20154 5.26221
2335 1 -3.77883 18.9212 21.5518 1.09083 2.13126 -2.03471
2349 1 -10.8397 23.7415 17.1816 -7.18898 1.73696 -0.911334
2379 1 -21.4578 13.2935 11.3364 -2.50172 0.66277 5.18656
2413 1 -6.85498 23.727 4.25713 4.89311 2.96222 0.656308
3498 1 -18.5748 11.4382 7.01592 2.36548 -2.22783 0.646489
4202 1 -1.57653 41.4179 2.25509 -2.51547 -5.45049 -0.160555
2435 1 -16.4464 25.0774 11.9879 -1.02748 -2.27445 -4.62871
2439 1 -14.4299 19.9464 9.59933 1.96957 -0.634439 3.87379
1723 1 -23.6123 17.3676 4.47379 3.59949 4.81194 0.163402
2462 1 -13.065 24.1296 2.50026 2.42761 -1.73559 -0.414332
2488 1 -9.50183 18.9594 19.8028 -3.82139 -3.13619 2.83763
2490 1 -13.0475 25.0328 18.1391 2.4578 2.35526 5.12892
2505 1 -11.3743 16.9097 21.5111 -3.51265 1.54078 3.52993
2519 1 -23.4603 20.8651 13.69 1.57939 0.569797 0.164566
1967 1 -14.9749 46.858 16.8849 -1.88939 -2.40092 2.56281
2581 1 -6.98097 16.3024 21.765 -1.59224 1.12691 0.983647
2586 1 -14.5469 14.7686 11.2812 0.320479 0.366003 1.98523
2620 1 -10.3421 16.6816 5.92098 -1.29393 1.0608 -0.0493539
2660 1 -12.8226 24.0063 13.3402 5.78674 -0.66306 -0.0175054
2664 1 -16.15 17.0317 22.6085 -5.08835 -4.20667 2.28049
4189 1 -2.64906 34.275 5.64318 -0.726489 -2.27654 -5.15277
2710 1 -5.99042 15.4219 17.9182 -1.89362 4.3454 -2.01683
2723 1 -5.2171 15.1813 15.19 -0.0199491 -3.2283 -2.96193
2742 1 -16.8048 15.3277 5.72965 -1.38665 -4.21552 -1.3828
2745 1 -13.6532 21.44 1.76187 -2.23944 -6.68808 0.311259
2769 1 -15.7058 15.611 15.5194 0.202159 -0.149735 3.85536
2777 1 -14.6476 17.1208 3.28203 -5.72558 1.57352 -0.0788365
2778 1 -22.6665 17.1087 19.9407 -0.239011 -6.46551 3.70955
2788 1 -22.6775 16.5588 13.409 -2.21041 2.88246 1.25025
2809 1 -11.8668 18.0015 16.3624 -1.70721 -1.65221 -0.567442
4162 1 -0.965758 31.7748 9.37732 -5.9115 1.5842 -1.54952
2820 1 -15.5961 22.9788 9.20788 -4.87918 2.12483 0.812244
2851 1 -7.01868 22.7415 18.8229 1.8844 -2.49844 -1.63327
2853 1 -3.80203 24.3006 21.2994 1.75863 -0.716382 -0.427621
4086 1 -9.94771 41.9339 0.43242 -0.664352 -4.10566 0.172139
1685 1 -19.3658 11.8297 23.3684 2.26628 1.42648 -2.17428
4178 1 -1.60517 37.0362 2.10646 0.977194 -1.73535 0.699815
2895 1 -19.2634 18.7135 19.7386 -1.20187 0.689404 -1.95852
2905 1 -18.0183 21.3596 20.0758 -2.66778 0.726066 0.48126
2921 1 -17.8007 22.5207 11.0974 0.666573 -2.55108 3.67923
2939 1 -12.5921 19.8804 3.9468 -2.99208 -3.47829 -0.810497
2942 1 -22.4338 12.8008 21.7943 1.68169 2.66628 0.047325
2950 1 -19.9411 17.1772 7.04349 1.62822 -2.63534 0.0843223
2971 1 -3.02667 18.0365 12.5022 3.00296 -2.23906 -0.999267
2973 1 -11.0745 14.5415 19.5332 -1.59028 2.76071 -1.96033
1068 1 -5.30453 18.1281 0.606449 0.375567 1.81377 6.13938
3530 1 -11.0029 13.8402 5.65561 -2.83962 4.12561 -4.18414
3002 1 -22.1916 16.4295 17.071 -2.94645 0.955759 -1.20784
4225 1 -2.50736 43.7331 3.64756 3.87529 0.950708 -1.73512
3619 1 -3.27916 21.7258 8.81706 -0.196154 0.479952 5.35458
4185 1 -2.11223 34.1084 10.2074 2.29746 -1.89059 2.79722
3042 1 -10.4583 19.2902 14.2902 -1.02494 1.31673 2.51743
3527 1 -1.19939 13.9607 5.73268 0.2031 3.0688 2.29222
3076 1 -11.616 20.7839 9.40565 1.24464 2.50123 -1.74126
3122 1 -13.6089 23.9424 20.9127 -1.97856 -1.67021 1.2744
395 1 -10.7818 45.3486 18.5641 -1.18439 -3.69885 -1.18346
3144 1 -3.28932 15.0663 2.46422 -0.312576 -1.92993 0.0921417
178 1 -14.206 11.3147 8.22469 -0.550698 -1.6584 2.66286
4201 1 -3.12833 39.0057 3.19236 -3.13676 -1.39554 -0.854676
3186 1 -5.48448 20.1641 7.35842 6.45766 -1.68266 -5.49919
3193 1 -19.8751 25.5799 1.15925 0.820419 -2.42817 2.49818
3211 1 -6.31891 20.0385 13.9817 -0.912302 3.07164 -3.17608
3214 1 -4.94048 18.1688 15.7706 2.68171 -2.37065 4.82882
3232 1 -22.2645 14.9735 5.63962 -0.433834 -0.706814 5.53941
3233 1 -3.46084 16.3625 8.48659 3.98045 -2.02542 -0.391602
3245 1 -8.56198 18.9939 10.5379 0.632989 -3.09301 -2.79128
3286 1 -17.8664 19.4259 3.81648 -7.42575 0.481009 -4.93162
3290 1 -14.1168 19.7055 16.3312 1.05187 0.782425 -0.755259
3292 1 -22.112 21.6247 2.50948 -1.35724 0.801437 0.415049
410 1 -15.5011 13.2342 0.888934 -1.624 -2.77602 2.72857
3297 1 -18.2021 20.8957 22.9385 1.39279 -2.06634 -4.88973
3323 1 -3.14498 20.3744 16.7776 -5.32495 0.382524 -1.3821
3325 1 -11.6851 17.2773 3.44541 0.613307 1.95857 -4.81473
3180 1 -0.535849 14.2589 3.04779 -0.597597 -2.46454 -2.3644
3356 1 -10.2084 21.0829 4.77381 -0.407411 -3.8882 -3.26312
3358 1 -3.47266 20.7684 13.7428 6.09743 -1.35427 2.78035
3359 1 -7.43664 22.4483 12.6349 -1.35707 -1.68796 -3.15099
3361 1 -5.49489 22.8098 10.544 -0.297272 2.24131 2.55367
4110 1 -9.8462 46.1513 0.632244 -2.5046 2.37978 2.33792
3428 1 -5.9228 12.6902 13.3621 -1.59537 -7.96756 2.06345
3444 1 -20.0556 13.3953 2.70416 0.94623 3.41576 2.46537
4238 1 -0.73794 45.5936 6.95626 3.21166 3.19289 3.76515
3455 1 -18.5558 14.5965 19.2523 -4.10787 5.57406 -3.17037
3459 1 -1.53737 22.1689 18.4153 -0.273515 3.84201 1.27119
4213 1 -2.42441 38.9204 5.7616 -0.329233 -4.50302 3.03132
456 1 -5.15078 14.6069 23.5209 -0.539215 -1.89904 -1.20571
3517 1 -7.07041 18.1293 18.0546 -0.870462 -6.26702 -2.3898
4237 1 -2.34346 43.3854 6.40165 -4.54647 -0.121553 -3.23882
1932 1 -4.57347 17.86 6.10721 3.89047 0.868752 -0.0246735
2864 1 -14.2881 12.5413 17.3582 1.80013 -0.3788 -3.34122
3550 1 -16.1557 17.8124 9.56197 -4.09585 -3.17255 0.686651
3561 1 -20.7794 20.1283 4.3206 2.15954 -4.34515 -1.12506
3583 1 -17.9059 19.2251 7.35184 -5.13957 2.00172 -0.800512
3597 1 -3.50667 13.5826 7.11899 1.44484 -1.77098 -1.14574
1094 1 -20.6401 14.443 23.1975 3.03855 5.34577 2.71911
3627 1 -3.9341 18.9172 9.54764 3.89627 -0.33079 4.48184
2475 1 -18.8366 11.6361 11.402 -2.04669 1.26973 2.36219
3654 1 -19.3874 23.3423 13.2037 -0.21178 2.0645 1.9494
3677 1 -7.5553 11.8253 15.6433 4.02897 -1.77348 3.14995
3709 1 -18.6811 16.3435 9.73001 -3.37362 -1.14725 -0.183039
3637 1 -2.18722 11.8639 21.9284 3.08197 1.56046 4.19843
2811 1 -15.0721 13.9535 3.67773 -3.73765 1.97259 -3.0008
3744 1 -18.4881 17.4684 0.930433 1.54332 -3.77938 0.609271
3766 1 -12.5046 21.1048 13.1144 0.931127 1.78064 -3.26592
3771 1 -16.4486 18.0385 19.8516 2.10977 4.22736 7.11196
2591 1 -4.81395 47.1053 13.6969 7.2941 -2.05669 1.68811
3793 1 -16.6664 20.7836 1.56311 -0.520777 -0.502539 0.159863
3672 1 -14.3023 12.173 12.7239 0.535877 0.100299 -1.55923
3846 1 -22.4583 22.7183 19.6117 -0.288641 -3.3043 1.71171
3852 1 -8.33875 19.9225 15.906 1.81201 0.328406 0.282009
3889 1 -16.1816 15.9191 18.3629 3.2828 0.861597 -0.0467745
3892 1 -14.1021 22.7549 6.82635 3.60489 2.81075 -2.13281
413 1 -23.3626 23.7314 3.97486 4.11968 -1.50774 2.84042
3946 1 -4.83893 15.5669 10.8295 -2.88542 0.14544 -4.18464
3955 1 -9.95789 21.1959 11.8068 -1.51667 -3.30987 0.275873
3966 1 -21.6572 20.1995 9.16525 -1.50245 5.85105 1.06789
3970 1 -7.14424 21.3239 22.9537 8.0043 2.44119 1.40094
3976 1 -4.48517 12.8708 4.27369 -0.0103716 3.88751 1.7099
3985 1 -13.9124 19.8259 6.77289 -2.50852 3.24182 -6.05598
3988 1 -23.1188 19.8744 19.8455 -4.21734 1.65728 -1.18952
3999 1 -5.98102 18.3376 11.8441 0.163686 -6.3149 -4.04363
4009 1 -11.1442 25.7302 3.68511 2.20171 0.149471 -0.73402
4010 1 -9.56843 27.5012 2.59158 -0.400386 -1.04259 0.864279
4011 1 -6.79711 27.601 3.48902 -0.666181 -5.02209 -1.57889
4012 1 -5.14475 25.4989 2.23886 -2.05952 0.922279 -1.98549
4017 1 -11.1521 24.8873 10.1029 -0.41199 -2.78921 -1.46617
4018 1 -9.20579 26.9862 10.0837 -6.98264 1.9037 -1.27603
4019 1 -6.33217 27.3606 9.91126 -2.13093 0.918419 -2.69233
4020 1 -4.5485 25.3812 9.24079 -2.7891 -0.751216 -2.02073
4021 1 -11.1583 25.7204 6.4845 -4.57322 0.549623 1.1363
4022 1 -9.26536 27.6332 7.47782 1.17117 -3.5897 1.32539
4023 1 -6.82398 27.6559 6.30587 1.23376 0.0299274 1.00949
4024 1 -5.98431 24.7666 6.75023 -0.142283 1.98285 1.7739
4033 1 -10.1121 29.9585 3.9991 -4.66188 -0.386117 -1.25962
4034 1 -9.26149 32.3611 2.75578 3.86578 0.383649 -0.909419
4035 1 -6.69125 32.3128 3.40138 1.08253 3.517 -7.7572
4036 1 -5.6047 29.8862 2.4747 2.06802 -0.00363427 -2.97587
4041 1 -9.21299 29.8551 11.5486 1.21569 2.11459 -1.7835
4042 1 -8.56309 32.3052 10.3346 -0.0869928 0.583794 -4.205
4043 1 -5.82177 31.9783 10.8035 4.03445 -6.26805 -1.89459
4044 1 -4.78234 29.7653 9.48836 4.85533 0.101243 -3.48033
4045 1 -10.5787 30.0329 6.68431 2.07791 -1.33628 1.90496
4046 1 -9.01743 32.1374 7.48427 0.0495005 3.15819 -3.79795
4047 1 -6.57753 32.2641 6.01278 -3.57823 2.80668 -3.09147
4048 1 -5.23873 29.9918 6.63527 -2.83244 0.70095 5.38681
4057 1 -10.1462 34.5906 4.08013 0.522213 2.63559 0.657646
4058 1 -9.69963 37.1509 2.94714 2.4009 0.0126027 -3.12612
4059 1 -7.21092 36.7852 3.46972 -3.67566 -1.2206 -1.50755
4060 1 -5.82746 34.6765 2.36602 4.05458 -1.28747 -1.12958
4065 1 -10.0582 34.4534 11.4965 -3.0505 -1.96908 2.14047
4066 1 -8.76464 36.4741 10.3266 -5.58588 0.554946 -0.0905269
4067 1 -6.03701 36.6344 10.5659 -1.2834 -2.24751 4.17192
4068 1 -4.78844 34.3049 9.63055 -0.817743 -0.291111 -1.52808
4069 1 -10.4615 34.4142 6.76578 0.500115 -8.38792 3.72979
4070 1 -8.8925 36.4099 7.54869 1.16448 2.14133 -2.24655
4071 1 -6.35585 36.8022 6.21211 0.271604 0.557202 -0.0292765
4072 1 -5.11086 34.43 6.9488 5.07476 -1.75002 2.46665
4081 1 -10.6075 39.2097 4.52064 2.89933 -0.562776 -0.708105
4082 1 -10.0245 41.5858 3.23934 0.779895 1.91984 5.4506
4083 1 -6.87618 41.508 3.43739 2.93372 -4.88415 -0.30871
4084 1 -5.76147 39.0998 2.54645 -2.11186 1.04004 4.88203
4089 1 -10.6426 38.7775 10.1195 3.18454 5.27794 3.10268
4090 1 -8.55545 40.8583 10.2786 5.95552 3.03892 0.762704
4091 1 -5.80441 41.0724 10.9951 -0.76506 3.59488 -0.135658
4092 1 -4.61714 38.8875 9.70918 -0.313899 -2.31837 0.616419
4093 1 -10.211 38.7559 7.34403 -2.42098 -4.76624 1.59181
4094 1 -8.90523 41.2359 7.40772 -0.279388 0.695287 3.92326
4095 1 -6.46782 41.4901 6.21591 2.89344 -3.88936 -0.656092
4096 1 -5.00001 39.188 6.89718 1.02377 -6.38892 -4.50813
4105 1 -10.4196 43.9333 4.65669 -4.70304 -0.127203 -2.29526
4106 1 -9.26488 46.2088 3.40893 3.16759 -1.48705 -3.68401
4107 1 -6.63227 45.9734 3.87992 -1.7826 -0.277382 1.66069
4108 1 -5.18749 43.8423 2.68142 -0.00147964 -2.06279 0.928688
4113 1 -9.77149 43.2274 10.2911 2.06797 7.73425 -1.31298
3582 1 -15.0588 46.854 14.1301 3.42022 6.03237 1.99444
2362 1 -19.8237 11.715 15.5112 -3.92139 -0.697149 -0.0125942
4116 1 -4.33242 43.3213 10.2958 -1.60293 1.48866 -0.507985
4117 1 -10.2135 43.8719 7.37953 3.87196 1.95495 4.54905
4118 1 -8.35976 45.7868 8.17757 -2.70494 2.14679 0.149671
2952 1 -13.2667 23.4327 23.9617 1.54487 -1.31509 1.06518
4120 1 -4.86879 43.2483 7.60184 -1.971 -1.19574 -1.1623
4129 1 -2.54748 26.1546 3.57781 -3.58399 1.77235 -1.41502
4130 1 -1.56877 27.9033 1.56995 5.62206 1.74976 -0.530198
4137 1 -2.04515 25.897 8.17976 2.69941 4.66519 0.533127
4226 1 -1.26349 46.022 2.38945 -0.173392 0.418932 3.23
4141 1 -3.59273 23.8333 5.47201 -4.9327 1.30183 3.13062
997 1 -23.8425 22.3593 22.1037 0.802524 3.85768 0.749392
4153 1 -3.06884 30.0913 2.70267 -2.76388 -2.46258 2.14644
4154 1 -1.74036 32.4488 1.69127 -4.69882 0.255694 -0.930272
4161 1 -2.18356 29.4835 10.5894 -0.0727134 0.0903004 3.3449
3056 1 -24.1052 11.8887 10.5706 0.675362 4.88962 -5.86347
4165 1 -2.78722 30.207 5.3693 1.17119 0.664054 -0.493766
2701 1 -22.5782 25.4196 1.96539 -5.62361 0.00846407 2.49662
4177 1 -2.93957 34.5795 2.91803 4.71572 0.989277 -0.539435
1484 1 -6.505 12.8267 6.50561 -3.54648 -1.01463 0.709467
3028 1 -15.104 12.1278 20.5613 -1.08026 1.67985 3.56561
998 1 -2.16456 12.3559 11.2804 -3.57679 2.75474 0.822068
3831 1 -3.40422 20.6491 0.85121 -9.2049 0.370091 -3.36661
1917 1 -24.4255 23.8667 17.9484 1.3233 2.27896 -0.730852
867 1 -1.53648 13.5009 19.5575 1.47512 -3.57511 -3.36614
2011 1 -0.96722 11.6646 17.213 4.46334 -0.29624 -2.04434
2897 1 -3.88501 13.9239 0.0972089 -3.65631 -1.40594 -1.16207
869 1 -2.05919 19.1917 4.77876 -0.857311 1.94277 1.1638
3337 1 -16.1511 12.2955 10.4814 5.7557 -0.731669 0.292448
2424 1 -22.7436 16.5616 8.02217 2.54614 -0.934899 -4.65316
4190 1 -1.19145 36.3913 6.47588 -3.11239 4.99905 -0.162411
3774 1 -10.7891 11.9175 3.18846 2.63365 -1.95196 -3.69816
1906 1 -20.2948 46.6429 12.4082 1.45028 -2.58859 -4.06079
3307 1 -17.8608 12.2122 21.0182 0.500131 0.544885 -1.32853
4062 1 -9.91889 37.0346 0.288603 -0.118573 -1.89376 -1.745
1878 1 -24.3469 21.9378 0.72098 -1.95811 -2.2374 -1.11745
3928 1 -17.762 15.0168 23.7507 -1.19619 -3.23655 -2.25166
1226 1 -21.456 13.805 0.235195 1.40533 0.538274 0.576177
2871 1 -15.9109 19.5643 23.9311 -0.998612 2.45198 -1.39202
4138 1 -0.652483 26.9474 10.4689 -1.35164 -0.0772373 3.40466
4210 1 -0.631648 41.242 9.77334 3.24381 -0.497915 -0.215811
3454 1 -23.8671 21.0892 10.835 5.38423 4.53273 6.26784
216 1 -17.4935 47.1232 6.47868 5.38852 -0.858515 1.84589
2199 1 -18.0022 11.758 1.66097 -2.03391 3.3026 3.44394
3150 1 -21.2603 11.5156 4.38425 -1.14982 2.40651 2.04078
2117 1 -24.3164 23.0052 6.67501 3.95491 -2.08898 1.60501
3131 1 -11.9098 13.9351 0.147354 -1.65534 6.33564 0.729726
897 1 -11.8749 47.1056 10.2829 2.70914 1.82563 -4.48451
911 1 -0.672513 16.0605 23.1337 -0.339234 -3.52931 -0.475831
3757 1 -0.591533 21.7582 0.303553 -1.76377 1.51354 -4.00148
749 1 -0.695816 16.2242 7.5644 3.14445 -6.0994 -1.99889
3735 1 -7.99416 19.2796 0.346305 -3.14936 0.274581 5.24906
2768 1 -7.74636 21.9822 0.581931 -2.61349 -3.31304 2.33712
1270 1 -24.0562 14.5988 11.7438 0.350729 0.0135967 -0.147166
1063 1 -0.384688 20.7993 9.06758 1.29302 4.75681 -3.6992
337 1 -20.2975 21.8141 0.257902 1.78849 3.30131 -2.99387
1979 1 -1.2199 21.309 11.9807 -2.03422 -1.0056 -6.39837
2284 1 -22.1022 24.108 23.7721 3.12879 -0.60949 3.59546
3160 1 -11.0182 46.1159 23.6414 -2.92376 -1.38961 2.94301
4 1 3.88107 -2.36992 -5.08196 -2.87989 2.45636 -5.25323
12 1 19.8088 -4.8817 -22.9393 0.23007 -1.14441 -0.678035
14 1 8.80828 5.08236 -7.85824 1.96166 1.25843 3.38101
30 1 21.5777 -0.820537 -23.104 1.44549 -3.16039 -2.65114
31 1 6.85002 -15.5252 -18.9242 -0.539232 5.28001 -1.0854
33 1 0.997058 3.80472 -11.7044 1.51206 0.357836 0.442126
3 1 4.95132 -8.29316 -22.014 -1.92413 2.61873 1.52614
41 1 7.29967 -6.30974 -12.7554 2.41838 -0.332578 -0.942024
48 1 6.29238 2.49353 -6.88061 0.524251 -4.74022 0.458025
52 1 13.8519 4.04431 -15.529 1.80707 0.227534 -2.03018
58 1 1.80526 -19.5588 -4.10311 -3.87774 -1.83711 -1.4732
831 1 4.32159 -14.9458 -23.2315 9.51913 -3.17494 2.85154
2204 1 4.74615 0.31183 -0.509143 3.14523 -2.23772 0.559151
2080 1 22.6398 -23.6594 -16.6392 1.70495 0.567486 -3.43022
2337 1 8.84563 9.96899 -0.330811 -5.34154 -0.249112 1.95085
3207 1 -0.188886 -5.66995 -18.5698 -1.01732 0.264544 2.12229
95 1 6.08745 -0.535525 -13.4912 4.93069 -0.472523 -0.621323
99 1 14.728 -21.3646 -6.39581 0.945603 0.674442 -1.96066
101 1 0.767025 -18.7837 -10.2523 4.91072 -8.78978 -1.8585
110 1 11.8819 -10.1455 -10.0291 -1.14619 -0.869525 -1.77288
111 1 19.3634 -2.76892 -12.7731 -7.16206 0.87134 -0.572571
116 1 4.01096 -17.8689 -15.9166 -3.593 0.148137 -0.443348
118 1 2.93659 -18.906 -12.2314 1.35997 -1.82533 2.47564
657 1 3.61957 -2.51063 -13.3103 -0.0196484 -5.02895 2.08542
3192 1 21.6358 10.5518 -0.861481 1.21396 -4.46787 3.04357
131 1 2.55153 -7.81407 -20.8492 -3.46832 2.48728 -1.44872
299 1 5.61292 -23.5842 -11.3259 5.45722 1.21859 -0.523622
153 1 8.98011 -15.4529 -3.44354 4.96879 1.66122 -2.77419
155 1 21.4409 -23.3187 -20.7253 2.19358 -1.92036 1.95985
157 1 12.6132 -14.3981 -13.3926 8.00215 -5.03049 1.95352
161 1 15.8012 3.27072 -13.2826 0.991372 0.802768 -5.12306
184 1 5.73673 -22.3091 -20.7674 2.79686 2.72395 2.95775
2514 1 21.5264 9.5877 -22.1678 2.09795 -2.33383 -4.18868
191 1 1.54275 -3.45933 -21.5398 -1.53656 -6.64689 2.90394
192 1 8.10818 5.64209 -3.46328 -0.586582 -1.13809 2.55004
195 1 6.9516 -0.305798 -6.82456 -3.83542 -1.07576 3.36493
200 1 15.507 8.09589 -14.5377 -2.7513 -1.79177 0.774132
3347 1 23.5235 10.733 -14.1761 -3.74705 2.15297 2.86478
214 1 15.7847 -5.27134 -20.5405 0.82636 -2.02098 6.66498
2948 1 0.197408 -18.5732 -0.207339 -1.739 5.46556 1.60438
225 1 3.54536 -14.3795 -8.43078 4.74817 -2.0528 2.26608
3288 1 0.141775 8.58473 -18.3905 1.51669 0.731852 -1.53305
2927 1 12.4114 7.40586 -0.440273 1.91001 1.09174 1.32327
254 1 8.97106 -11.5485 -10.1017 1.77876 -1.65731 -0.3621
259 1 15.6526 -15.4836 -19.2423 -0.317414 0.634181 0.836721
260 1 12.251 5.18718 -3.4004 -4.40264 -1.94938 -3.27348
265 1 13.8495 -16.5077 -6.05582 -0.257693 -0.0356571 1.00127
3806 1 0.650472 0.675257 -2.92742 -6.01502 1.01372 -0.78357
276 1 22.8879 5.92336 -8.58605 1.85612 -0.708102 1.45202
277 1 13.5997 -13.3261 -19.6635 -2.80819 -2.26521 1.70893
287 1 4.30787 -9.09756 -9.03239 4.55778 1.22089 -0.16485
297 1 20.4285 -8.93102 -8.37296 -2.09975 -1.45362 0.51956
298 1 14.3003 -21.9338 -20.7203 0.794232 -2.27586 1.23506
495 1 -0.389242 -10.1544 -5.2879 -1.23707 -0.407056 2.35973
1306 1 6.04893 -21.0062 -0.570744 4.23459 3.0925 -2.60282
332 1 11.2707 2.01438 -9.11356 2.71702 -1.54835 1.44316
333 1 9.98441 -8.7247 -14.9702 1.98954 -6.93442 0.80051
334 1 4.27689 -22.1389 -2.40613 -3.0784 -2.46158 1.29423
344 1 9.09995 -14.6831 -12.318 -2.86974 3.18804 -1.71799
2536 1 23.2424 -19.8994 -23.0813 -3.28756 -7.34249 -2.56059
369 1 10.7148 5.16845 -13.901 -0.515225 -0.854252 -0.129544
370 1 6.61018 -13.2347 -22.0693 0.685412 -4.42107 -6.17852
378 1 18.3915 -14.4998 -4.12026 -1.76777 -0.0118976 -4.62726
386 1 17.6178 -1.16241 -22.084 -3.42471 -2.30803 -2.03555
401 1 20.3739 -16.6747 -5.15252 -0.0885644 -3.88336 -0.638849
2713 1 23.0489 1.60412 -7.79096 1.43257 0.228661 3.52166
409 1 2.34765 -0.625398 -6.60728 2.21408 1.56744 -0.213321
329 1 0.287734 2.18999 -8.42147 -0.0132793 2.07543 1.90721
424 1 4.37169 -4.23299 -2.8963 -3.96368 3.93816 3.47904
431 1 12.074 -4.99572 -15.8866 2.03286 -1.73677 0.0935988
441 1 16.7878 1.56131 -3.14289 6.02436 -2.69779 3.27788
445 1 18.4081 -10.2761 -9.82825 0.0398753 0.025774 0.475029
446 1 22.2982 -12.9537 -8.06464 -1.72763 -4.45782 -2.77397
449 1 15.3458 -4.41544 -1.48725 -3.59605 -1.20104 -1.77278
853 1 12.3273 10.0973 -14.4966 3.66082 2.11432 -0.388652
459 1 1.89757 5.99968 -13.2252 -2.11765 -1.41545 1.61583
1168 1 12.5938 -8.06601 0.0665171 0.979176 -0.660785 1.70867
461 1 3.37899 3.51874 -22.3971 -2.17083 -0.651198 -0.26051
1607 1 12.1758 -24.4709 -14.253 -2.03884 3.80332 -2.29184
474 1 5.01299 -4.56171 -11.9595 -1.6429 4.87643 -2.43998
3918 1 10.7463 10.9948 -16.9814 -1.90302 0.141884 3.42655
3813 1 15.8943 4.51851 -0.296587 -4.74556 1.14404 4.34472
485 1 20.3675 -23.256 -18.207 3.91803 4.51117 -1.70673
486 1 14.4038 2.34923 -1.60676 0.491867 1.06257 -1.06654
490 1 15.1257 -15.5511 -12.2613 2.21251 -2.65059 -3.44479
493 1 13.3924 -0.0786701 -13.6595 10.1823 0.1027 3.16846
496 1 4.41176 7.83471 -13.2158 1.89932 -0.948501 -1.02477
3504 1 16.3653 -1.85977 -0.836876 4.21706 4.59354 6.52958
503 1 9.06183 0.00496785 -12.9753 -0.413425 1.28343 -2.65398
1378 1 8.16163 -8.18331 -0.674117 -0.399889 2.2594 0.406905
534 1 18.5359 8.93388 -11.5634 0.158791 -1.53801 -3.20265
1695 1 18.0618 -22.5782 -11.2288 1.25329 2.1746 1.29895
2473 1 14.0444 11.0192 -6.20704 -3.486 -4.73872 2.06578
543 1 18.1512 -16.5683 -18.2696 -0.31771 4.75009 6.37364
547 1 15.8756 -15.0839 -21.9929 1.43813 -1.19255 2.85023
3012 1 1.79517 -24.0063 -18.2914 -3.29616 0.587406 2.5122
551 1 11.6381 5.49897 -16.8302 -3.03145 2.46304 1.72604
1040 1 5.15105 -3.98194 -22.403 5.47927 -1.82404 -3.03264
3006 1 22.9671 6.46633 -20.6871 1.31218 -1.01156 -0.599002
1791 1 2.81094 -6.14641 -18.4576 -1.91244 -0.207627 2.3339
562 1 8.07128 7.96407 -19.385 -0.0730366 -2.72557 1.46288
574 1 12.0479 -20.5172 -5.28809 2.16529 0.305568 -1.51103
579 1 1.61984 -21.9451 -9.98936 -0.519009 -1.63308 1.85537
584 1 15.4349 5.97117 -5.12762 0.548652 -0.398015 -3.95314
1154 1 2.08501 9.37215 -22.0192 0.215613 -1.88885 2.07001
606 1 1.22193 -0.205585 -22.8426 1.44911 -3.7761 -1.99826
608 1 2.88678 9.88664 -9.68432 4.02332 -0.83226 3.25774
613 1 11.8947 7.0382 -20.2669 -2.43185 -0.752941 1.72655
620 1 21.9385 -10.7282 -10.3081 -3.28695 -1.45124 -1.46889
506 1 0.140937 -20.4775 -15.947 2.87521 1.91764 7.96266
1215 1 3.26075 11.1212 -7.11845 -1.19316 0.175903 -2.92747
647 1 4.03562 3.98036 -3.55051 0.0878377 -3.77677 -1.76981
648 1 19.2651 -17.8977 -22.2653 -3.5671 1.0432 -2.01805
1049 1 23.2794 -0.0182454 -12.8054 -5.21809 4.13185 0.970862
670 1 0.143612 -15.6233 -1.4367 2.35282 -1.93522 6.11017
2004 1 1.01175 -22.2017 -22.2718 -3.20172 3.61748 -0.582512
684 1 10.1349 -20.9639 -11.3784 -1.8921 1.6715 2.89776
695 1 6.69177 -13.1563 -7.32718 2.3718 -1.9226 -1.95074
698 1 22.2401 -11.0929 -4.05457 -2.82774 3.62256 -1.4181
94 1 22.8908 2.48504 -11.7054 -1.62856 3.4013 -1.1875
708 1 11.3846 -4.82442 -20.0152 -2.4332 -2.17669 1.74612
714 1 20.3286 -5.54043 -9.87126 0.170318 2.72712 0.547209
720 1 3.78847 -3.85339 -19.7934 -1.71221 -0.466311 -4.85343
136 1 0.391353 6.17783 -5.52557 -2.25335 1.39077 0.786623
727 1 9.96205 -3.09116 -14.7565 -2.79102 0.622868 -3.44211
730 1 12.7467 -19.9047 -16.9362 4.64189 3.52503 0.201658
3685 1 6.01732 -4.47155 -0.366842 -2.32886 2.32534 3.24908
744 1 9.06288 -10.8424 -12.973 -3.37862 2.04706 1.50108
750 1 18.7433 -2.95217 -10.0372 4.10605 1.19639 2.01422
755 1 11.706 9.55051 -21.8998 -3.45545 -3.77793 7.10234
775 1 22.6332 -19.3913 -11.1306 -0.0456822 -2.79938 -0.711578
777 1 22.3678 -5.92969 -11.6289 3.59887 1.28709 -0.854002
778 1 2.43984 -16.7661 -17.7934 0.960572 4.12202 -2.03578
779 1 5.7727 4.30535 -9.07678 4.51798 4.08568 -2.01892
782 1 19.2312 -8.5209 -12.9878 2.22788 -0.421418 -2.57002
803 1 18.289 -10.9188 -7.07791 -2.6041 2.31028 3.14561
804 1 7.89373 -19.0843 -11.1749 2.56149 -4.50293 -0.709741
812 1 5.05611 -14.0622 -11.0756 1.47193 -1.3658 -0.73303
824 1 3.08965 -19.8186 -6.79167 -5.62128 1.29605 -1.75573
1186 1 5.33576 -7.16336 -0.937499 -1.55973 -2.04738 -1.71662
835 1 2.14152 7.03742 -20.2493 -1.74891 0.631804 -0.555913
844 1 16.8121 -21.5323 -19.2892 0.653335 -0.152375 -0.446796
845 1 18.7157 9.82668 -2.83241 2.70072 -1.92428 -4.13248
1012 1 0.108984 2.28222 -0.25333 1.34198 6.68846 -2.31107
849 1 20.9318 -14.6415 -11.3924 -0.840674 0.581819 4.17977
2964 1 0.737204 -20.0928 -20.473 -0.0649394 -2.02017 -0.0257522
3926 1 9.07116 -4.71574 -24.1313 0.197409 -4.37917 -4.06501
898 1 16.7014 1.0775 -23.8237 -3.05672 -7.5366 -5.1098
860 1 14.9079 -4.99512 -16.6516 3.45055 -1.06862 -0.774747
871 1 5.83183 10.5827 -16.5675 6.17711 2.66008 -1.05758
876 1 11.7304 -15.6792 -8.83656 0.311031 3.4995 -0.914092
879 1 15.5953 7.74836 -21.2232 0.587399 1.43796 2.02862
884 1 19.5668 -20.764 -17.0805 -4.47968 -5.12703 -0.194788
892 1 4.30787 -11.728 -7.92142 -5.50837 -0.515535 -0.359332
2469 1 12.4068 -22.9498 -22.5987 1.63915 -5.58036 -0.160234
915 1 17.4829 -4.73918 -13.5732 -0.756742 2.66903 -4.83252
2569 1 18.3115 -18.2589 -13.0991 0.108197 3.58227 3.69662
921 1 8.76621 -9.26557 -19.806 -0.646669 2.90744 4.28486
931 1 18.2832 1.09976 -7.31562 3.37741 0.148971 -1.06284
2604 1 13.0711 -12.9147 -0.522647 1.02121 -0.279213 1.53786
940 1 21.0022 1.74786 -9.82756 1.30557 1.73648 0.82099
952 1 11.3527 -13.5913 -10.617 4.40171 -2.76083 0.968601
954 1 15.6535 9.70962 -8.16174 -0.956294 0.889013 -4.06084
964 1 11.6693 -15.0024 -20.7997 2.19685 1.74231 0.791768
967 1 17.0469 -1.49843 -16.0995 4.71788 -1.78161 -1.72972
981 1 7.72154 -0.923896 -3.95003 -1.27442 -1.52595 -2.27157
989 1 8.4469 2.37074 -8.81355 5.62044 -3.60374 -0.635131
1772 1 11.4193 -21.9714 -0.249828 -1.45837 -4.1146 -0.792746
3648 1 22.9568 -21.3435 -2.07565 -1.1366 3.4635 -10.887
3587 1 22.0357 -16.1052 -16.0728 -2.94973 -0.303276 0.754225
1689 1 3.34283 -24.2932 -0.668636 -0.571253 -1.24081 2.18505
1021 1 20.0325 -18.8802 -2.83008 0.468856 0.331349 0.88288
1025 1 6.50742 5.51696 -19.563 3.72694 4.00992 -0.268245
2975 1 16.7321 10.0983 -0.720489 1.55643 -2.53985 -0.21431
850 1 17.243 -20.8089 -23.6116 -0.269354 -3.13376 2.10038
767 1 2.49758 -12.4283 -1.14455 -1.16227 -3.7881 4.3067
1053 1 5.02124 8.14778 -19.2238 1.71598 -1.56348 1.19165
1058 1 1.84766 -2.69528 -10.8368 0.906331 -0.460907 -1.74495
550 1 1.1345 -22.6024 -13.9862 -0.995819 9.15889 3.28973
1061 1 7.84962 9.85471 -14.1356 -0.941688 -0.770564 -1.86783
1066 1 13.4249 -4.8418 -22.2233 0.155813 2.51747 -3.81892
1072 1 13.9818 8.73661 -19.0115 -2.4603 0.762594 -0.979154
2840 1 5.09796 -18.8962 -24.0058 -0.962138 -1.35581 0.427902
2302 1 15.0432 11.0651 -15.0994 -1.14619 1.27047 -1.82675
1077 1 16.218 -8.81274 -6.19127 0.393208 -0.643422 3.24764
1087 1 10.5238 -0.37022 -20.8114 0.616194 -0.883292 0.59178
1229 1 18.6438 -15.5075 -1.12628 -4.67321 -1.36012 2.44161
1118 1 21.1422 0.562317 -14.5269 1.58911 -1.62987 1.10171
1121 1 11.8204 -1.93624 -19.0262 3.58628 4.87308 -0.0775058
1123 1 16.327 -4.25826 -5.80362 -0.756435 -4.10703 0.955367
1131 1 21.0563 -6.71441 -4.41676 -0.382448 1.80714 1.92587
1140 1 15.0863 -7.27961 -18.7588 2.20174 2.24426 2.74054
1143 1 3.15704 -6.26774 -15.6494 0.0581957 6.46051 6.20311
1144 1 13.6885 5.11325 -12.9033 0.649911 -2.13843 -2.82868
77 1 12.8275 -22.0579 -2.74977 -4.71734 -0.32035 -1.50319
1157 1 2.8304 3.66173 -8.42366 2.10687 -1.54941 2.24648
100 1 23.4062 -14.9303 -23.6908 7.21691 -4.97275 -3.66832
852 1 10.7774 -3.94671 -1.30163 0.790566 -1.44883 -0.685559
1177 1 11.4905 2.97193 -18.2494 1.89393 -4.13898 3.79788
1179 1 10.7853 -6.24992 -11.2062 4.74018 -2.85948 -3.20673
1183 1 5.50085 -4.47695 -15.7079 1.05065 1.25853 0.668822
1190 1 14.6563 -2.19553 -21.9573 -0.311234 2.48768 -5.4776
1195 1 14.3813 -13.1886 -15.5049 0.884172 0.905344 1.80941
1206 1 21.2886 -20.7738 -21.1707 -2.51049 -1.96309 4.67119
1207 1 15.787 -0.252993 -18.295 1.70612 -0.0797589 1.35611
1212 1 19.4411 6.1966 -11.2559 1.50394 1.8064 -1.48214
1214 1 11.5203 1.16783 -1.76045 2.4385 -0.00450698 2.54237
8 1 22.8643 -11.6088 -15.2955 3.82565 -0.712778 1.42372
1216 1 18.0927 -7.33282 -10.6287 -3.23368 -0.315367 -1.10777
1218 1 16.2472 -1.26728 -9.14678 -4.63452 3.31116 3.78396
3879 1 18.3601 -15.0894 -23.5861 0.227013 2.14115 -1.23027
1238 1 6.98282 0.853005 -11.1873 0.788192 0.447785 3.95272
1242 1 9.12318 -20.9987 -15.0432 -1.20023 1.02916 1.01104
1256 1 4.43149 -20.8825 -16.6875 -0.765394 0.214951 -1.11785
1260 1 4.54617 -6.90051 -13.2734 -0.0943384 1.19427 0.492995
1261 1 15.7994 -11.1945 -9.80679 3.10202 -1.28914 -0.541302
1262 1 10.5941 -14.1083 -5.65557 3.0545 -0.454189 -1.94267
1278 1 15.57 -7.63438 -22.718 5.25875 0.931516 -3.27882
1280 1 1.42287 -3.81614 -5.22304 -1.37391 -2.49679 0.603069
1282 1 9.62494 -21.9798 -2.69731 4.74543 0.662432 2.35842
1283 1 3.61727 -22.2959 -7.9849 -2.19882 1.42518 -4.31697
1288 1 5.61053 0.213849 -16.4413 3.29819 -2.6198 1.5687
683 1 1.33036 11.0925 -19.7878 0.32313 -4.16047 -3.40864
1294 1 13.2475 -11.0778 -6.22858 1.77546 -2.28839 -2.00688
398 1 23.5093 -22.8581 -7.3425 7.22014 -2.7592 -4.60182
1298 1 3.73864 -7.00444 -3.5872 1.91338 4.90705 -0.327559
1300 1 2.97087 -0.644349 -2.56788 -0.159579 -0.168555 4.96711
1304 1 3.58448 2.1007 -5.8337 -0.949595 0.494284 5.27983
484 1 22.8557 -14.1612 -13.7772 0.0387309 -0.108375 -3.00304
1316 1 18.7946 -6.64551 -15.3304 1.81863 -1.4684 5.99989
1320 1 19.9023 -6.26417 -7.24779 3.1892 6.24777 -4.7459
1321 1 10.9262 -22.1207 -7.41824 1.33738 -2.49482 -2.01519
1322 1 1.08129 -13.2153 -8.30798 1.08328 -0.605678 -2.04931
3802 1 5.83808 0.186974 -23.7715 -4.37182 1.70404 -0.710638
1334 1 15.1715 -8.46806 -10.9635 -1.52933 -0.0420136 3.74156
1338 1 1.85896 4.31065 -1.64969 -0.0626324 -0.892907 0.00188095
1453 1 0.1207 -20.249 -7.63828 -5.03364 -5.46916 -2.21679
1346 1 16.1416 0.686858 -14.2084 -5.20447 -5.76157 -0.0916687
1970 1 22.6962 -6.68 -0.107978 3.4192 1.38737 4.38833
1364 1 13.7255 -11.9853 -11.6637 1.58047 -0.899035 1.89762
1365 1 7.63414 -5.50172 -21.5178 -5.26381 -0.699994 0.471163
2516 1 4.24759 10.8339 -18.8347 4.29633 -2.10332 -3.72905
3934 1 23.1858 4.33048 -14.0461 -0.902406 -0.40732 -2.0938
3481 1 3.76718 -22.786 -22.7732 -2.12063 -0.0514669 -0.0770377
1727 1 23.4428 -1.03376 -21.0873 -0.624054 -0.468999 1.80255
3053 1 20.5655 -20.9516 -0.819748 -0.700911 3.3772 -4.30212
3424 1 0.720983 -10.1953 -0.258514 1.92989 -1.61002 0.657683
1329 1 22.5107 -13.3508 -1.61153 1.6156 1.16772 -2.5757
672 1 22.1509 7.62891 -11.0691 -6.2693 -3.41224 -3.06491
1427 1 19.1175 -12.5355 -1.80879 -0.152417 -4.51305 2.14901
1446 1 2.69092 -8.27437 -11.4825 -1.07323 1.64738 -0.542676
1447 1 22.1083 -3.25274 -19.0859 1.13034 4.3647 1.76216
1454 1 9.00853 -10.9148 -2.01761 0.729718 2.52833 6.19806
2325 1 13.5503 -24.0553 -16.6151 -0.527212 -3.46376 1.65834
1473 1 13.8193 -20.096 -14.2445 -0.950279 -0.827183 -2.53486
917 1 22.9342 3.27104 -22.2385 -0.350074 6.49518 5.27669
1483 1 9.90378 -22.6592 -18.9541 -1.04247 -8.18643 -5.8013
1491 1 13.3693 9.3077 -3.6702 -2.2248 -7.17245 2.31417
1497 1 12.533 -8.54257 -19.513 -2.68177 2.79776 4.42584
471 1 23.2928 -8.842 -12.3225 3.17704 1.60511 0.432572
1508 1 19.4675 -11.0158 -4.17412 3.88915 0.415679 2.0235
1015 1 1.00779 4.64576 -23.3311 1.50504 3.64444 -0.881658
1520 1 10.5573 2.53409 -13.0113 1.32064 -6.11934 1.7637
1527 1 2.03477 1.19333 -10.8239 -0.304351 -1.35235 -0.0513439
1532 1 17.8713 -4.39387 -16.684 3.87482 -4.78718 -4.05634
1539 1 1.8261 7.51767 -16.0429 -1.78035 -2.89243 -1.05486
1541 1 7.00055 -20.0532 -8.549 1.44376 4.62727 4.87924
1547 1 12.1569 -1.73351 -2.57467 -0.061222 -2.20423 -2.94719
996 1 20.388 10.4086 -17.4144 0.366225 3.64426 -4.46767
3322 1 13.4664 -10.5302 -23.4855 -2.14969 2.69462 -3.76838
1551 1 9.88023 -0.0318187 -7.30829 0.308378 -0.306372 -1.97432
1552 1 18.3011 8.78714 -18.0856 -1.23765 2.87456 -2.40091
1556 1 19.9984 -17.1216 -7.89675 -2.07855 3.20889 6.52911
1557 1 8.35924 -23.0876 -16.7501 2.48098 0.0235187 1.94868
1605 1 1.20229 -0.556758 -13.1472 1.18748 -1.72489 5.43291
677 1 21.6086 -7.03851 -14.1811 -1.72609 -2.00893 -2.2203
1567 1 0.803863 -9.87088 -20.1434 -4.65406 1.35974 2.24544
1578 1 16.3431 2.54383 -10.6756 -2.88181 -0.318067 -0.0981827
1583 1 10.4215 -1.64928 -4.80031 -5.90019 -1.04476 -0.599186
1587 1 20.4034 -2.53529 -7.68574 -0.963283 3.53423 3.38251
1590 1 19.9592 8.71969 -13.9757 -0.73305 3.19499 -0.893997
1594 1 10.1291 6.41601 -1.6931 2.11818 -2.8733 5.79035
1600 1 15.5762 -16.1035 -14.8896 -2.10503 -3.88182 -6.03273
1603 1 6.80182 -9.08672 -12.6983 -2.26063 -4.42071 0.475136
1604 1 20.3852 -14.7026 -18.0401 3.1608 3.20494 -0.0170043
3808 1 9.40819 -13.6872 -22.0686 3.7219 0.301071 -1.83259
3303 1 22.3528 -22.7051 -14.0832 2.54274 -0.704178 3.30661
1616 1 15.4789 -10.9929 -17.0692 5.88994 1.76932 2.27302
1620 1 14.18 -9.14759 -8.34679 1.02962 -2.82748 -1.20261
3937 1 14.7088 -18.0477 -18.595 -1.87166 1.24648 2.43567
1635 1 6.13579 -16.8735 -10.3891 -1.64529 -1.56843 0.568165
1638 1 14.5859 -3.15766 -19.0807 -3.11309 1.8016 2.82339
1650 1 12.4533 -3.62496 -11.0201 -4.29207 -2.70235 1.32027
1611 1 6.69704 9.68938 -2.56856 -3.4491 -2.92926 2.82161
1652 1 13.4763 5.0138 -19.0492 1.3746 0.967078 0.891297
1657 1 15.7764 10.0134 -11.2261 -0.138522 0.826074 1.8225
1660 1 2.39371 -13.0182 -22.1856 -1.31508 3.82701 -1.12246
1664 1 4.59635 -9.55761 -14.4559 7.68582 0.979021 -1.70042
1666 1 18.2909 -4.15029 -19.4836 -2.04821 1.0218 -1.32019
1669 1 14.9963 -21.7876 -12.2332 0.295851 4.17298 -1.71657
1674 1 6.09843 -3.14949 -6.64622 -0.018927 1.74975 4.12883
1687 1 18.4939 -15.5268 -9.83131 3.43676 -6.65377 0.879813
595 1 7.74231 -17.6173 -23.4639 0.0343655 -3.00524 -3.31269
3635 1 -0.113885 -15.8591 -20.3659 2.16007 -2.07271 2.05472
1700 1 14.8103 -1.72818 -11.6843 2.93029 -2.40127 5.66329
1703 1 6.17092 6.23064 -11.4974 3.22635 -2.43051 2.50709
1706 1 8.10382 10.7406 -19.9155 -1.7642 -1.67174 0.948057
1714 1 4.41485 1.60427 -12.5183 -1.6115 -2.28526 -4.72477
3921 1 17.9296 7.1492 -15.5875 -0.914023 1.60734 0.14438
1717 1 10.3151 -16.1098 -1.0731 1.89833 0.46597 0.644261
1718 1 7.7564 -21.8342 -12.6126 3.75849 -2.82161 0.96008
1976 1 18.8199 -8.85896 -22.9851 1.73437 8.13053 -2.36382
1731 1 21.575 4.10096 -4.16252 0.0819623 2.50319 4.42336
2852 1 1.091 -5.85703 -0.642134 -4.15905 2.87869 4.70437
1747 1 4.86589 -18.1015 -7.92557 1.39035 4.43574 6.98274
1748 1 18.2913 -0.312492 -4.64078 -1.86521 -4.52126 3.36005
451 1 22.7929 -13.1482 -17.6102 -3.8273 3.40031 4.50389
1757 1 15.7499 -12.6795 -7.16251 -3.08552 -0.754106 0.188307
1761 1 21.9257 -18.7659 -19.3738 -0.128 -4.05226 -5.75872
1765 1 4.24306 -15.5905 -3.80876 0.252593 -9.64379 -0.704481
1779 1 5.25442 6.1088 -2.13968 -2.07789 -3.7605 -2.70453
1780 1 6.33803 7.69698 -4.48146 2.50847 -2.71964 -1.26154
1783 1 18.5317 8.27551 -7.16182 3.09513 -5.05135 -1.38326
229 1 11.6435 10.617 -10.4882 -0.920914 -2.54948 -2.03335
1790 1 7.74267 3.66798 -11.3408 0.664695 -0.743896 -0.376818
2132 1 11.7143 -20.2639 -23.2011 -0.265213 -7.18875 -2.40092
124 1 23.393 -20.1896 -15.1159 -2.2619 -2.09698 1.01282
1794 1 17.5737 5.77542 -20.5408 1.44526 -4.73914 0.405926
1795 1 13.9304 0.673452 -9.90782 -2.20228 -4.73445 -1.97784
1798 1 18.6407 -6.60035 -20.8578 0.621842 -0.593889 1.28633
1805 1 10.5111 4.17732 -5.72053 1.73634 3.14714 -2.64612
3301 1 23.1397 9.25428 -8.22478 -1.39652 -2.20481 0.00456307
1814 1 12.0473 4.15362 -10.7543 -5.66351 -4.2233 3.81081
1822 1 17.2625 -5.51653 -3.28943 2.11988 -1.95245 -0.431099
1825 1 8.542 -11.0091 -7.51007 1.24761 -0.0569103 1.52335
1827 1 15.5534 -22.0068 -3.58918 3.8174 -1.04289 0.754027
1831 1 12.0478 -16.0292 -3.78443 2.3169 1.7678 0.728519
1834 1 6.50426 -7.40799 -19.5481 1.11821 0.595469 -2.38807
1841 1 6.32649 -22.8623 -8.58254 -3.80104 3.35574 3.54962
1843 1 6.3277 -2.08771 -20.441 2.65195 -0.273882 -1.91391
1848 1 7.32946 6.77614 -15.331 0.775262 -1.09757 -1.74511
3830 1 16.1104 -11.8022 -13.6843 -2.97922 -2.16929 -1.26463
1850 1 16.4194 -19.8873 -7.98825 2.77548 -1.56347 -4.42138
2406 1 22.4778 10.5926 -11.5937 0.757997 1.7699 -6.45317
1856 1 9.0179 -3.09313 -20.9072 2.18815 1.67571 10.5661
1858 1 1.93417 -16.9792 -14.2157 -4.0875 -6.7664 -3.86226
1859 1 8.62262 -15.2935 -15.8584 0.425115 4.59532 -1.03729
1867 1 5.65731 -9.04318 -4.47402 2.44428 0.0319408 2.07222
560 1 22.696 -21.06 -4.93867 0.682317 -4.2033 3.89855
3904 1 11.9036 -6.8535 -8.61098 -0.838985 2.63168 0.310128
1902 1 20.9304 3.03966 -20.2309 0.857895 0.421771 -1.28363
1129 1 -0.176508 -10.2628 -22.9871 -2.92162 -2.39464 -2.19632
1911 1 22.3437 -0.898468 -8.99089 0.269137 -1.38684 -1.76136
1915 1 19.6929 -21.6945 -14.4493 6.49887 -2.2329 3.36022
1923 1 11.2362 0.234147 -11.4361 -3.08814 -1.55504 5.8422
3917 1 3.26425 -4.94258 -9.80872 -1.65384 2.36792 1.93094
1926 1 13.0118 -1.91041 -6.03488 -2.37392 -0.723245 -2.7197
1934 1 1.89106 -11.0227 -3.4943 -1.70424 -2.06058 1.72537
1946 1 9.37401 9.29268 -7.40557 0.83943 2.49969 -0.78463
1948 1 12.1909 1.83345 -15.4105 -2.88328 1.31199 0.908343
1952 1 6.54697 -15.2265 -13.7151 -2.4659 -1.70429 1.58224
1953 1 15.7511 -19.2846 -2.77944 1.32555 -4.83765 -1.01436
1875 1 21.6616 -4.16133 -13.6556 2.31035 -4.10191 -0.0337422
1961 1 15.9736 -13.0451 -4.20359 -0.89218 -5.36851 0.330635
405 1 3.27264 -23.4917 -5.13142 3.53051 -0.332367 4.27443
1647 1 15.8606 10.622 -17.9073 1.48932 1.06362 0.856388
1975 1 10.3654 -16.2907 -17.7801 -2.73117 -2.75242 -1.26393
3674 1 0.00025823 -2.64482 -7.50987 0.161766 4.49439 3.18843
1983 1 19.3494 -4.28386 -5.11836 0.427941 4.18988 1.67264
81 1 2.24643 -9.06336 -16.2224 1.75858 1.77109 3.48777
1990 1 19.9435 -13.019 -6.39816 3.85514 0.300264 -1.88009
2000 1 4.47117 5.96306 -21.3428 2.91998 -1.75095 -0.815368
2003 1 13.4217 -4.02436 -8.2207 -0.0197894 0.929657 -2.38173
2110 1 1.12374 9.9814 -0.489317 -1.0525 -0.248935 1.57176
2006 1 10.9584 -9.2311 -7.20618 -2.16964 4.87309 2.89532
2020 1 10.3903 -13.1729 -14.6397 1.95678 1.93785 -3.87371
3798 1 5.954 2.32476 -2.04713 -3.28143 -0.753308 -1.58813
2029 1 16.1106 -8.00989 -2.65801 -5.67838 -2.8115 0.651028
2030 1 9.49232 -19.1259 -21.5252 1.34401 -0.104192 -0.167586
2190 1 0.654119 5.47748 -9.58867 3.99052 -3.61362 2.80114
2045 1 8.1378 -18.1824 -14.9932 0.439676 5.91817 0.380669
3809 1 4.60585 -24.05 -18.9017 2.75591 2.90489 5.9195
2365 1 22.6292 -9.10373 -1.70365 -1.95743 1.94036 2.72186
3951 1 5.98318 4.68498 -13.8289 -0.692408 1.34636 -1.9929
2035 1 12.7853 -15.1542 -23.3686 -1.64386 -2.38594 0.71557
557 1 9.29014 -22.9531 -9.48911 -3.70046 0.403772 -2.31511
2079 1 10.0475 -12.0856 -17.3252 -1.47913 -5.24941 4.02921
2083 1 20.3686 9.27211 -9.07431 -3.19202 -2.52086 2.10111
2102 1 6.2207 6.62926 -7.16431 2.75181 -1.69499 2.10472
2103 1 9.62311 -17.3748 -12.5874 -2.47424 1.78478 -0.0125052
2105 1 11.4301 8.40932 -12.6238 0.450079 3.66023 5.03675
2115 1 16.9515 -13.4412 -11.1623 4.04505 0.905593 2.60852
2122 1 14.3043 7.18864 -9.17454 -2.13628 0.179625 0.391577
2123 1 21.3696 -7.44004 -19.7678 1.5076 -2.75567 -0.987792
2124 1 21.3568 0.373059 -19.121 -0.397757 2.63153 0.975388
2126 1 12.6372 -6.00304 -4.48184 -5.72608 0.293565 5.98817
92 1 16.7854 -23.2116 -1.45716 2.3484 -0.522209 0.0309614
2131 1 19.8989 -4.52202 -1.74699 1.31644 1.82525 1.60274
3833 1 18.4667 0.687368 -10.1854 -0.0117139 -0.28833 1.79911
2143 1 19.5341 5.04268 -16.8656 -0.28683 -3.13964 1.65
2149 1 20.7342 -1.70021 -4.99397 -2.50946 -1.52495 4.75582
2151 1 8.85101 7.34649 -12.7246 1.90238 -1.22845 -2.20076
3990 1 11.1576 4.60489 -22.8497 -5.21415 -6.93123 1.18168
2162 1 21.4392 8.9243 -6.01645 -1.12049 1.26742 1.75478
2164 1 16.9227 3.35884 -5.64161 0.62033 -1.50923 -2.17092
2169 1 9.93571 -6.95167 -21.4406 -2.32124 4.49511 1.44585
2173 1 20.5605 3.4012 -14.8381 2.1846 -0.938572 2.50197
2174 1 2.38689 9.16961 -2.91573 -7.04462 -1.3433 -3.87781
2178 1 17.8173 -14.9198 -7.04828 0.0835618 0.576877 0.0732524
2180 1 12.5673 -8.21539 -12.322 3.46401 0.465733 -0.00602189
2186 1 4.05339 -8.81092 -18.5392 -1.23859 1.03301 3.25424
2193 1 18.368 -14.9375 -15.6611 0.161737 -1.03179 1.26755
2201 1 12.341 -11.007 -20.7092 1.06663 -2.06463 0.950937
2202 1 17.2748 -19.1337 -17.5418 -0.952263 1.99593 1.79135
2203 1 6.83034 -1.96863 -1.325 -2.27177 -3.93482 0.693796
353 1 16.1277 -24.2938 -16.4226 2.11342 -0.85203 -2.37783
2210 1 20.6932 -17.4416 -0.33062 0.53317 2.30987 2.37246
1962 1 0.729244 -12.9139 -5.33438 1.60732 3.21458 -1.78654
2216 1 3.4676 4.10301 -14.8787 1.5631 3.94417 4.36257
2225 1 2.16146 -17.8216 -20.3963 3.8234 -2.81051 -2.12362
2227 1 7.82868 3.13352 -4.59884 -2.37462 -2.75249 -3.61107
1126 1 1.24169 -11.857 -15.3031 -3.04142 -2.70836 6.11791
2248 1 0.077382 -8.22057 -14.0596 -0.611322 -2.87499 -0.881652
2253 1 7.19359 -19.0972 -4.10703 4.10396 0.807003 0.597662
2255 1 3.27307 0.932488 -18.0816 -7.43804 0.0757381 -2.40258
2261 1 16.1361 -4.03565 -9.25325 -1.82737 -4.36239 8.98029
2262 1 19.3865 -23.2355 -2.4288 -0.694189 -0.466662 1.51596
2263 1 1.61382 -14.9203 -3.77452 3.31367 -2.58398 -4.03338
2268 1 13.5359 0.868774 -5.03473 2.07517 -0.294119 -0.378992
2269 1 17.6141 9.66693 -20.886 -5.03125 2.36266 -2.87071
3248 1 8.50443 1.20408 -2.37081 -4.43041 4.08781 2.64276
2280 1 11.5899 -10.5005 -1.21071 2.03776 0.281432 -3.57838
1728 1 23.4257 -5.47661 -20.167 -2.41858 1.55646 -1.91174
2297 1 9.40198 6.77936 -21.8574 0.999786 -3.15013 2.23867
2299 1 8.86708 -12.0099 -4.71278 0.299899 3.6127 -1.98249
3031 1 23.2746 -9.5613 -20.215 0.844793 5.37437 -3.99742
2308 1 5.79574 2.60211 -18.6753 5.10122 -5.40626 5.14107
3333 1 6.07232 -6.45292 -23.7337 1.83739 -1.24135 -0.181887
2320 1 22.1534 4.88492 -18.2634 0.0980474 -1.03972 0.605835
2323 1 7.21855 -3.60763 -4.03994 -2.44978 3.91226 -3.34562
2324 1 5.55421 -20.6018 -14.001 -2.07213 -2.08047 2.27456
3443 1 23.3343 4.05848 -1.8012 -0.278582 2.71439 -0.321396
2326 1 20.0069 -10.8904 -14.4119 -3.00439 2.01189 3.18366
2327 1 13.0378 0.289231 -17.6506 -2.51536 -1.11205 5.73091
2333 1 11.509 -21.7076 -13.7598 0.661272 -4.35719 -2.02209
2336 1 15.8656 -11.5684 -19.7805 -2.65741 -2.89378 6.74189
1558 1 7.41554 -16.9575 -0.448899 4.24713 0.438609 -0.213508
2339 1 7.36735 10.2662 -5.34865 0.453992 4.11405 1.10471
2341 1 5.9227 -20.0112 -19.148 2.47511 -1.45684 0.480813
2350 1 11.6177 8.02131 -9.22765 0.868548 -5.14671 0.599365
2919 1 21.9709 -14.2455 -4.62939 2.58919 2.39389 -2.55901
2354 1 18.5839 -20.3842 -21.3183 1.09852 -2.68579 1.32203
2356 1 14.3049 -23.2882 -9.89476 -0.935631 -0.461149 1.45052
2358 1 4.0803 -11.7747 -12.7424 -1.39742 2.54859 -2.23198
2363 1 16.7147 -10.9718 -1.53507 -3.31858 2.93288 -1.21615
3066 1 21.7439 -0.601994 -0.605836 3.31243 -7.64931 6.1311
2900 1 16.9486 3.65493 -22.4238 3.04916 1.51227 0.667116
2381 1 13.2428 -8.05115 -2.86948 -0.0103468 -3.78065 -0.437741
1389 1 22.1282 -2.67422 -2.4461 4.08664 2.0668 -3.27413
3900 1 12.411 -17.4446 -13.5232 -4.60706 -7.9822 2.33897
2410 1 7.52367 -23.1906 -22.7411 0.382732 -5.0649 -0.120685
2414 1 14.4467 -6.4726 -6.90087 1.48319 -0.752821 1.11326
2418 1 14.3046 3.51367 -4.41089 1.80194 1.78507 3.12183
1182 1 17.0409 6.88739 -1.51181 -2.10595 1.32352 3.84159
2440 1 7.00845 -3.23222 -13.7601 1.32887 -3.04876 -6.01161
625 1 0.656906 -7.99594 -7.20079 -2.34262 -1.4799 -3.11928
2448 1 2.62251 -14.7307 -12.2923 -1.34407 -0.995009 -1.23087
3112 1 0.308419 -12.926 -20.0953 0.133995 -1.72713 -0.433849
2466 1 1.14832 3.24135 -4.56706 2.41792 -3.22095 -1.83183
3967 1 2.50876 -6.40893 -5.84893 3.55867 -6.73351 -3.26407
2470 1 12.4674 -20.8716 -9.52802 -0.189276 3.61171 1.40475
460 1 5.96976 9.50574 -23.2785 8.13928 -1.56198 3.46714
2477 1 11.0103 9.16796 -2.22934 0.287362 4.06258 6.33716
2482 1 8.27183 -5.4357 -1.99023 -0.78489 4.68097 2.53699
2484 1 3.03661 -16.8193 -10.0984 -3.09779 3.95055 -1.19214
2491 1 11.4501 -24.3976 -3.65335 4.56572 0.4916 -2.4824
2495 1 12.8757 -13.8098 -7.0905 3.82245 4.01824 0.371678
3872 1 21.1799 -24.2587 -8.67076 -0.499471 0.613572 -2.72762
2507 1 9.97983 -1.44614 -16.8802 -0.831198 -1.56736 0.357927
1894 1 0.352543 -17.1528 -4.98718 -1.84238 2.23934 0.0945045
2530 1 5.03961 -13.1622 -14.9506 -3.30476 -1.09374 -1.26321
3997 1 20.5188 -21.7405 -9.66854 -4.45241 4.61945 -0.221972
2548 1 17.3096 -6.27087 -7.86064 -2.94362 -0.227744 -4.07296
2557 1 17.0569 -22.7994 -13.9683 0.0518901 -1.56546 -2.63834
2563 1 20.1743 -2.41403 -21.2447 2.2743 1.60505 -4.58539
2568 1 18.9671 -9.18552 -18.5824 0.535731 1.38957 3.74112
2420 1 0.989681 -6.58951 -9.48772 -6.82026 -1.16319 3.11909
2573 1 18.0456 -22.6509 -4.7945 -0.432724 -2.47203 -3.81299
2588 1 15.9202 2.22898 -16.794 -4.36528 -5.17346 -0.21783
2590 1 12.8887 2.94545 -6.90148 3.80784 3.8898 6.66721
2598 1 20.6782 1.2658 -3.9665 1.25283 1.80452 -2.12527
2814 1 23.3862 -5.33385 -4.26129 -3.31829 -2.75797 -5.0496
1548 1 17.0892 -22.6515 -8.68437 0.313891 -3.70547 2.60542
2608 1 13.3741 -19.3698 -21.0724 1.65651 -1.16875 -3.43204
2610 1 1.31341 5.29015 -18.0186 -1.29206 4.77612 -5.23166
3960 1 19.7334 -12.0928 -11.4763 5.26378 4.122 5.50521
2628 1 12.6315 -7.82173 -22.3111 -2.77449 -0.287693 -0.87905
2632 1 18.8942 -0.857026 -19.2408 -1.7666 -2.29092 -2.49804
2637 1 12.0775 -13.9892 -17.0598 -2.54176 2.26951 2.36302
2638 1 13.7345 7.98002 -6.43442 6.26858 2.3156 -0.170685
1477 1 19.0634 -0.703226 -0.546364 -2.93576 1.14714 2.52373
2644 1 19.9203 -20.1142 -11.9818 -1.50516 0.934593 1.04669
2654 1 20.1727 -7.45813 -1.52523 -0.316824 -3.51484 -0.826427
1852 1 0.282133 0.0498625 -19.865 -1.42602 1.17026 1.41227
2675 1 17.2357 4.49282 -8.60704 -2.82628 -0.686243 0.158926
2678 1 3.30799 -21.7899 -12.2778 3.97294 0.736971 1.2096
2680 1 8.95198 -4.37723 -7.47916 -2.59106 1.5047 1.73579
2686 1 5.60502 -23.4872 -16.2689 -0.0399058 3.85461 2.57848
2687 1 20.0946 -16.3716 -13.9563 -4.59356 0.82708 0.182274
2692 1 3.91462 4.35367 -11.282 -2.05235 -0.818385 1.87811
2697 1 5.17473 0.211385 -4.16685 2.05807 2.14279 -2.79056
2703 1 15.9598 -5.79252 -11.5275 -4.37233 -4.23601 1.47631
218 1 11.7573 3.89842 -0.854382 1.06695 3.43358 -0.443563
2039 1 9.85214 -23.9432 -21.4947 -4.60322 1.60398 4.26774
2743 1 1.31705 -17.3523 -7.77376 0.491551 1.01176 0.323504
2746 1 6.00408 -13.2052 -4.13014 -1.15392 3.72624 -0.97346
2765 1 6.38108 -17.7666 -17.1517 -0.0617251 0.691997 -3.01853
2774 1 22.5804 1.95933 -17.0832 1.89113 -1.90586 -1.36246
2776 1 10.9313 7.08405 -6.5749 -3.5575 -0.349938 2.12432
2783 1 13.2759 -9.41627 -15.9329 2.27667 4.70194 -0.920492
2785 1 19.9357 -1.07473 -16.5041 -2.10903 -1.75363 1.22576
2789 1 10.3107 -6.64961 -6.10813 2.30465 0.434192 7.40412
3264 1 8.93615 9.12105 -23.2427 -1.05107 3.0695 1.28057
2803 1 20.9363 -3.79456 -16.3392 0.94402 0.702568 -3.91793
1985 1 0.496835 -24.186 -11.5532 -1.61887 0.0415692 -3.09791
1309 1 0.769673 -12.903 -11.2 1.22959 -0.14959 -2.86268
3716 1 6.71122 4.57215 -0.0968728 -0.125573 -0.754957 -1.90844
2817 1 6.27673 -16.0557 -21.5003 0.656702 -0.517523 2.73585
2821 1 16.3876 -9.14163 -13.4262 0.762487 -3.00103 -4.5673
2826 1 8.52404 -19.4332 -1.5624 -0.10038 1.91303 5.94538
2828 1 2.58253 -1.93439 -18.1604 2.06831 -4.12644 -2.73329
2831 1 14.2237 7.81559 -12.1147 -6.57233 4.44813 -7.74788
1408 1 0.251109 -5.57222 -14.7429 0.52698 2.28912 5.59854
2841 1 17.7072 -17.5565 -3.82726 3.0579 5.85889 -4.4837
2843 1 14.3659 3.35361 -21.1449 0.433746 -4.19364 -7.47442
2845 1 20.0805 3.57588 -22.8943 -3.25185 2.11828 -3.19625
2850 1 2.44132 7.36061 -8.20038 4.48041 -1.51803 -4.86739
3295 1 2.56091 -20.0556 -0.958012 5.16379 -0.570409 -0.253512
2854 1 6.39984 -7.4914 -8.50801 -2.37067 -0.582128 6.12854
2338 1 0.069986 -2.91102 -19.1175 4.59365 -2.14924 3.48627
2858 1 10.7561 -2.25281 -23.2493 -1.05508 1.18168 -1.76314
2862 1 12.7987 -2.04208 -15.8535 -6.20296 -2.09068 -0.2917
2863 1 21.6421 -18.762 -16.7024 -5.73041 0.2787 1.39585
1227 1 1.39614 -8.23298 -2.32888 3.28009 0.441044 -4.20345
2875 1 22.326 -4.63668 -7.91799 -0.173737 0.952577 -3.4101
2876 1 20.3665 -24.0229 -23.3286 0.530489 -1.06916 4.74251
2065 1 14.5781 -17.5365 -22.8558 -4.0692 -2.00026 -2.03371
2911 1 0.699141 2.97929 -19.8789 0.268324 0.441915 -1.94906
2912 1 9.09349 -15.4787 -7.71656 -0.000930647 0.372132 -1.86763
2913 1 17.8196 7.22746 -4.41197 0.940569 2.54247 -1.93618
2918 1 21.9453 6.14457 -6.049 1.09607 0.0416843 -0.0994673
3139 1 5.3081 10.4258 -13.0415 -0.802384 -0.938783 0.77153
2999 1 11.3988 -19.0429 -1.06904 -1.3244 -0.620678 -1.98896
2934 1 7.67422 4.28763 -21.91 2.82756 1.11179 0.709253
483 1 4.83998 -18.1174 -0.543179 1.54326 2.36489 -0.0486516
2947 1 15.92 -12.1001 -22.6064 -0.932524 0.166891 1.54071
2951 1 10.6823 -18.4531 -9.99759 -6.68739 0.139834 -5.23462
2958 1 9.94664 -6.05934 -13.9138 0.942994 1.403 2.8995
1171 1 23.3987 -2.9842 -5.92363 -0.484887 -0.488317 2.35556
2965 1 18.6055 0.0291352 -12.9312 -0.139006 0.66302 2.49581
2970 1 18.0259 -12.1604 -15.92 2.68614 1.13189 0.558653
1693 1 19.5298 7.7817 -22.2086 0.482431 -0.289791 1.33206
2977 1 4.13194 -11.3366 -5.05532 -0.417405 -0.385959 1.82915
2988 1 -0.00218215 -22.0605 -4.07999 0.782964 4.37245 5.16069
1754 1 22.1328 9.03004 -19.1725 0.974273 0.655605 0.764282
3005 1 3.57324 5.64906 -6.19261 -1.57698 2.86475 -2.65469
2616 1 22.2603 -2.25367 -11.5254 1.18998 0.0193327 -5.87051
2237 1 -0.459443 -24.1283 -20.1437 -1.05016 -0.0125527 2.03693
3016 1 18.5106 -12.7417 -21.8166 4.26467 -3.14959 1.67361
3032 1 18.6125 -8.38677 -4.03697 7.46232 6.17574 -1.88347
3043 1 7.07957 -11.7164 -16.4356 0.611214 6.34364 3.77322
3046 1 16.9736 -8.61349 -16.7426 -5.00002 1.12818 4.62406
2364 1 1.82767 -3.31888 -1.51107 0.713043 1.74271 -1.66248
3065 1 6.06966 -10.9823 -10.5039 4.59951 -0.526894 2.73892
3069 1 7.95624 -8.57305 -6.24656 3.55421 -2.57534 -1.71455
3335 1 23.0514 -0.000468326 -3.10419 -1.61416 -7.90383 3.66124
3079 1 14.1023 -3.59377 -3.82205 -1.77659 3.76247 0.536253
3083 1 7.66388 -14.3603 -9.89088 -2.99795 4.47179 -5.41813
3090 1 16.0124 -1.44777 -6.21805 1.59204 -1.66317 1.50206
905 1 21.3145 -7.41233 -22.7793 -0.340997 -4.16592 0.0527434
3100 1 17.0392 -8.84366 -20.5383 1.33993 -1.63024 1.4659
3106 1 1.65395 -10.3189 -8.36235 -3.94493 -2.00798 0.699178
3108 1 7.55504 -16.7377 -5.41249 0.766988 -2.86275 1.78846
3111 1 8.85894 -20.1999 -18.9382 -1.95165 -0.61805 3.96596
3935 1 9.08791 -13.9987 -19.1969 0.736887 1.06695 3.25387
3113 1 10.5517 -9.24802 -17.6555 -0.524432 -5.32706 -0.784862
3114 1 4.82025 7.69789 -16.3803 -2.86524 -1.33436 3.04149
3117 1 15.0565 -10.3147 -3.93834 0.413893 2.2893 -1.13888
2968 1 0.0337897 -13.0865 0.00268492 1.38009 2.1313 -0.177677
3128 1 1.01745 9.94869 -14.7777 -1.76978 4.76972 0.342817
3134 1 19.9454 5.99466 -2.60275 -3.94599 -1.82739 -1.03961
3137 1 5.35832 -2.39548 -17.6652 -4.36449 2.16053 1.00578
3975 1 2.82364 1.08499 -20.9245 2.89854 -0.780176 -3.97106
2271 1 22.4815 -17.7045 -8.95574 2.71258 0.637883 -0.733251
3141 1 10.8819 -2.57883 -8.22587 2.97482 3.71012 3.23114
3149 1 10.6744 8.24216 -17.9293 -0.847041 -0.3277 -3.99778
1410 1 0.0262293 -17.5192 -16.4101 -1.41768 0.741993 3.79259
3158 1 19.3363 -19.8953 -7.79728 -1.17874 0.131306 -1.76875
3159 1 19.3158 5.42004 -6.43027 6.6475 1.85488 1.8072
3167 1 20.3911 -16.5202 -20.016 -4.53029 1.56348 -0.882577
3169 1 12.6603 -22.3549 -18.3935 0.851773 3.3248 3.24902
3175 1 19.1729 3.10509 -2.22065 2.84231 0.704378 0.886673
2318 1 22.6042 -8.79964 -6.01585 1.35588 -0.847412 -5.36404
3191 1 8.23581 -5.72023 -9.92779 -1.25058 1.69656 4.31267
3870 1 14.9889 -19.5303 -10.4494 -0.00311229 -0.858871 0.0384317
3198 1 8.75225 2.89625 -18.0474 4.12446 5.37909 4.76872
1059 1 4.22521 -24.4796 -13.9015 -1.42621 2.0661 -5.96314
3234 1 13.4787 -5.36229 -13.2194 0.635886 0.904481 0.947824
3242 1 21.2556 -9.60269 -16.7144 -1.40585 -0.459098 2.83677
3250 1 15.502 6.06355 -17.0723 -1.21505 -2.32062 0.841773
3254 1 20.0925 4.44576 -9.18484 2.09528 6.69585 -2.46622
3954 1 4.35079 5.02739 -17.3749 5.89805 -1.86166 -3.97111
3265 1 8.59422 -3.73467 -18.164 -0.588972 -0.476255 0.381823
3278 1 1.31604 -5.99567 -22.6139 6.16844 -3.04033 1.62868
3282 1 2.91732 1.33717 -14.9641 -0.976463 -0.638808 -1.00448
2434 1 0.904483 -22.8647 -1.27427 3.24715 3.73142 -0.0218326
3298 1 7.22278 -8.97994 -15.6885 0.396232 -4.75586 1.4536
3319 1 0.980834 2.47197 -16.9723 1.06384 -2.97932 -2.04962
3949 1 2.57839 -14.2708 -15.2777 -0.0236926 -7.21728 -5.69262
3305 1 3.67697 8.60329 -5.55593 3.25325 0.0829115 1.55299
3311 1 9.80062 5.952 -10.4478 2.00734 -1.17972 2.90481
3315 1 21.5509 -11.9872 -20.0058 2.19695 2.40398 -2.4312
3316 1 4.68975 -5.3588 -7.46488 -0.503987 1.37126 -0.891988
2832 1 22.6923 -18.0985 -3.76531 0.0786301 -0.407426 -2.84412
3320 1 5.29296 8.17817 -9.44681 -3.06669 2.21182 3.29628
3887 1 3.27677 -11.3245 -19.7223 -0.598322 -5.73034 -1.38492
3324 1 13.2089 -17.2211 -10.8423 -0.910916 1.51068 0.778113
3327 1 7.10191 -22.3858 -5.8636 0.38841 1.3917 -0.256674
3328 1 -0.0861648 -15.6363 -12.388 -1.38212 0.956918 -0.954701
3329 1 13.3456 7.87495 -16.2047 4.64338 8.65089 2.90071
2641 1 22.2102 6.95385 -13.966 -0.335671 0.0128195 0.588097
3340 1 17.9716 1.98577 -19.9451 3.63712 -1.01592 -1.03126
3363 1 15.2029 -3.01246 -14.4627 1.86743 -2.37899 1.51339
3367 1 1.84319 -21.1827 -18.0666 1.95329 -3.30009 3.55135
3372 1 5.96084 -1.29876 -9.39552 -3.35367 -0.239783 -3.35567
3374 1 22.1858 -14.4634 -21.1551 3.98566 0.883365 0.788164
3384 1 16.3582 -18.9147 -14.8828 1.55099 4.95649 -5.85642
3386 1 9.70932 -10.8222 -21.9182 2.48001 -5.69093 4.63063
3400 1 16.072 -23.1329 -22.8549 -3.43718 2.1899 2.07367
3402 1 11.1168 -17.5379 -20.1553 0.206014 1.72772 -1.0394
3407 1 9.85782 -2.58105 -11.9545 -2.55398 -5.60325 -4.28655
3412 1 7.37809 -3.23145 -10.8184 -6.59774 -0.234128 -1.53287
3416 1 19.8108 -20.5841 -5.17313 -0.694335 -0.229544 2.8987
3422 1 7.02128 -14.2613 -1.68703 -2.23661 -3.76888 1.08609
3441 1 5.18403 -15.6159 -6.62362 2.26604 -2.31097 0.885898
3451 1 5.2309 -13.0925 -18.2549 -2.52768 -0.108771 -0.776969
1517 1 23.1734 -14.8785 -9.84205 -0.561921 -2.0395 -6.62204
3458 1 13.6687 5.72288 -22.5937 3.21644 -2.3999 0.36622
3463 1 21.7948 6.06319 -23.1406 -0.144715 1.12581 -1.90269
846 1 8.8555 10.6921 -11.4351 8.25642 -2.6225 -3.74353
3485 1 0.885424 6.85492 -2.80003 -1.13212 1.38238 -1.84008
3487 1 12.0051 -10.6321 -13.6975 1.67499 4.8344 3.91189
3489 1 20.5007 2.67319 -6.62608 0.990682 0.10717 1.70928
3868 1 4.48067 8.5005 -1.03448 -1.4224 -3.49826 0.363524
3507 1 7.45534 9.98143 -9.05181 -7.38257 2.38549 -1.14078
3860 1 13.0351 -16.8935 -16.4736 1.92907 -3.26566 5.21679
3535 1 10.1164 -18.8929 -16.7893 -2.43242 -1.95711 -3.22417
3541 1 12.8031 0.0177207 -22.6028 0.794466 5.84333 -2.38049
3547 1 9.37539 -18.3915 -7.29239 6.51279 -0.708175 -6.18756
3548 1 7.32257 -11.6293 -19.6892 1.2899 -1.15113 1.95344
3551 1 11.4107 2.45299 -21.3243 2.1417 -1.48124 1.90005
3557 1 8.81258 5.69782 -17.6637 -1.87109 -0.730096 -2.19621
3563 1 0.880853 -23.0995 -6.67179 -3.07913 1.22244 -1.45523
3992 1 21.4087 8.43399 -3.26751 -0.0960709 0.431288 -5.76097
3565 1 16.3602 -17.3985 -6.31697 3.07062 1.92594 1.86488
3573 1 18.0543 -2.43082 -2.86672 -1.59583 1.53143 -1.09807
3586 1 15.259 1.12251 -7.22601 2.93092 -5.92692 4.41853
3914 1 11.1908 -10.0743 -4.1565 -2.739 -0.056079 2.69798
3590 1 10.6375 1.29384 -4.69844 1.07454 -3.06047 0.303477
3593 1 14.8253 -7.23288 -14.8632 2.08234 3.03022 -2.98016
3606 1 1.75036 8.79862 -12.2558 -0.842387 -1.70096 -2.74958
2659 1 16.917 -3.77471 -23.0798 2.38257 1.23538 -2.61061
3617 1 15.3467 0.720497 -21.1202 2.68821 -2.02541 2.7872
3375 1 21.1413 -10.8663 0.0747206 -0.443015 -1.25645 3.39675
3630 1 6.25538 -9.90337 -1.85422 4.16794 -3.85182 1.21735
3633 1 9.37651 8.24578 -4.53379 1.65505 -0.596712 -2.25373
681 1 -0.0821489 0.985193 -5.94551 -5.58393 -4.29142 0.780373
3636 1 5.50283 -17.8869 -13.1905 0.675214 -3.31373 -1.10896
3640 1 16.8811 -17.5497 -11.0646 -2.69829 0.7495 2.37664
3646 1 17.4115 4.04599 -18.2695 -3.72583 1.56687 -0.482667
1549 1 1.91988 -3.4247 -15.4216 1.28123 0.805711 0.661591
3650 1 7.5702 -6.24557 -16.871 0.350655 0.00659919 2.28732
3659 1 20.0138 6.76053 -19.321 -2.76103 5.66273 5.88314
2874 1 1.37692 -10.3867 -12.583 4.42791 -1.80291 -2.82526
3884 1 12.2394 -18.6704 -7.35837 -3.01644 2.92204 5.64264
3665 1 10.4762 -6.19448 -17.7652 -2.70893 -0.603176 -5.60379
3957 1 17.7163 -24.0743 -18.9166 -6.50154 1.84398 -0.94774
3670 1 14.4388 4.03827 -9.09791 -2.43402 -4.09732 0.0254202
3679 1 9.27996 -20.7353 -5.42067 1.60436 -2.68254 -6.98091
3982 1 10.0897 -4.45849 -4.01148 1.57356 -0.269951 1.86949
3692 1 8.63807 1.9315 -20.9323 2.9251 -0.352912 1.16781
3696 1 8.29201 1.02922 -15.9197 2.14989 -0.122676 1.32062
3707 1 18.163 4.67078 -13.5932 -4.32479 -2.63497 -2.52239
2813 1 -0.0489485 -8.42584 -18.0004 0.62992 -1.70254 -0.15567
3723 1 8.34046 3.47596 -14.427 3.21529 -2.801 -2.09195
3727 1 4.73997 -11.0705 -22.3803 0.169482 -2.78851 0.836924
3731 1 4.99947 -18.4976 -21.3625 -3.04953 -1.37058 -0.410626
3733 1 4.30073 -14.6232 -0.831023 2.6718 1.74951 -1.71902
3740 1 5.71558 0.608148 -20.9445 2.11905 1.60519 -1.49277
3746 1 5.02931 -21.0522 -4.88065 0.216984 -1.67233 -3.2834
1295 1 14.3988 7.02651 -2.57022 4.66133 8.08313 -2.00664
3755 1 17.2714 7.14687 -9.30044 1.96968 -5.14376 1.42075
3758 1 21.3846 -6.68149 -16.91 -5.78605 -0.344912 -1.99306
3761 1 18.7894 -12.1812 -19.0229 -1.95592 4.75483 1.07928
3772 1 14.2878 -14.4993 -2.35678 5.17389 -3.74576 -4.82906
3775 1 3.38058 -0.638278 -9.15472 -1.71762 1.48253 -0.417552
3369 1 -0.138457 -0.616155 -9.76209 1.95935 1.73841 -3.54134
3782 1 2.49353 -13.7727 -18.3173 1.21049 -1.48553 0.954759
3790 1 4.42083 -18.3422 -3.36429 3.13507 3.6968 2.92834
3916 1 20.694 -11.2352 -22.7771 -5.5192 -2.47955 -1.3448
3800 1 14.7051 -0.419108 -2.61827 2.18473 2.74008 -0.586395
3856 1 12.9753 -18.6917 -3.36502 4.46123 0.203821 -5.46405
3666 1 2.16161 -16.9001 -23.0151 -0.465058 1.26515 1.33618
732 1 14.4167 -24.2993 -6.90848 2.86661 0.940625 -1.26379
2127 1 23.3644 -9.59024 -23.1492 0.901064 -1.23793 0.777087
2856 1 16.049 -15.793 -0.275983 -1.13028 -0.210887 2.42155
3849 1 17.1094 10.8687 -23.7283 3.99003 4.45507 -0.620395
1105 1 21.4086 2.2424 -0.66793 2.23615 -1.95291 -8.23755
188 1 7.99926 -24.3041 -2.17136 -3.13292 -3.13196 5.32479
1810 1 11.6536 -24.6379 -6.45717 5.16226 -5.3553 0.964224
1043 1 17.9935 11.246 -6.98976 -2.90886 -0.66837 -1.97393
3777 1 15.3145 -6.99699 -0.0943138 -0.0294297 -2.67855 0.730117
3610 1 12.7113 8.00356 -23.92 -4.29432 -1.01578 -5.31937
2121 1 8.63842 -20.6105 -23.8111 -4.7742 -1.70715 4.43221
700 1 2.0706 7.22927 -23.9998 3.45079 4.33197 2.19553
478 1 2.86058 -2.51699 -23.9595 4.66781 1.7625 4.5894
2342 1 8.70799 -12.9695 -0.0273859 3.99988 0.641806 2.03848
1185 1 13.7798 4.77291 21.6859 -0.840065 -1.40736 0.42708
282 1 12.6927 11.2826 12.8965 -2.25677 -0.532611 -0.841312
1213 1 22.9658 -12.7221 21.7018 6.15271 -1.78739 0.982003
11 1 7.19893 -12.5444 16.5128 -2.22453 -2.62491 4.21542
17 1 17.1875 -7.99279 17.047 -0.530301 -6.22123 1.99079
20 1 21.5194 1.78192 21.8111 2.49203 1.22252 3.21007
35 1 19.3745 2.72904 10.8378 -1.0553 -4.36141 1.13774
10 1 0.71816 -6.62245 15.1995 -0.899719 -0.115514 -0.622012
50 1 16.2282 -19.7924 13.0354 0.962668 -0.955531 -3.28772
65 1 19.0738 -0.936862 6.88024 -0.462284 1.09925 -0.434233
82 1 6.53201 -23.8811 4.95087 -1.18475 -4.36248 0.759595
86 1 14.6879 6.50918 16.9102 2.75168 0.442051 -2.98877
90 1 9.58274 -4.84696 6.31203 3.35095 -2.26877 -1.14098
102 1 3.33817 3.71699 5.3564 -1.34665 -0.840403 -0.974622
106 1 15.0682 4.9692 7.41846 4.21391 1.1484 2.14764
107 1 19.9999 -3.9178 19.1515 3.47623 -4.57622 -4.55643
2868 1 2.26458 -21.4754 23.0732 0.651646 1.46488 -2.90964
120 1 3.62701 -1.26621 17.9803 -1.60212 0.0593539 1.27693
2622 1 -0.102869 -17.1764 22.2141 3.05142 2.84818 -1.01771
127 1 9.98264 2.31929 10.5668 -0.424469 -0.707933 0.548767
129 1 16.4492 -11.5365 3.56539 1.91649 -2.83889 0.684953
140 1 4.89619 -5.00896 20.7441 -0.233955 1.77015 -1.6839
141 1 10.4974 -16.5032 3.47371 -1.32391 5.23613 -3.6392
142 1 14.1718 2.04761 20.7295 3.7796 4.03491 1.37552
145 1 16.4235 6.59942 19.2356 -0.357075 -1.66098 1.22865
3199 1 13.7005 -24.323 8.13266 -1.16989 -0.234566 2.16988
151 1 20.2143 -0.716159 21.751 -3.43542 3.44392 1.10026
156 1 14.2764 8.53963 19.1513 2.81708 0.526201 1.2094
158 1 8.29223 7.168 0.401336 -1.77162 0.491455 2.07398
163 1 2.74233 -0.387694 14.4779 -1.00972 2.9383 0.416773
164 1 20.8187 8.84019 9.75227 -1.71919 -0.805985 -2.60793
193 1 7.49088 0.626185 3.38945 2.22599 -3.51744 0.571052
205 1 20.1102 -6.65472 11.4375 2.3789 5.09164 -3.83455
208 1 2.31767 -5.43296 17.5603 -0.688055 1.74071 2.80788
211 1 15.0479 1.13591 5.58747 -6.40058 3.03793 -4.62618
236 1 17.5349 -8.98287 7.46745 -3.14585 4.59392 -3.54196
2884 1 8.99958 -7.52447 23.6948 -5.68859 0.226872 0.474249
240 1 8.16181 2.81334 15.0063 -2.41959 0.956082 1.00877
246 1 9.4576 3.6356 20.8465 4.95754 -1.47429 0.0969866
2245 1 23.2284 -20.6506 9.23328 -5.75657 1.09007 1.75867
1332 1 13.0091 -22.9992 22.79 1.42626 2.62194 2.83125
272 1 13.9005 -18.3438 11.4492 -6.71706 -3.2476 0.568667
274 1 12.2941 -12.2604 9.63903 -0.370441 -4.41342 -0.920464
278 1 20.3135 9.50253 16.1733 0.380416 -2.76154 -1.10275
3584 1 6.87019 5.08496 23.4126 0.787144 0.970139 -4.20798
1777 1 22.8024 -11.6356 17.1999 -1.84987 1.68009 2.58133
293 1 17.4411 2.09042 14.1154 0.845776 3.57927 3.16625
3039 1 16.8468 -23.6407 20.192 -2.43044 1.78033 3.04372
300 1 15.3842 -1.91894 15.4849 -0.109999 0.411017 -3.03819
305 1 3.29342 -19.5351 19.9769 -7.97975 1.33019 -2.01349
309 1 6.68084 -19.2203 17.6208 1.53189 -1.14846 1.53475
311 1 13.2115 -9.7707 2.08366 5.24734 6.77161 -3.81635
96 1 23.1593 -17.4588 23.2771 0.826162 -3.61621 -1.43658
318 1 19.319 -18.7657 18.5369 2.1319 -0.262311 -2.73309
3342 1 0.676408 3.26343 2.55499 -1.8685 0.508036 -5.13896
331 1 11.7351 7.00587 2.56457 3.44844 1.86373 -2.39684
335 1 22.2374 -22.856 4.6789 -3.82675 2.01704 1.3869
338 1 5.74644 -8.48854 15.4806 -2.25303 -0.178418 -0.112528
346 1 18.1047 2.5828 2.67404 -0.0968788 -0.533486 -1.07424
347 1 21.5653 -6.41237 8.7375 1.01652 -1.53419 1.92859
1936 1 19.7531 -21.5612 23.2501 1.46102 -7.06529 -0.54413
358 1 19.9976 -11.9228 13.5555 3.22383 -3.56035 4.16008
368 1 4.29178 -6.33408 9.94819 0.574419 -1.09952 2.6316
377 1 16.2183 1.14244 11.6226 0.931304 -1.15358 -4.16019
2283 1 23.6215 -12.6379 7.342 0.29845 -2.89488 -1.74572
387 1 6.19924 -20.495 2.17803 -1.33202 -2.48054 -1.42005
390 1 11.1595 7.53339 6.79793 0.430688 -2.12257 3.87315
391 1 19.4036 2.72147 17.256 6.37776 -1.24364 0.725613
392 1 19.2428 -10.1469 17.5221 -3.61147 -0.822813 1.12655
793 1 23.4849 -10.7757 3.38088 -5.46507 3.02638 -2.71811
397 1 0.232167 -19.5533 19.3824 5.64547 -2.42495 3.94428
3314 1 0.555107 -4.02716 9.68901 -0.988788 -2.16829 -3.22046
407 1 4.91859 -11.3746 15.3411 3.18976 -6.34233 0.26098
1682 1 4.70257 10.357 1.24186 -0.897998 -3.64149 -1.56025
432 1 7.11003 -3.43853 11.2445 2.32488 -3.87619 -2.34267
442 1 5.15774 3.05823 15.1985 -4.72976 -3.70372 -1.46312
450 1 14.5362 -18.896 7.51978 -0.502428 3.68359 -3.25019
455 1 12.942 -14.188 13.523 -2.2159 3.51459 -2.51298
535 1 4.53676 11.0051 9.15585 -0.343559 6.54755 -1.55071
295 1 0.40677 7.55339 9.75489 -1.7713 2.68556 3.76112
479 1 17.1505 -17.0248 15.3981 2.40839 0.66811 1.86006
480 1 1.4875 -8.96836 10.2804 -3.86158 -3.8174 1.74045
2635 1 -0.144265 10.2493 20.6828 -0.994676 2.98476 -1.92112
494 1 5.94297 3.09637 4.13553 1.62714 -3.75321 0.876792
502 1 13.8288 -14.0451 17.9704 -3.76248 -2.33262 3.31717
510 1 7.14237 -16.4549 13.4935 2.65344 -3.27673 -2.82987
511 1 7.67209 -13.0709 4.65281 -2.47962 0.525513 -3.44436
512 1 2.07421 -4.99107 20.3773 -5.43171 1.27098 0.358943
1394 1 0.926683 5.73469 0.737695 -1.61732 -0.0368987 -2.36577
522 1 4.67026 -17.9071 8.11234 4.58178 -0.342452 -1.57435
1999 1 0.539923 -8.61137 19.7315 -3.40244 0.0725716 -0.749364
1076 1 23.647 3.69872 23.0447 0.68904 -2.45976 -1.10683
365 1 1.46807 -14.7926 17.7139 -0.499053 -0.485347 2.85132
537 1 9.76835 -5.84091 2.7776 -0.152985 -6.25133 0.775543
2861 1 13.8811 9.70797 21.8843 4.5506 -3.99297 -3.61566
548 1 9.80591 2.7186 18.1091 2.71289 -2.0889 -2.28319
561 1 7.05167 -21.2585 19.4665 -4.44289 4.38457 -1.7748
563 1 6.10249 -21.6628 8.9169 0.244963 0.520267 4.85888
565 1 15.2836 -21.2582 22.2241 -1.17871 -0.721821 -3.326
568 1 7.08622 -7.08203 7.66875 -0.482135 -3.0118 1.48109
3054 1 21.2674 -3.0297 23.3518 3.95699 -3.98114 -0.126113
572 1 11.0668 -22.5555 3.24924 3.92227 1.05354 -2.24434
573 1 17.8159 -6.3175 6.11574 -1.30477 1.6403 2.61812
576 1 21.2756 0.276225 17.5225 6.16058 -5.83502 1.0172
591 1 22.1161 -19.6803 12.7663 -6.0195 -4.27237 2.78258
598 1 15.3289 -13.7728 5.03547 0.173481 1.78744 -5.91057
599 1 8.70335 -15.0757 15.6313 -0.163138 -7.86659 -2.37922
3865 1 1.52298 -23.8793 16.6409 0.0267559 2.91381 -0.933948
609 1 10.8072 -20.3284 22.2175 -2.23484 0.568097 3.05246
610 1 16.6228 -4.06895 13.5755 -2.71882 3.30725 -3.69571
615 1 10.4681 -0.11636 17.6594 2.31651 1.69735 3.53632
616 1 14.5209 -4.17896 20.4702 1.63042 -0.403426 3.9288
618 1 13.5009 6.91916 8.64017 -0.417246 -0.0269147 -3.10718
619 1 15.6732 3.10348 9.52358 -1.84156 3.23387 0.276631
623 1 21.9837 -14.7084 6.09616 -3.15642 -4.98833 -5.49417
640 1 2.0905 1.02814 4.39795 -0.630707 -0.258272 1.97308
643 1 10.6022 -18.6016 7.68709 -4.56313 2.24042 -0.143102
649 1 12.6332 -15.2491 20.3115 1.13208 7.37026 0.583007
659 1 8.06702 -0.570556 19.3371 1.48449 -4.08507 -1.84964
660 1 9.24491 4.99275 7.45619 1.50031 -2.97419 -1.19697
662 1 3.27521 -6.57843 7.50219 -6.70102 0.737308 0.0543253
669 1 9.09708 -16.0523 11.7413 -0.624454 1.78197 -1.834
676 1 7.15301 3.89022 17.3515 0.759994 -1.43204 -0.0624637
685 1 21.5006 0.110823 8.34549 1.09678 -4.80423 -4.44617
1722 1 19.0009 -24.6665 18.8445 1.72831 -2.76162 -1.61683
694 1 7.95693 -17.3786 2.43153 0.027566 0.639398 -2.45565
701 1 17.2855 1.55086 7.55257 -1.14509 -4.50646 -2.48373
706 1 4.56649 1.03882 19.8673 -1.56367 -3.41367 -1.21833
712 1 4.4528 -9.30391 12.9176 -3.25851 2.84886 2.29189
713 1 2.52642 5.72053 3.54905 -0.471412 0.340051 1.76427
719 1 14.6119 -6.11342 9.89193 3.03973 2.41102 0.138826
735 1 15.9778 9.0531 5.51672 -4.27223 -0.671011 2.89567
737 1 20.4161 -17.205 5.88326 -3.32627 2.47179 1.83884
747 1 10.5111 -10.0204 3.45463 -1.46975 2.40188 -3.15214
752 1 22.3926 -18.9344 5.36907 -1.64533 -1.56364 -0.815788
760 1 0.965974 5.04203 13.6462 1.66938 -0.448878 1.17035
763 1 18.6475 6.84153 8.65224 -2.98051 -0.504107 -2.78778
764 1 21.2936 4.18462 6.84869 3.24068 5.57554 -2.43338
1209 1 3.49206 -5.42149 23.5877 -0.21993 0.865889 3.78824
771 1 11.5977 -14.65 11.053 3.17889 -0.359494 2.08694
772 1 4.93213 7.6982 6.85896 -4.69764 1.52794 4.18615
773 1 11.2434 -20.6235 11.6422 -0.410201 0.304784 2.23164
3189 1 14.2127 10.8182 7.24821 1.18948 -1.7835 -0.902468
783 1 6.17202 -17.4028 21.9664 7.25071 -0.236433 0.706782
790 1 5.34671 0.629372 13.8296 -3.55108 -2.60478 6.56726
2639 1 2.02986 -8.38292 17.3751 0.336937 -1.22422 2.54905
795 1 19.1955 -8.10894 20.5297 -0.449771 -0.0146784 -0.709696
816 1 20.2705 -21.5681 19.0372 -0.953481 1.06257 -1.954
817 1 9.18309 -11.6436 14.3893 -1.45409 0.793414 -3.99688
822 1 22.4533 -16.1218 14.7873 -2.87927 -0.128571 3.69159
823 1 7.90131 -9.42317 2.14302 1.55347 -6.41728 4.98452
3241 1 -0.263653 -20.4039 16.5752 0.0135192 -3.58787 3.15511
836 1 7.99644 -15.5621 20.736 0.828377 1.82842 0.0928616
838 1 22.2568 -20.5173 3.24602 -3.40735 3.28432 1.81949
840 1 3.82108 -17.9319 14.2352 2.08416 -0.377501 0.942724
841 1 21.6297 2.77935 9.20444 3.11414 -1.7558 3.55162
843 1 21.1358 -8.14149 18.3474 -0.0884563 -1.80294 0.0544213
858 1 17.2745 -12.7908 14.4198 1.20794 0.614751 0.316559
863 1 15.6872 -16.3157 5.83683 5.73529 -0.396588 -3.65591
3153 1 15.7074 5.29789 23.7105 -2.2914 -0.730504 -2.07012
866 1 13.7868 -2.81592 17.911 -2.07176 0.927567 -2.72714
2043 1 18.6498 10.6696 10.72 -3.02944 -1.15134 -4.89255
877 1 4.44606 -17.8114 16.8571 -1.31358 3.70223 -8.02398
887 1 9.37177 -22.5156 18.7806 -1.19805 3.37646 -1.0236
890 1 14.3639 -20.0314 15.3357 0.639197 -4.22005 -2.42169
893 1 21.9659 -4.64592 2.306 -3.24322 0.545973 -1.70324
895 1 2.72493 -23.7265 5.05127 1.52487 -2.14091 -6.35578
896 1 11.101 -2.99736 18.4984 -3.70217 -4.80829 -1.98667
899 1 15.4763 -19.6936 18.0737 -0.688596 -0.643422 2.11054
901 1 0.962837 -18.5803 8.47887 -0.192337 2.29233 -5.03149
1403 1 15.3502 -23.2551 16.9687 -4.52804 -3.7565 -5.13215
909 1 16.7421 -22.1728 11.5015 -3.30932 0.913404 -2.19291
1719 1 19.6177 6.71769 0.128913 0.272181 0.655691 1.21285
926 1 2.50915 -16.2682 7.35626 -0.0821933 5.13814 2.60548
928 1 9.55266 -18.5702 10.4555 -2.43942 -2.19855 -1.7176
938 1 18.716 9.73296 5.21893 1.58836 1.22985 -1.15285
943 1 19.4138 -4.50336 1.04695 1.75065 5.11302 4.14616
945 1 4.96637 -21.9997 17.3518 0.707923 -2.17428 3.43606
953 1 17.4719 -2.17211 1.8033 -2.13597 -2.07748 0.71084
969 1 15.8574 -21.6384 0.841709 -2.63365 1.52996 2.00481
971 1 14.6519 -5.90544 23.1741 0.906889 -3.63662 3.34666
977 1 3.23161 -23.8648 14.5552 0.283817 -1.82844 -4.94678
990 1 12.7564 -7.20213 12.5995 -7.52493 3.0836 2.52783
3875 1 23.1195 0.0165013 5.91347 -1.61295 8.41803 0.918595
1003 1 13.4465 -16.2142 9.7924 0.503846 0.159178 -5.49997
1007 1 13.1469 -0.245539 19.1611 0.676978 -3.0419 -4.95618
1008 1 5.29588 -4.10686 13.3566 2.10119 0.169976 -2.00747
1009 1 9.03974 -15.4469 6.00265 -2.86799 2.86807 0.644628
1013 1 5.03964 -17.6156 2.34183 -1.52473 0.931763 2.59062
1023 1 12.3057 -1.64252 4.85091 1.93064 -0.673328 3.91989
1032 1 12.4155 7.0076 20.8108 0.968296 -5.25919 -2.59806
1036 1 6.59048 -12.7542 20.2908 -7.43528 2.63533 3.45153
38 1 21.3877 10.6832 7.16275 -6.46042 -0.92615 -4.94369
1366 1 20.4451 -13.7674 0.611987 -0.867699 0.855344 -1.27142
1051 1 4.0408 -0.0450503 9.54755 2.89441 3.11149 -0.635093
1064 1 13.2775 -16.7391 4.43666 1.12716 5.80456 3.8178
1078 1 10.2317 -7.65592 11.2186 1.69514 3.40465 0.0241527
1081 1 8.08407 -8.9056 17.1654 6.15692 1.60673 -0.340583
1093 1 22.3757 9.04379 3.26029 -0.117449 -2.10417 -2.4848
1099 1 14.7589 9.69638 14.5241 0.77696 -2.80235 -1.73275
1100 1 11.2576 -5.32268 20.5138 0.216207 1.52247 -3.48352
1101 1 5.11358 -15.991 10.3828 -4.07012 -1.13139 -2.79107
1102 1 14.9682 -15.0065 15.5512 -5.97411 -7.49063 2.6524
3365 1 0.0427752 -10.8276 12.2027 -0.704875 -1.03935 -0.360864
1107 1 4.64015 -13.3223 1.76526 1.5085 -4.62043 2.11794
1111 1 13.2735 -8.58324 9.08901 -1.11443 -2.6995 -2.64321
1119 1 9.19699 -10.1289 6.02872 4.25185 3.68297 -0.833474
1132 1 22.2544 -5.81973 19.838 2.77193 -4.06292 -1.83201
1134 1 14.5216 -22.0866 19.4003 -5.05482 4.94522 -0.597614
39 1 3.65623 7.67656 21.6729 3.94739 -2.59268 -0.0561141
1137 1 4.63408 4.44751 2.07234 3.50945 3.17284 -2.68101
3096 1 4.83778 6.88348 24.1238 -3.9487 4.11551 3.87729
2150 1 18.5301 -9.266 0.179838 3.84423 4.44528 -1.24523
1155 1 7.84962 -18.8546 14.8929 0.515876 -2.06139 -1.34781
1159 1 22.2398 -4.44691 13.9433 -0.577336 2.97737 -1.65884
1162 1 9.91188 9.22844 2.20554 0.834107 4.66805 0.135097
1169 1 12.9025 -5.21674 16.4286 0.593278 0.800583 0.813921
1173 1 8.01819 -19.5922 21.5596 -4.82229 -1.70863 -2.61902
2607 1 12.2491 0.699945 22.6573 -0.445185 -1.70767 -4.15614
1800 1 -0.0663154 3.29922 9.54757 1.73837 -2.67663 1.85186
1401 1 23.8911 -19.5826 21.038 5.34424 3.11706 -0.263915
3822 1 9.10884 7.75483 8.61945 -1.16823 -0.89918 -2.63544
1193 1 9.69414 -5.38914 12.5738 1.67111 -2.33929 2.94435
1198 1 20.8534 -22.1294 12.2281 3.20541 -0.525677 0.282998
1200 1 12.9804 -10.2141 11.3927 -1.42418 -2.80101 0.0567922
1201 1 22.1075 -18.0017 19.0491 3.38314 -0.853658 -2.36885
1811 1 -0.175874 4.69828 19.9458 2.74122 5.46085 5.80217
2125 1 0.271494 -15.3264 15.0531 0.784049 1.91429 1.98102
3996 1 6.03124 -15.2105 3.48343 -1.15755 -2.95088 -0.688948
1217 1 16.1365 -14.0138 2.19469 -0.72707 -2.41038 -0.529223
1151 1 23.4843 -23.9051 21.4793 0.993352 -2.88778 1.32321
1224 1 17.3826 -6.56558 12.5443 1.68307 -2.23035 -3.00536
3179 1 1.37262 0.544694 18.5916 1.33745 -1.15837 -3.8657
1135 1 6.28665 -2.28384 21.0924 0.734962 -2.50178 0.413441
1248 1 7.83362 6.63578 17.4753 0.35681 4.15665 -0.51729
1250 1 7.27646 2.09493 19.8949 0.254202 3.98026 -2.924
1251 1 22.0076 -1.41906 19.5892 -1.66985 -5.29541 2.23451
1252 1 18.6036 -18.0874 1.49823 -2.48399 -2.04549 1.60864
1259 1 19.4925 -10.3895 6.1363 -1.91475 2.58916 -1.20492
1266 1 14.7881 -9.45062 4.43232 -0.957708 -0.186811 -2.80291
498 1 23.5609 0.989458 24.1125 2.04458 -1.87588 0.616044
1269 1 8.9296 -6.07623 18.4413 1.09818 2.31965 0.929006
3037 1 -0.100806 -10.8801 3.9293 0.345434 3.82658 3.29397
1273 1 21.1893 5.50917 22.1832 -3.83288 -0.817083 -0.786749
1275 1 5.00433 4.73698 10.2819 2.92768 5.21646 -0.00323896
1281 1 13.894 -11.2047 17.4588 3.78918 7.73458 0.11397
1284 1 7.13732 -12.1272 2.14856 -0.311653 1.53273 -2.19733
1287 1 11.2792 -18.2276 18.133 -4.01541 4.92731 5.34239
1924 1 22.873 -15.9554 0.828755 -2.35063 4.47636 3.15095
1323 1 15.4707 -8.22552 13.8579 2.00837 -0.417658 -2.9724
2366 1 9.51045 5.15194 2.37078 3.11771 2.73595 -5.19198
776 1 9.33724 -0.330771 23.2338 -0.427319 3.0015 -2.62288
1337 1 8.59578 -23.1886 9.27635 -2.62045 -0.241111 -0.377992
1339 1 2.8279 -14.5243 20.4548 -1.61574 4.50345 -3.82609
1341 1 2.71382 9.69283 12.619 0.172032 -4.52899 -4.06973
1344 1 18.5635 -9.84591 3.19883 0.59352 0.0696173 6.87848
1349 1 1.58937 -14.1372 8.44801 2.49217 -5.9549 0.0290013
1351 1 16.8209 -17.2005 18.4088 -2.46276 3.93273 4.03449
1360 1 17.9301 -12.4717 8.95602 4.03083 1.24855 4.43711
3680 1 11.4779 3.3716 22.7826 0.588175 -2.57611 -0.286605
1370 1 5.13154 -14.5606 22.2393 -3.93821 1.85955 -0.332097
1375 1 16.738 -7.54754 3.86138 0.863364 -3.72051 -3.26059
2953 1 17.5465 2.0719 -0.100786 1.58173 5.23571 -6.51551
1382 1 15.4421 -14.0579 9.4189 3.24978 -2.82986 3.63437
1388 1 17.6719 0.404353 17.6432 -5.90401 0.0820568 -0.467535
1390 1 7.74271 -0.730129 12.1606 6.91569 -6.05414 1.15508
1392 1 22.4761 4.66698 3.33514 -2.67825 -3.89016 0.481327
3728 1 14.2487 -8.81132 21.8898 -1.41356 6.61508 1.63419
2054 1 13.5372 4.69508 1.36667 -3.13444 0.015228 0.166289
2496 1 4.92502 2.97606 23.4762 -1.29464 -6.15541 0.15904
1404 1 21.2381 -11.5542 8.31789 -1.18769 1.49768 0.969935
1417 1 12.3101 5.88224 11.1052 1.13125 -2.23503 -1.65177
3425 1 23.2314 -9.73135 19.2951 2.72819 -0.385865 0.352772
1426 1 7.32152 -19.6112 4.69109 7.52641 -1.18081 -2.74241
1443 1 18.7658 -14.8696 18.7003 0.849482 -2.54263 1.78416
1445 1 12.7233 -20.064 9.26173 -0.551147 -4.88375 -2.23515
1449 1 8.72232 -3.36741 2.74824 0.602391 -3.38999 4.44368
1463 1 5.04386 -2.31982 15.3732 2.5063 -1.70874 0.206908
1464 1 4.77415 -19.5288 5.7127 5.79978 -4.16349 1.51997
134 1 17.6858 -6.23617 23.6428 3.96973 -0.83909 2.71644
874 1 11.3491 -0.0673379 0.851898 -1.214 0.0157318 1.26453
1479 1 10.8462 -8.27773 7.74403 -2.20902 3.61727 -0.489071
3876 1 23.4923 -9.99351 22.1122 -0.872848 -8.00903 1.33331
1499 1 16.8339 2.04205 21.5155 4.11325 -0.736974 0.172645
571 1 1.26401 -11.3437 20.4843 -0.520837 -0.694668 1.90001
2135 1 15.4995 8.29343 23.9524 -0.644918 -3.09368 1.80221
1531 1 8.46626 -9.94209 11.0164 -2.74138 3.27253 9.02122
1535 1 2.78817 -6.97018 12.0201 -0.674202 -0.0909872 -0.212487
1543 1 0.977392 0.417423 12.3517 4.23213 -1.09681 -3.67908
1566 1 2.86722 -9.35284 7.65047 4.08531 -2.13018 0.622445
1574 1 17.9379 -17.4625 4.54917 -2.63105 -4.78667 2.51013
1577 1 13.551 -21.7202 4.59294 -0.790874 -2.29299 -4.80003
1592 1 18.4567 7.9171 11.4794 -1.66921 2.27491 -2.38207
1597 1 16.194 -22.5916 4.95581 -1.60532 -1.35202 -0.0327516
62 1 0.66549 -10.6868 16.0767 -3.54343 2.01067 0.491403
1793 1 18.7121 5.92217 23.6438 -1.48859 -1.36981 1.62256
1626 1 14.6236 0.517785 16.8578 1.93201 -1.14834 5.72176
1628 1 21.0617 2.52055 2.09308 0.458411 3.96396 -1.26628
1630 1 10.6886 -8.22762 17.8169 2.2137 0.0585686 -6.75962
1636 1 20.4219 -9.491 11.8376 0.512067 0.46034 1.72915
1641 1 20.1939 -12.3033 21.2995 1.40368 -1.01916 -2.02218
1653 1 13.3515 -21.2815 1.74324 0.65076 -0.98661 -0.185286
1654 1 5.46279 -18.2921 11.8479 3.26124 -3.00219 0.669596
1672 1 4.29693 10.4437 21.9739 -4.16031 0.737998 2.47232
1673 1 2.7881 -18.3567 4.06633 -3.0907 -4.64398 -3.70617
1675 1 0.8321 8.93687 14.9008 -0.596023 2.01989 -1.34971
1524 1 0.713297 -19.9355 5.93093 1.04817 -5.33484 1.49732
3753 1 7.28394 -2.39951 24.0364 -2.14724 -2.3714 2.22122
1686 1 11.7802 -10.2864 21.9859 4.69389 -1.2056 2.58636
238 1 16.6304 -2.75838 22.075 -1.54793 -3.59708 -0.290486
1696 1 13.5244 -1.73066 1.89911 -1.87343 -1.44234 -6.62444
1699 1 12.9773 1.50587 14.6464 -0.00527172 0.790264 -0.493464
1702 1 2.22066 -21.8403 12.7939 -3.6821 2.4991 2.3345
1472 1 21.8778 4.48772 17.0429 3.13221 -3.06629 2.40681
1721 1 7.24449 1.51515 10.3859 0.374167 -1.30057 -1.9725
516 1 8.01442 -22.9089 0.276905 -0.566076 4.1497 -0.325135
1732 1 14.1485 -12.5529 7.3137 1.27664 0.269938 0.502437
1736 1 17.5765 5.00518 10.7215 0.866503 -3.33008 -0.884823
150 1 22.3681 10.7949 17.6494 0.748596 -1.51275 -1.78832
1743 1 18.8837 -16.576 8.07524 -0.396158 6.16171 -3.19241
1749 1 21.8436 8.8782 13.7221 2.46385 -0.807217 -2.42954
1751 1 1.53764 -9.00849 13.8157 0.224203 3.79433 0.188123
1758 1 20.7857 -21.2287 6.40106 -3.37142 -3.27961 -0.161453
1188 1 3.06926 2.51087 0.658088 0.115848 -1.7946 -1.21647
1768 1 13.0552 -2.19294 8.93612 -0.417287 1.84551 -0.570022
2679 1 9.43509 -2.04396 0.272006 1.20837 4.98542 1.69119
1774 1 17.1707 -17.9619 24.0147 2.72005 -3.30398 1.82739
3908 1 22.6485 -15.7491 11.8826 1.81074 4.7334 -3.74124
1806 1 13.5194 -2.1269 13.3215 0.924676 3.2983 -4.84578
1808 1 20.3411 -12.6021 18.3342 0.718112 0.563627 -2.53255
3891 1 8.4558 -17.0862 18.0004 -1.24696 -2.1359 0.0278068
3536 1 22.4138 -15.9139 8.73904 2.01482 2.47746 -0.183339
505 1 -0.292045 8.43706 22.9285 1.34316 0.713278 1.18865
1826 1 19.4345 9.44543 0.621042 -3.40363 2.15673 0.16753
1837 1 14.1339 -22.5024 10.1967 -7.97424 1.24412 0.900962
1842 1 11.326 -19.5229 3.09086 3.86684 2.08092 -0.84615
1846 1 11.8125 -23.8193 6.1071 1.5205 -2.29112 -3.94282
1847 1 18.7346 -14.7091 21.689 1.5065 -1.20018 3.17368
1853 1 3.12231 -12.9793 6.04221 -1.08026 1.16851 -0.422128
2042 1 5.84057 -21.6451 23.6395 0.592211 -1.2301 -2.74229
2696 1 20.9105 -17.0298 21.5332 -1.43212 -0.44756 2.91121
1860 1 7.98243 -0.321324 8.09882 -6.42048 -3.95051 -2.76101
1871 1 17.6696 -12.7796 6.17372 1.7884 -3.87852 3.33544
1881 1 8.20222 6.34732 21.147 -0.351567 1.24581 2.77638
1887 1 19.4929 -6.04709 17.4112 -1.87572 2.42103 2.81483
1893 1 4.09162 -0.800612 22.1774 -1.13057 -1.28794 2.54882
1909 1 11.9948 -11.4523 13.6822 0.48073 -6.84142 -3.94268
1914 1 20.1943 5.80902 4.61109 -4.97647 3.29269 -0.822986
3580 1 0.777785 -11.2232 6.59615 2.36689 -1.65031 -0.741631
3533 1 17.8029 10.6717 2.83447 0.926592 0.528106 -2.84854
601 1 1.56495 -2.35983 21.6999 -1.76108 1.52067 0.615048
1935 1 18.8354 -15.3813 2.61448 -1.19871 0.200237 0.235091
2385 1 0.614534 9.46706 3.09188 -5.82997 0.237753 1.32447
1937 1 2.6182 1.85415 16.4307 -1.2174 -5.97377 1.97931
1938 1 0.933552 7.54291 17.3193 3.72078 1.42378 0.885621
3850 1 20.5969 -18.905 23.6654 -4.45074 -1.01043 1.5058
1954 1 6.16257 7.34289 11.0313 -1.41687 -3.15449 -1.76885
1958 1 14.1509 4.00778 15.3445 4.75817 0.180516 -4.5222
1965 1 16.7508 -5.0909 18.3285 -2.28066 5.69051 -5.25036
3848 1 6.16649 -15.8925 6.33956 -0.560601 4.22467 2.46589
1973 1 13.8684 -17.8679 19.8574 -1.0456 0.00224207 1.25963
1974 1 18.0676 -9.93864 10.4666 -2.42772 1.2067 -2.59226
1977 1 16.0453 -10.6954 12.4408 -0.964566 -1.28317 -1.53493
1978 1 8.35682 -4.59716 21.1442 -1.1186 2.42226 0.0114926
1986 1 14.6979 -5.72825 2.51464 2.13494 -0.986821 -0.240951
3962 1 3.4642 -15.6238 4.84943 0.689901 -0.272717 -2.57911
1995 1 1.87509 3.01019 11.762 1.46749 3.11932 0.676665
2005 1 5.27552 -3.49915 18.3769 -1.67112 -4.0838 -0.0158857
2012 1 18.3632 -19.7378 14.8004 -3.54489 -0.804204 -1.48325
2017 1 10.2408 7.7762 22.6865 3.06194 0.747701 -2.46178
2024 1 10.5175 9.37793 13.6639 -1.24308 -1.16716 -3.8094
3631 1 8.85585 10.4267 18.9352 -2.41461 -1.71774 -3.14066
2096 1 10.3363 -6.44959 0.0505561 -0.673841 -1.77383 -1.24564
2038 1 18.513 0.239214 9.70583 3.40816 -1.21855 -0.877762
3138 1 19.2528 -4.46935 21.8383 -2.16872 -2.46417 -0.337408
3871 1 17.5675 -0.575241 20.4281 2.6984 6.45913 2.2977
2044 1 2.33854 -6.45785 1.83448 2.12961 0.932072 0.816607
2057 1 16.8026 -2.63645 6.17694 -6.0534 1.72282 -1.93652
2059 1 2.29232 -7.43426 22.0405 1.43597 -0.0300208 -4.98118
2066 1 21.6544 6.90977 7.73601 -1.19241 -3.57878 -2.2658
2090 1 16.7804 8.12598 15.575 0.666954 -1.7016 1.52639
1271 1 0.058323 3.06567 15.7719 -4.31098 2.30311 1.82292
2099 1 14.7517 -9.88693 7.13277 1.00814 2.80641 3.01376
3177 1 1.85246 -11.706 23.2256 -5.32724 -1.436 -0.789787
2111 1 20.5161 -9.79873 22.8232 1.50212 1.5426 -0.399316
115 1 7.84437 9.78007 4.24043 -2.08684 -4.68099 2.08611
2116 1 19.4245 -3.82856 5.89126 0.297417 -6.71029 -0.470213
2120 1 16.7506 -17.4281 11.3711 -0.787511 5.74634 -1.23083
3014 1 21.6427 9.96649 22.8771 0.415498 -2.66508 1.88756
3475 1 23.1844 -13.8236 18.7931 -4.4888 1.37527 -2.16709
2140 1 11.1224 -15.51 17.4291 4.28569 0.116279 -1.41369
2144 1 4.47962 -2.31584 6.17465 3.15813 -5.64157 0.787125
2145 1 19.8811 10.3051 20.6094 -1.39076 -1.60408 -1.45669
2504 1 10.3946 10.4618 10.926 -2.35713 0.0964464 -2.31732
2147 1 3.59766 5.29635 14.8061 6.31795 -1.47118 -2.80298
2148 1 11.6241 -22.4299 20.3967 1.15323 2.99803 1.77718
1651 1 13.3296 -18.5095 0.947901 -2.04958 -5.88802 1.28725
2155 1 16.4152 3.0686 16.9506 -4.36553 0.763618 -0.787568
2159 1 3.19197 -19.5535 10.2195 1.07597 2.60338 0.0444793
2163 1 7.08306 -7.96369 12.7727 4.2277 -2.75554 -4.49138
2175 1 12.727 -23.2365 12.6072 3.5781 -4.0383 1.94402
2176 1 10.2524 -19.652 15.8689 -1.78416 -1.60006 -3.18522
2179 1 12.1519 -4.15957 6.08251 1.90399 -2.26397 2.34463
2183 1 5.6558 -2.5864 8.89009 6.36152 5.64334 -0.155278
2185 1 5.89704 10.1122 19.1554 -2.49794 3.0211 2.35343
2187 1 16.5922 -4.72745 8.19527 1.83747 -0.731607 1.74254
2191 1 12.836 9.71595 2.84747 1.34679 1.09914 -3.22618
2883 1 11.0694 -14.5694 1.12876 -0.340337 -3.52997 -3.70433
2214 1 9.54363 10.673 21.5729 1.36096 1.68204 0.821871
2217 1 11.5839 -10.595 19.1292 -2.08334 3.31578 2.46193
2221 1 19.7916 3.72127 20.1485 0.079788 1.20071 1.61703
2222 1 2.55903 8.03029 5.42794 1.37982 -2.99055 0.866348
2226 1 20.837 -1.96737 14.5711 0.344732 -4.68241 4.55143
2229 1 19.4502 7.31241 14.0856 3.50806 -0.108733 -1.75516
3263 1 22.4924 2.37336 19.1143 3.92163 -3.50174 1.66755
3964 1 8.80319 10.5211 15.7875 2.56112 -7.18282 0.748753
125 1 14.8071 8.72897 0.802865 1.40302 -1.7361 1.45197
2250 1 1.09345 0.978421 8.17589 -0.775154 2.45761 2.70409
3938 1 17.9017 10.5088 16.1713 -4.62399 -3.21129 0.651283
2286 1 5.96566 -8.12126 3.93093 -1.27119 -3.36141 -2.98144
2290 1 15.398 -8.34856 19.4598 4.36056 -1.93254 -4.56185
2293 1 2.56653 5.96625 11.3855 -2.13825 -3.984 1.59231
2301 1 4.53296 -22.0243 21.2042 -0.417972 -6.92099 0.77365
3895 1 13.2127 -4.13915 0.391588 0.720866 4.04273 -2.27065
2310 1 7.17578 -18.9851 9.29102 1.6388 1.18623 -2.70642
2311 1 7.57144 0.434683 0.659957 0.0298897 -1.06286 1.76911
2319 1 6.68193 -9.4971 8.85976 1.83727 0.337394 0.109994
2329 1 8.30328 6.16799 12.4848 3.00341 2.22639 -1.44934
2330 1 13.1784 -22.5548 15.2333 1.12253 1.55312 -1.20041
2332 1 20.0935 -14.4087 11.9723 -2.04586 7.27715 1.61488
3878 1 10.3839 -21.7092 7.54061 -1.53167 6.82767 -0.697817
2340 1 8.43109 7.68873 14.823 0.815982 -0.99068 -4.74204
1225 1 -0.252674 -16.7464 19.3777 0.567292 -5.65823 -1.93036
2348 1 9.26713 -1.10016 4.4933 -1.471 1.42852 0.0472504
2353 1 14.5423 -1.27108 6.70178 2.10419 -2.1786 -1.84708
2359 1 8.7217 10.5244 8.11984 2.66813 -5.39927 -4.76876
1418 1 17.9246 -6.73995 1.30472 5.25591 2.14325 1.37352
3776 1 9.15454 -4.00559 16.3543 -2.56258 1.11028 2.09239
2369 1 21.3949 5.33401 14.4184 -0.309163 5.27239 -0.165891
2378 1 7.39678 -1.92379 16.9789 -5.06672 0.100974 -0.177256
2380 1 10.255 -12.9955 22.2868 -0.148605 6.14305 3.886
201 1 7.70052 2.03041 22.7476 -1.356 -2.79712 3.9188
2718 1 9.05921 -15.3498 23.5518 3.44518 -5.11033 0.0386508
2386 1 1.74914 -3.11409 5.80268 1.70616 3.07357 7.63015
2389 1 7.75438 -12.5354 11.9766 -5.43934 -0.885785 0.886609
2393 1 4.45662 -16.8894 19.5919 2.86466 -7.34513 -0.52326
2400 1 11.3546 -3.76037 14.4922 0.865101 -2.16506 -0.284419
3909 1 4.15602 -11.7174 19.5283 -3.3644 2.41002 5.50422
2427 1 15.2263 3.48626 3.64129 3.69149 1.83768 4.66389
2428 1 10.9993 -16.2089 14.1829 0.13903 4.04092 -0.391275
2433 1 21.8876 -21.8262 21.3609 0.467832 -1.28258 -0.989037
250 1 0.134015 -0.702537 5.99167 -5.12228 0.712695 4.35758
2449 1 18.5329 -22.4792 13.7842 2.02694 -3.41355 -4.35966
2025 1 4.70706 -11.5142 23.0064 -5.3957 0.190188 3.20926
2451 1 8.83159 -22.0481 5.0156 -0.280288 -1.26869 -3.33007
2455 1 12.7207 8.02623 15.3758 3.83113 -1.9319 -2.67456
2467 1 0.97754 -18.3456 11.7049 -0.686816 0.516449 0.814486
2497 1 3.73044 6.28028 17.6069 2.2539 1.17229 -1.46212
2511 1 4.25962 3.52055 18.1072 3.54316 -2.39913 -1.99175
2513 1 21.2068 8.40131 5.52848 3.5519 3.00174 -5.29481
3832 1 23.0442 -2.03922 1.7066 3.86083 -3.08636 -2.20554
2515 1 3.15302 -20.5299 1.81257 0.281581 -0.0783981 -0.854474
2521 1 10.7479 6.52529 16.5852 -1.18526 -1.65916 0.661118
2527 1 6.79889 3.55506 8.29363 -1.48103 1.88224 -2.08263
2535 1 15.5625 -6.00786 15.6501 -0.854373 -2.43552 -2.30908
2539 1 16.7023 -13.3303 17.4958 5.38489 2.46007 3.11236
2540 1 21.3132 -9.72665 15.3325 4.59737 -0.498111 -3.05314
2541 1 4.41762 7.63846 13.2356 1.17733 2.51541 0.365765
2544 1 13.1458 3.31017 6.08209 -2.86574 -1.83722 -0.252918
2560 1 20.7854 -22.0878 9.26502 -2.43926 -3.6572 3.22665
1613 1 1.3988 -16.0401 2.7331 -0.151075 0.068585 1.71053
2571 1 12.6721 -2.09719 21.525 -1.25013 0.154119 0.0972926
2585 1 16.3424 -16.601 21.3007 -2.52977 -3.10026 -0.516468
2587 1 16.3474 -20.7486 7.35614 -2.01275 1.23241 0.611037
2594 1 21.797 -6.748 15.6846 -1.14207 0.660352 1.74032
2621 1 4.75036 -22.2855 6.41859 3.60667 -0.144827 3.59901
3130 1 22.8719 -10.4206 10.4182 0.363416 2.09628 -1.73715
2706 1 2.4537 -18.6474 22.8398 0.175715 2.26246 2.56903
2645 1 5.83582 -22.7842 14.8118 -1.07205 -0.503091 -3.08087
2648 1 16.6134 0.270075 3.17436 -4.36354 0.509687 1.39045
2661 1 5.97859 7.36021 19.6994 2.09665 1.46524 3.58288
2666 1 19.7589 -20.4892 1.80391 -1.80543 -7.15252 -4.79714
2669 1 4.77955 -9.03155 18.2491 -7.57032 0.449325 1.25514
2672 1 7.00559 -6.23908 10.4016 -1.97216 0.511223 -1.18601
3969 1 18.1401 -21.2591 21.0902 0.348297 7.97649 -0.653319
3786 1 19.1341 6.05009 18.5323 -0.560294 3.08113 -0.985193
2695 1 14.0786 6.3352 13.3533 -4.02386 3.85803 3.98519
716 1 1.28585 -23.2107 9.23822 -1.37277 2.12919 -2.90606
2698 1 15.1997 -13.6926 20.8808 -2.27623 0.0062263 -0.834439
2704 1 3.10029 -23.6433 2.16753 1.56858 -0.822173 -0.746167
2797 1 16.2972 -9.89212 23.679 1.0335 0.462869 -2.13357
2709 1 16.6892 -2.37783 18.1712 -1.30903 -0.110354 -1.98262
2719 1 20.8839 -11.6972 2.84081 6.68273 -5.59814 0.369574
2721 1 3.66001 -12.9606 10.1045 -6.36922 -0.885935 4.188
2728 1 21.1081 -3.9944 11.2886 -0.881932 1.25917 -4.68357
2732 1 0.556341 3.54011 6.46773 0.975216 4.19418 -0.490727
2734 1 17.976 -10.5436 21.3011 -1.06335 -1.99677 1.92251
3932 1 23.432 5.5062 12.6123 0.538913 1.19381 4.61127
2755 1 3.86042 -15.0715 16.3414 4.49185 1.49755 1.91878
2757 1 18.5482 -18.4656 21.194 -3.83271 1.59221 -2.16571
2766 1 9.79132 7.8083 19.2052 2.3623 3.29421 -0.862545
3682 1 23.3552 -22.9023 17.7048 1.55487 -1.73585 0.0926923
2782 1 9.0785 -8.86421 14.4843 -6.74359 2.90955 -1.91603
2786 1 5.84649 -3.66921 2.38789 2.14952 -7.51643 -3.2195
2796 1 17.6145 -15.3822 13.0281 1.00338 -1.5681 1.83694
3898 1 19.5552 -1.87777 17.1017 -2.2101 1.70027 5.14687
2816 1 6.19987 -14.8827 18.3426 -0.0377167 -0.285868 3.85044
2818 1 1.2315 -2.02096 0.783958 -1.31884 -2.3727 -4.9582
3953 1 21.0461 -18.858 15.1536 3.40568 -2.70795 0.485077
2823 1 12.3195 -14.1193 5.30401 2.68019 3.89974 -3.89533
3745 1 4.32117 -10.2343 9.91029 -1.41069 4.79115 -2.28587
2829 1 18.1394 -21.0276 9.38995 -1.17371 -2.92394 -7.5909
2838 1 16.8879 -12.8943 22.9712 -4.84745 -2.47454 1.59941
2857 1 17.5515 9.37967 7.9858 -0.742203 -0.581557 4.44071
3817 1 2.61016 8.13127 1.55106 3.63726 -0.497355 1.06886
1677 1 21.7167 -18.4117 10.3278 -4.58579 -1.90569 -0.0717919
396 1 9.08185 -20.2161 1.2742 -3.26683 -1.52138 -2.64211
2872 1 6.49807 9.00253 8.85813 -2.77709 4.70353 2.76649
2877 1 12.2021 -5.79361 3.82379 0.451025 1.43708 -0.526775
3866 1 11.6818 -15.9802 7.48705 -3.02167 1.37494 -0.196867
3075 1 18.843 8.90615 23.0567 -1.39888 2.48977 0.259518
2889 1 5.50092 -4.98836 6.71115 2.9122 -0.375411 0.964192
2891 1 7.49618 -5.39826 14.576 0.368192 -0.592016 -2.37738
2906 1 11.6693 4.96048 18.8705 -0.730705 -0.988249 -3.80431
403 1 14.5727 -1.05644 23.5536 -1.46697 5.4362 -2.21206
2914 1 1.8438 -1.48235 10.1261 1.83662 -0.49601 -3.50188
2925 1 19.5536 -7.68105 14.1768 -3.91935 3.86884 5.96891
3784 1 13.4302 1.95898 1.83061 -1.44339 3.39275 -3.12955
2929 1 5.37221 -13.743 7.9586 -2.25285 3.85347 0.649143
2931 1 0.0439565 -7.83364 23.7015 -3.84662 -0.379333 0.35969
2384 1 7.4655 -12.6469 23.3129 3.86261 1.0684 -0.890898
536 1 0.576364 -8.48645 2.22002 1.80889 -0.152479 1.71419
2944 1 8.45416 -23.6291 14.3128 -0.105369 -1.58594 -0.305564
2946 1 14.8962 -1.55248 10.8713 2.45721 -0.502485 2.73554
3899 1 5.96699 10.6491 16.1624 0.919692 3.23821 1.70815
1485 1 9.16549 -10.4202 23.3742 -0.822028 -0.105741 2.24961
2955 1 11.6161 -7.53198 15.316 1.88264 -0.913248 -2.96004
2957 1 1.69756 -19.6165 14.3993 -4.50892 -6.42125 0.974062
3773 1 2.18416 -2.93479 15.8931 -3.53658 2.47298 -0.523754
2373 1 13.3086 10.259 17.0399 1.95342 1.30168 -5.36529
2979 1 5.6784 7.90092 15.8571 4.61802 -4.93013 3.28573
2990 1 13.1253 -17.3585 15.8736 3.34485 0.750448 1.54348
2991 1 4.63054 1.96162 11.2904 -0.17812 1.40856 -2.81301
2994 1 20.4334 2.87904 13.5559 -0.235169 -1.90852 -0.646743
2996 1 12.6244 5.82265 5.13781 -5.92345 -1.97376 4.8283
2998 1 1.58481 -15.7774 12.6424 0.737588 0.976374 -1.60896
3013 1 13.2722 -18.9273 22.7477 -2.48283 -0.359568 0.828837
3022 1 15.0525 -11.6176 0.797752 -0.198391 -4.96167 0.117828
3024 1 22.1755 7.01907 1.56674 -2.2786 -3.24362 0.728492
3025 1 3.75394 -22.3852 10.4954 -3.93767 -0.499906 0.203384
3026 1 0.519427 -22.6992 6.42628 2.25462 0.965964 3.90226
3027 1 13.0187 2.89158 10.4342 1.60735 2.2519 6.38383
3029 1 6.87023 3.55878 12.503 0.326847 -3.75112 0.201103
3839 1 18.5713 5.35165 2.31924 5.71921 -1.46152 0.327692
3040 1 6.60398 -20.5382 12.9094 1.95197 1.9019 0.781013
3048 1 8.83278 -11.227 18.5726 0.939196 7.38402 4.48093
3050 1 2.5419 -22.5196 19.1312 1.8497 -5.19296 -2.60563
2067 1 22.6489 7.7789 21.2496 -3.33738 3.14909 -3.1138
3055 1 18.9516 2.69963 5.52627 -0.51184 0.581057 -2.17564
3057 1 17.3963 4.72042 21.2853 1.71605 -1.08892 5.81895
3058 1 12.3085 -4.72976 8.76792 0.0661903 3.42999 -3.63508
2827 1 4.61028 -9.05686 21.2355 0.858595 6.88778 4.46434
3764 1 16.6739 -10.9722 18.7422 2.22764 0.497201 -1.21
3072 1 2.83693 8.71958 19.2121 3.58267 -1.6172 1.81413
3088 1 11.0098 3.52534 15.6256 -0.751269 -2.6706 0.888879
3089 1 12.3184 -19.0777 13.6514 -0.367538 0.151778 -2.25958
3094 1 14.5149 4.26464 18.8055 1.09383 -2.19312 -0.41082
3102 1 2.94056 2.79602 21.5028 0.401144 -3.35106 1.91992
3107 1 20.8762 -13.8072 23.7154 1.02884 -2.15094 1.10553
3109 1 3.276 -0.104385 2.09158 -3.98316 -4.14595 2.89971
3110 1 5.67092 7.30903 1.77421 1.78919 -0.0299624 -0.965403
3118 1 4.532 5.04984 7.53695 0.72593 -0.569266 -2.1553
3127 1 15.8926 6.2819 1.89712 1.97694 -1.19199 -0.859495
1716 1 15.4987 -24.208 22.5669 -0.269279 2.16082 2.57165
2677 1 0.423411 -22.074 1.60026 -0.429175 1.81113 1.75613
3145 1 19.0238 -18.6135 10.0871 0.813859 -2.18531 1.07501
3148 1 8.39207 -7.54289 5.11685 1.50164 2.94059 -0.696552
3156 1 21.654 -3.93586 7.43656 -3.87897 -2.9662 2.73845
3157 1 10.0734 2.20788 2.8403 -1.75776 6.72739 -2.90835
2192 1 0.842435 1.97933 23.6605 -2.96487 -3.148 -3.3042
3166 1 17.7656 -10.0645 14.771 -2.73304 -1.00886 1.73299
3176 1 22.2249 0.768175 14.4792 -2.08528 -2.14338 -1.70402
995 1 9.10033 2.97517 0.232772 -2.60102 -2.21678 1.55158
3184 1 15.4775 -3.13288 3.65967 -0.248216 1.99466 2.57958
2371 1 16.2443 -18.8848 -0.0327801 -2.64439 -3.54939 -1.33374
3858 1 15.5136 6.40834 4.79377 -0.296 -3.35925 3.43509
2447 1 3.01693 -12.3238 16.9673 -0.0661996 -0.931335 0.248228
3203 1 16.806 9.32481 20.5818 -0.100937 2.30889 4.22379
3208 1 4.13429 -8.42549 1.25281 2.03804 0.270841 -2.18554
3209 1 11.6317 -16.5288 22.5896 -1.715 3.17827 -0.44453
3215 1 13.4286 0.567737 11.9798 -1.83242 7.88829 -5.29912
3216 1 22.7303 -2.1518 9.50376 -6.2236 -2.19429 -3.386
3217 1 11.1721 2.96094 7.99981 4.24238 -3.15816 -4.85327
3825 1 20.1412 -14.0287 9.05869 3.15084 -0.372944 1.21395
3246 1 17.6772 5.24394 6.18087 -1.94397 -4.42809 -2.20036
3942 1 10.2541 -22.4147 16.0629 -0.353421 3.02364 -4.52213
3249 1 10.6376 -0.203486 11.9491 -1.16759 -1.81852 2.80968
1290 1 0.243802 7.42302 6.95115 0.76404 3.83894 0.716321
3262 1 10.3358 7.7359 11.4032 6.34547 2.20156 2.54879
2445 1 0.845916 0.392065 21.2405 1.42928 -0.249687 -3.39614
1411 1 19.5656 1.05359 23.9722 0.110762 2.34829 0.0987168
3266 1 9.82287 -2.04733 21.1254 -3.65905 -1.40899 -5.71651
3268 1 8.94315 -22.1315 12.0768 -1.9925 0.403435 0.753192
3270 1 19.9119 -16.6001 16.5765 -1.01997 -3.09371 1.99318
3271 1 7.63632 -9.93763 20.8014 -0.67995 0.0848285 4.26183
3274 1 12.4639 -19.4099 5.75522 -5.76698 -0.394473 -2.31037
3275 1 23.0687 7.91737 11.2594 2.5529 1.0682 2.2616
3276 1 10.2022 4.00197 12.7195 0.890743 4.24627 4.98017
3279 1 8.13063 -0.159293 14.9916 -3.58321 -0.260312 -3.51442
3915 1 7.6922 -2.73602 6.46688 -1.41345 0.504097 1.46343
3309 1 3.55463 -3.71631 10.8438 -6.48809 0.850805 -4.06325
3313 1 15.6919 8.53959 11.9686 -1.00488 -1.71582 1.56908
3821 1 13.3928 -9.61111 15.1849 6.81602 5.85795 0.491771
3317 1 3.66724 0.363385 6.91625 -1.70668 -0.171096 0.523028
3814 1 1.94171 9.81946 9.84095 -1.24135 -1.8647 -0.469772
3336 1 13.8114 -15.6913 1.77344 -1.4256 1.96034 -1.01172
2589 1 -0.0782432 -6.50152 11.0664 -0.377334 0.0646909 -3.39922
3344 1 17.9125 -20.7551 17.2755 2.8406 -0.0989663 5.04455
3905 1 2.68264 -10.4731 3.02707 4.13916 -0.0788413 0.98357
3357 1 6.91033 -6.98592 21.6811 -2.72822 6.19158 -0.0872428
3853 1 19.8022 -13.6919 4.61912 1.19137 2.03059 3.35006
3368 1 22.3955 -20.2832 17.2722 2.41906 -0.989853 -0.262188
3373 1 12.9303 -6.99539 18.8888 -1.37385 0.165694 5.35107
3919 1 10.1559 -13.7594 19.4166 -4.7059 2.83078 -0.569621
3377 1 4.83721 -12.3095 12.6243 2.90073 -3.59898 1.77654
3379 1 9.57901 -6.22351 8.85891 2.31666 5.01858 -2.80142
3995 1 6.06616 -23.5763 2.31409 -3.02333 2.54349 -1.97675
3395 1 15.4549 -13.5191 12.1292 1.93293 1.98816 2.00471
3399 1 1.27149 -3.90849 2.99466 3.00312 -0.537485 0.449397
3405 1 16.608 4.7238 13.4904 2.23567 3.05682 -4.21285
3406 1 4.48361 -5.66728 3.83078 -5.21673 1.3362 3.0989
3252 1 18.0465 -23.5533 16.4098 2.70436 2.94868 3.95503
3429 1 2.63595 -20.0607 17.1786 0.71962 -0.107243 1.12097
3439 1 0.777999 -13.5283 11.1289 -0.740832 4.63203 3.34875
1627 1 16.8275 -6.41774 20.8655 0.479372 1.77004 -1.40286
3465 1 2.29893 -4.54084 13.5938 -0.576216 -0.0981122 -6.11303
3474 1 19.4695 -4.60521 14.9097 5.31552 -3.12295 -2.90501
3478 1 10.2966 -12.8563 3.59786 -1.63052 -1.02647 -1.34433
3479 1 17.4295 -7.12658 9.73026 -5.3599 4.56355 3.40486
3492 1 19.8096 -2.85335 3.42716 -1.43751 -3.43242 -0.568438
3763 1 11.7152 10.0202 5.50974 -2.073 5.05881 -2.93436
3503 1 17.634 -21.3525 3.01596 -4.07398 0.993882 -1.20102
3505 1 2.43841 -13.4011 3.1936 3.35632 -0.688981 -1.79525
3515 1 16.1254 -16.6404 8.72218 -3.26307 -2.54878 1.1594
3531 1 2.5339 5.08498 20.104 -1.03109 0.706642 0.0164091
3834 1 6.65937 7.36163 4.36957 -4.70222 4.38775 -1.34097
3534 1 6.19409 -6.40934 18.5787 1.73767 0.974442 -0.950108
3739 1 0.60237 -5.21072 7.24619 0.811316 1.0709 -2.45623
3538 1 4.96481 -5.68166 16.1356 -4.21028 1.54906 1.22037
3542 1 19.4704 0.173501 4.14266 -6.58242 -1.0178 3.52806
3559 1 9.64184 -3.65208 10.2461 3.30785 0.394396 0.0842582
3237 1 0.349178 -14.2816 21.8729 0.0761571 -2.67347 4.36515
3567 1 4.321 -10.3065 5.31179 -3.01662 0.807316 4.81831
3568 1 17.979 -0.599088 14.8546 -3.34736 2.04127 -5.29785
3576 1 18.0983 5.4349 15.8609 -2.23376 -3.2746 6.91624
3578 1 20.7433 8.53209 18.8508 -0.236482 -0.772223 -1.05231
3981 1 12.1843 -8.20605 5.23109 0.504511 0.0823279 -0.416194
3346 1 10.4853 -24.2377 1.05565 -5.89083 -1.25049 -0.92938
3585 1 10.5895 -1.09314 9.3425 -1.58132 0.328861 -2.39772
3594 1 12.3201 1.02116 4.29095 -3.10259 2.0472 1.35115
3609 1 6.53295 -11.2958 6.71292 -3.50984 -2.31483 0.339121
3622 1 7.51137 -14.4023 9.97175 -1.99657 -2.51344 -0.589713
3623 1 10.9257 -0.847299 14.8707 -4.78183 1.85333 4.00458
3624 1 23.0752 -8.26328 4.95531 -1.79527 4.59266 -1.74871
3625 1 9.96408 -17.7079 20.6159 0.52711 -5.35019 -1.36573
3628 1 10.5677 0.315818 6.75733 -5.48077 -3.56479 0.950398
3811 1 13.1985 -12.9362 23.0202 -1.01272 -1.75263 2.66717
3638 1 21.0149 -6.84369 22.3991 -0.162402 -0.302696 0.543543
3639 1 7.97769 -18.1328 6.93036 0.641346 -0.304227 -1.97546
3643 1 1.77615 5.31598 8.5002 -0.849775 -2.13375 3.55629
3647 1 18.3871 -20.3225 5.61078 -4.7172 7.06486 0.282307
3652 1 22.4339 -13.2754 14.5247 -1.00837 -3.67523 -0.783761
3660 1 15.0592 8.96652 9.32104 -0.799189 -3.65067 -3.06542
3762 1 10.0176 -10.8776 8.85193 -2.67395 2.01275 5.81614
2114 1 0.237578 -21.8829 20.8715 0.0964656 -2.53305 3.48805
3743 1 4.25908 -15.1434 13.1952 -0.39195 4.79539 -0.517655
3867 1 22.2198 0.279408 3.20344 1.829 2.35135 1.61436
3687 1 9.77749 -13.7342 8.65355 -2.49902 4.67214 2.80147
3697 1 8.1017 5.01614 4.9745 -0.211547 -2.33797 -6.44861
3701 1 17.2819 -2.36798 9.83705 -0.288432 1.94488 -1.45178
3704 1 18.7934 -2.34652 12.4263 -1.43203 5.8844 -1.56901
3705 1 5.45899 -1.15612 3.64073 -0.0484032 4.05127 4.33815
3708 1 6.20269 1.46636 6.56206 3.12298 -1.78426 0.600202
3722 1 20.6091 -7.54039 6.20451 -2.78113 1.47602 4.72535
531 1 23.2008 -9.99137 13.1341 2.44763 -0.352111 1.78716
3730 1 14.1646 -4.84572 12.3585 1.27593 0.656214 4.35364
1042 1 11.998 -7.5263 23.0496 -3.11494 -0.0915933 -2.10196
352 1 15.2689 0.296942 0.559444 0.137404 0.844497 0.942681
1815 1 12.0332 -4.4583 23.1442 0.42551 8.0576 1.04788
488 1 -0.341284 -12.3732 18.5048 -0.461456 1.05198 3.95425
3132 1 2.67085 10.8581 4.93213 0.041993 3.16879 0.518189
3223 1 23.206 6.81028 18.1708 -3.95482 1.26306 5.30472
1 1 23.6258 -22.9897 12.7317 -0.249236 6.46104 -5.44683
3555 1 23.564 -17.9622 2.86682 3.4436 0.439886 -0.439758
552 1 2.42817 -16.6403 0.0807978 -0.970895 0.332699 -3.11605
923 1 4.48964 -11.0183 -0.0629203 -3.1777 1.53052 -0.210313
24 1 10.6227 20.417 -4.56991 -2.86746 -1.79178 -1.77169
85 1 5.10492 13.584 -2.20398 1.77986 2.19443 3.69679
4175 1 -0.0478554 37.1255 -9.0749 2.95384 -0.772661 -1.18477
91 1 17.2731 19.1881 -20.7487 3.41475 3.67348 -1.25648
105 1 4.63654 18.564 -19.6869 0.697641 -1.89764 3.29047
117 1 19.1562 15.6555 -20.0657 4.14533 1.03215 0.0443417
166 1 7.62702 18.826 -20.1011 2.81171 0.988633 2.05649
3511 1 14.5135 11.5779 -2.41969 -1.13328 2.55571 1.68123
169 1 4.82825 24.4896 -12.2587 -1.50155 -3.89234 -1.57099
183 1 20.5189 14.528 -2.64443 6.29577 2.31833 -0.924968
186 1 15.5309 24.906 -12.7265 3.54601 3.30302 -0.803996
194 1 0.67013 24.3866 -19.4936 2.10146 1.37011 -4.74069
1026 1 0.774602 11.9908 -10.1734 -3.50758 -4.63332 -1.91745
252 1 18.0164 16.2404 -13.5746 3.42846 1.83859 -2.38328
271 1 2.57491 23.4225 -13.4037 -0.0500266 0.759775 3.49218
275 1 12.0706 23.38 -20.771 5.52796 7.24613 -0.844512
2094 1 22.183 12.1921 -3.27021 4.31313 -2.41073 -1.93946
306 1 12.934 21.1973 -12.7755 -1.37415 5.1873 3.03398
4151 1 0.153956 32.5101 -8.79503 -1.26826 -0.779514 3.15843
336 1 17.9241 15.736 -22.4567 -0.916604 -1.10819 1.34554
354 1 9.75169 21.1707 -7.13466 7.91855 1.39121 2.34754
367 1 6.55594 18.607 -17.3879 1.83823 0.775496 2.13572
380 1 11.8959 16.3795 -21.3777 1.09035 0.819725 1.37847
382 1 16.9593 17.8873 -3.24356 -1.18923 -2.09579 7.93879
414 1 4.69581 18.8118 -15.1346 -0.271272 3.16676 -3.63168
428 1 10.5187 12.9515 -5.44748 3.80596 -1.66316 -0.744641
437 1 17.8306 17.5809 -11.248 3.50308 -4.14748 0.0686317
466 1 13.7597 12.9422 -22.8551 2.72548 -1.66595 -0.180368
578 1 22.6992 20.2728 -22.5714 5.43194 4.15892 2.98794
1849 1 12.6293 46.6029 -11.3808 0.232234 -5.50426 -1.49029
1318 1 22.7634 20.5593 -1.64755 -0.567011 1.32655 1.75104
507 1 12.5044 20.2426 -15.5696 2.74898 -3.03307 0.211533
509 1 22.5289 13.929 -20.0124 1.62693 0.461241 -1.45809
554 1 3.2773 16.0772 -18.3518 6.57786 -1.52379 -2.71253
1505 1 18.0901 47.0979 -21.6836 -0.0514703 2.97169 -0.911578
586 1 16.131 23.1778 -20.8981 0.492326 -0.579738 4.25455
635 1 8.31788 12.2471 -3.68798 0.604175 -3.81057 -5.96494
638 1 14.7635 18.3284 -5.07754 4.56473 0.110828 -3.07829
2847 1 7.24825 15.706 -1.47718 1.45264 -1.75913 -2.62229
680 1 6.41582 23.3989 -10.1601 0.0265988 4.61611 0.488162
3703 1 18.9691 13.21 -23.3693 4.0399 -2.12551 3.00697
703 1 4.19465 26.323 -21.1184 6.59866 -8.66855 -5.31697
705 1 5.41664 21.8322 -15.4789 -8.34266 -5.93861 -2.0269
736 1 4.78664 21.0715 -7.01494 3.03044 2.06941 -2.93637
784 1 12.5485 14.998 -1.67494 1.13519 1.52387 7.16828
787 1 8.29744 14.4995 -13.39 -0.0583322 -1.08031 -1.95089
468 1 22.6117 17.6437 -9.78712 1.53735 1.43447 -3.76112
2935 1 8.45498 22.7815 -0.556661 -0.216483 1.78188 0.443126
807 1 15.5482 21.6366 -23.0853 -1.8225 0.342742 2.31158
862 1 1.22031 15.6968 -7.79273 -5.33279 2.18676 -0.406945
834 1 0.0713701 11.8832 -2.60837 -4.1217 0.127455 1.74339
2244 1 23.0348 21.5885 -15.8243 0.0623988 1.37689 -2.56537
883 1 16.1646 20.3547 -6.7208 1.26469 0.97834 -0.729079
2213 1 19.7795 11.4006 -4.88875 2.47783 3.05035 0.14305
226 1 22.7846 17.7446 -13.9518 -2.04435 6.93903 1.45313
1781 1 6.12992 20.1052 -22.8456 -6.32943 2.11074 0.936305
1670 1 2.44398 14.215 -1.27459 1.56335 0.599594 -0.0535314
979 1 4.7112 25.5404 -18.301 2.03599 0.610074 0.452895
1000 1 17.5659 20.4104 -10.9724 3.77572 2.11134 -2.7145
3902 1 11.6413 11.3225 -7.44406 -1.69945 -0.91459 -1.99944
1035 1 13.609 21.0033 -5.15508 -0.726306 -2.49656 3.07558
1039 1 20.2516 24.0696 -10.3202 0.607185 -6.16397 -1.26139
1046 1 17.2701 13.974 -18.1337 0.458983 -2.83154 -0.70014
1065 1 13.8941 19.3259 -19.2926 1.59471 -2.56729 1.95204
475 1 19.7402 11.5746 -21.4409 2.63053 -2.92687 -1.99659
1096 1 8.2295 18.0116 -10.912 3.46765 1.75286 1.36977
1127 1 12.4769 21.8876 -7.36094 1.20349 -0.992044 -2.97144
1165 1 17.1836 22.7213 -1.5542 -0.378427 -0.924531 2.62217
1181 1 7.07474 20.1547 -8.13785 3.13931 -4.65305 -1.74114
1194 1 8.43959 16.6879 -6.09418 -2.13963 1.62047 1.63661
1196 1 4.18459 16.4104 -13.6213 -0.954922 -5.42909 -2.60584
1221 1 1.38846 21.5405 -20.1314 2.94094 -0.449223 0.017688
1241 1 12.2759 12.9084 -18.3068 -3.33821 4.01214 -0.410849
1243 1 6.78264 17.4083 -22.796 -1.98547 5.46628 -2.00662
1249 1 6.87642 15.0278 -21.1203 0.00170703 0.380611 -0.518783
1253 1 13.5312 25.0274 -2.43079 -3.86842 -2.03201 -2.03366
1274 1 21.1011 19.091 -20.7925 -2.03578 3.9905 5.47612
1301 1 8.57745 15.4961 -9.37309 0.12932 -6.51227 -1.11756
4127 1 -0.146066 28.2357 -9.65846 1.77803 -4.5625 3.68092
1336 1 0.836965 20.7134 -5.43224 -1.58922 3.51193 0.488434
60 1 0.551938 18.9675 -21.6322 3.52852 5.09327 -3.36679
1738 1 3.6758 11.337 -23.2245 0.42932 -0.498157 -0.125811
1380 1 15.7687 20.6773 -13.3253 1.28097 -0.374796 4.16697
1384 1 2.73238 20.8366 -11.8723 0.388186 -2.12151 -5.32398
1397 1 4.39516 23.9683 -8.11218 -0.702241 -4.15987 2.73346
1398 1 3.37686 20.5367 -4.27145 2.38651 1.80619 5.40283
539 1 18.452 14.4117 -9.79147 -0.296267 -3.14174 4.29958
1419 1 9.90112 22.9065 -3.17699 2.20285 5.19486 -1.52197
1423 1 5.09619 22.8594 -19.36 -0.8303 1.32345 -2.95398
2137 1 15.5393 16.5936 -23.6864 0.647572 2.83913 2.92827
1435 1 19.1513 23.3741 -7.88918 -4.50501 -4.31854 -3.54151
1437 1 4.00328 15.9972 -21.3431 -1.77493 1.03722 0.286537
3882 1 22.5312 16.5105 -2.66124 4.14155 -3.11965 -3.87475
1451 1 10.0298 21.1997 -11.787 0.818794 1.21259 3.47281
3140 1 1.14389 16.3364 -20.2722 1.35186 -2.92198 -4.42156
1480 1 0.342524 14.5995 -3.73559 -2.55955 -3.9209 0.583834
3978 1 -0.190399 20.2547 -13.101 0.0497581 0.819388 -0.0418504
1501 1 8.77915 17.6608 -15.7174 -2.84544 -1.1284 -2.191
1503 1 8.07216 24.5112 -22.8009 -0.245868 5.34722 -5.61079
4199 1 0.239579 41.8408 -8.68041 3.64606 0.896159 -3.30732
1509 1 10.4902 19.3642 -9.49005 4.11001 -4.32739 6.69088
1561 1 19.4095 20.6204 -8.90778 6.34899 -1.35861 -0.274187
1564 1 8.35999 13.9493 -6.87752 -1.75451 3.49107 -0.201792
1568 1 20.1005 20.2659 -12.4295 2.68118 -4.19286 -1.02857
1576 1 11.7644 21.0237 -18.6382 4.78069 4.52039 -0.517912
1588 1 3.53676 19.0502 -22.2844 4.74693 -0.408731 3.9665
1593 1 2.15039 24.8581 -17.2185 0.479403 -0.0130542 3.6626
1595 1 6.75453 14.4772 -4.4205 1.49661 -1.94962 -4.60506
1601 1 5.85603 15.8564 -17.2493 2.20866 -0.28846 -1.76559
1624 1 3.90744 22.0619 -21.9628 -1.90385 -2.43474 -8.55967
1625 1 12.4029 13.1111 -9.39028 -5.6601 5.69177 -0.377046
1633 1 19.1377 18.2293 -22.9252 2.13876 0.804811 -1.07266
2411 1 8.0568 12.0813 -17.3886 5.56145 -0.447581 1.67909
4350 1 5.71257 46.099 -1.2235 1.31643 1.32232 -0.379683
1678 1 3.38433 20.6932 -18.3555 2.82222 -0.889091 0.0225406
1683 1 12.9825 23.7022 -17.8991 -2.70749 1.80073 -3.72383
1701 1 12.1521 26.0709 -6.84506 -0.288063 -2.83953 -0.807243
1709 1 19.5559 19.3651 -3.19783 -2.03364 2.12118 -1.16574
1712 1 10.6733 14.0048 -20.2292 -1.87563 0.878051 1.43117
1820 1 15.0816 12.406 -9.28854 -1.00883 -1.44166 1.92926
1744 1 15.7325 24.1697 -9.82957 -0.362987 -6.37149 1.86826
1745 1 5.4505 14.8086 -7.55285 0.241477 -0.0647564 -0.381782
1746 1 16.5832 22.9081 -14.5667 -1.19616 -0.857137 2.92605
1752 1 21.8618 16.2748 -21.6942 -7.20426 2.31617 -5.66149
1775 1 7.99912 13.2533 -11.0289 1.11628 1.46327 -2.60812
1776 1 8.99825 13.4222 -1.05709 3.27891 -4.57142 -5.38556
3604 1 9.9767 11.9137 -21.8133 1.29283 3.41052 -3.43244
1787 1 5.38769 20.4704 -12.7491 -0.90896 -2.7424 -3.61045
87 1 0.98334 18.4228 -7.33885 -1.91372 -5.72767 0.102235
878 1 7.64983 13.0351 -22.9045 1.37607 2.02856 0.161813
925 1 2.96855 12.1333 -3.52282 -0.433193 0.36161 3.38128
1913 1 1.61045 20.186 -0.252675 -3.43386 3.16615 -0.893518
1482 1 5.16869 24.6099 -23.2431 -1.50309 -0.860182 0.0658106
690 1 -0.0446157 23.4334 -5.48161 3.32276 -1.79416 0.0872989
3691 1 19.9921 46.9518 -6.00177 -5.01674 -1.61908 -0.467162
1921 1 17.2349 15.1704 -4.84018 -2.10103 2.48055 0.882969
1943 1 2.5945 16.3695 -2.93398 0.383522 -2.06573 0.493141
1950 1 21.482 23.0115 -6.62612 -3.85702 2.69019 0.908344
1964 1 20.2174 24.5194 -18.0022 -2.27202 0.152321 1.97497
1981 1 15.3813 23.1758 -3.61199 2.17952 7.27871 -4.72079
1993 1 2.48446 13.9628 -13.7749 -0.633192 -1.86431 -0.385558
2027 1 5.18152 17.7958 -11.1339 2.68552 4.58649 -0.397123
3272 1 2.02326 13.4123 -5.92093 -5.47151 -5.29825 -1.59181
2048 1 1.82204 14.3734 -16.624 0.813503 4.49453 4.10822
2049 1 16.0207 21.2114 -18.7948 -1.04492 2.20446 1.53171
2089 1 8.3323 14.648 -18.5582 1.09839 4.48645 -5.0246
3073 1 2.75339 22.6464 -1.07256 -4.03138 -2.24517 0.425775
2138 1 14.7753 22.0484 -16.4587 0.247671 1.72224 1.58607
2152 1 8.60286 23.5028 -5.80465 1.61435 -5.77147 1.78
2165 1 17.9893 18.5524 -16.6587 3.23869 2.54305 1.75791
2583 1 7.83133 18.6932 -0.767907 -0.996572 -0.815616 -3.00421
2184 1 14.0442 16.4899 -19.5458 -0.764099 -0.91904 -0.541039
2189 1 2.61431 18.4267 -9.7736 2.73301 2.84396 -0.952912
2198 1 3.39671 15.8511 -5.66581 -2.135 1.81182 -0.910055
2208 1 17.4113 22.5014 -5.51777 -1.40275 -2.21445 -0.560379
2215 1 10.1189 18.34 -2.7978 0.919598 3.01634 1.58166
2220 1 -0.088718 18.3545 -15.4565 0.267616 1.13285 -2.55482
2230 1 3.9471 19.3289 -1.56048 1.86044 1.22641 1.54802
2238 1 14.5796 13.7681 -16.2758 -0.664335 -1.50663 2.61515
2243 1 10.8032 23.9657 -11.2544 -1.54849 2.06346 5.94757
2808 1 3.1831 46.4081 -11.4433 6.94767 -2.67905 6.93017
2246 1 2.33704 18.6034 -16.7996 3.68623 -1.37166 1.36132
2256 1 14.7591 19.0838 -22.1625 3.40672 1.62525 2.57374
2260 1 20.3194 17.7042 -18.3189 0.298433 -2.65101 3.97232
2345 1 5.92328 14.5913 -14.8314 -4.49307 2.3887 4.54705
2394 1 18.2027 18.6501 -7.48977 4.76799 -1.96057 -1.28573
2402 1 15.4673 14.7995 -21.4488 3.54952 -0.206052 -2.01572
4352 1 10.6046 43.4135 -1.21203 -4.04036 0.669249 -2.04119
2432 1 16.1183 12.2993 -20.1716 3.31224 1.03927 0.0390436
2452 1 12.1204 16.6476 -12.7354 3.31497 3.04231 -1.76763
2464 1 9.62917 20.1987 -14.8392 1.63865 -0.286415 -1.65139
1069 1 23.2337 14.4836 -23.6875 -0.853038 1.5677 4.10845
2489 1 7.34822 20.7145 -10.8192 5.10766 -2.2599 -4.8769
2493 1 18.9043 23.953 -20.3475 1.15649 -0.823343 -5.21932
2503 1 15.1125 16.668 -1.52885 6.34401 0.850892 1.14336
2508 1 12.9108 24.4054 -9.00588 -2.75795 2.76248 0.690511
2524 1 7.46152 21.6957 -20.5616 5.71878 -5.74024 -2.80219
2549 1 4.32931 12.2276 -15.0919 -1.58962 0.355254 -1.50277
2554 1 16.6294 24.8008 -6.91053 0.563769 -1.20657 1.89251
2555 1 3.82558 18.3134 -6.87184 1.16394 -3.97265 1.06553
2577 1 13.9477 20.7873 -2.23562 3.62098 3.25443 -1.40146
2640 1 4.86689 13.7933 -19.4281 2.36647 0.269394 -3.46359
2033 1 10.1736 16.4065 -0.773741 4.87656 -0.654777 -1.83784
2676 1 19.3142 21.1789 -20.8156 2.60164 -1.32986 -1.28843
2693 1 7.17082 21.4677 -17.5903 -3.80707 -0.810996 1.44858
168 1 21.9326 22.71 -3.19959 3.36063 -0.657755 -0.904679
3473 1 22.8227 23.1353 -22.099 4.82264 1.02768 -3.00515
2764 1 9.48597 23.1577 -13.8574 0.690614 2.67527 2.70304
2791 1 19.9408 14.2565 -5.52413 -0.0459458 0.459885 1.14261
2794 1 6.47483 17.3805 -8.37884 1.38642 -2.45298 0.0233568
2795 1 19.9477 13.0904 -18.9708 -3.63053 -0.403359 0.668316
3482 1 16.6661 20.2828 -1.096 3.772 3.73532 -4.21013
2810 1 6.87349 24.2543 -14.6663 3.58939 3.25091 4.33258
2825 1 13.1378 20.6323 -9.99246 -1.40771 1.2511 0.134729
1029 1 11.6138 12.1023 -1.85046 2.57221 -3.79334 -0.784695
2916 1 15.6974 21.3201 -9.21444 0.87906 -5.31062 1.37429
656 1 -0.306649 23.8057 -10.0982 -2.93933 -0.574968 0.24269
974 1 -0.335066 23.2863 -12.827 1.48567 -0.268125 -4.26035
2978 1 13.5065 17.44 -15.106 -0.28227 5.40944 -3.087
2989 1 19.9837 18.0675 -14.5621 -0.967538 1.12328 3.43961
119 1 16.9892 13.6983 -7.43873 3.22665 3.02544 1.08908
3004 1 16.6375 16.9506 -18.6666 1.22539 0.51961 2.79424
3023 1 4.83497 17.9975 -4.14512 2.77414 -1.31874 1.96274
3063 1 9.3174 24.9631 -18.049 6.09234 -0.212203 -0.814295
3067 1 17.168 14.1415 -15.136 -4.42903 4.6275 0.210251
3068 1 21.231 18.3907 -0.906957 0.45478 3.0085 1.16725
2992 1 19.7072 11.81 -12.1841 -2.67337 1.54272 0.0345599
1526 1 19.9382 23.406 -0.84684 1.85891 3.03328 2.86784
3142 1 1.61622 25.8567 -21.8266 -0.465662 -1.048 2.14299
3143 1 20.6667 24.6802 -22.4563 1.46634 -1.98773 3.23822
3183 1 19.3725 17.3421 -5.14171 0.602276 2.57923 2.18963
3206 1 14.9242 13.2287 -4.6018 2.87092 -1.82092 0.598418
3227 1 5.9294 23.4164 -5.59733 -1.28025 -0.889445 -3.74543
3238 1 21.7759 20.5432 -5.21895 0.358306 -2.57792 2.66681
3244 1 21.5559 16.3454 -16.2838 -1.52949 0.317185 -5.53695
3269 1 7.54365 17.6655 -3.48389 -0.801962 -4.70543 5.30862
1405 1 18.6586 21.1005 -23.469 -6.70316 -1.4346 3.3355
3284 1 14.0627 25.2442 -20.0662 0.842049 0.0620619 -2.72338
3285 1 2.70144 22.4334 -16.1515 -1.06254 1.91382 -0.885646
3291 1 21.2509 22.5583 -13.9079 -3.05412 2.46807 -0.320365
3339 1 10.5903 18.6704 -20.0179 0.940859 2.33553 -4.82065
3341 1 21.6769 20.2814 -18.07 -0.116798 0.405361 -5.12894
3345 1 12.661 21.8497 -23.27 -0.434116 -0.91283 -1.14073
3349 1 12.7969 17.6458 -10.1059 -3.0355 1.3985 1.57344
3421 1 9.55057 16.921 -13.2738 2.06548 -1.96489 -0.209359
868 1 0.617337 18.2002 -2.04659 2.80806 -1.3325 -4.84929
3434 1 11.4568 15.6935 -8.74171 2.3482 -1.99732 -0.594207
3437 1 12.8567 16.6209 -6.45146 -1.18501 -4.55446 -0.450823
3440 1 2.73522 21.5598 -9.10431 3.47779 3.28657 -4.70785
3449 1 7.04633 26.057 -16.9066 -7.46898 1.8206 -0.137884
3456 1 9.22336 23.8417 -20.5352 2.87206 0.610964 -0.564736
2670 1 22.3926 23.0913 -18.9599 -3.6504 -3.60912 -1.63269
3483 1 12.0533 22.7578 -1.38162 0.255917 4.62747 2.36902
3488 1 15.9196 14.4815 -11.0593 0.473999 0.419723 0.911194
3500 1 19.8361 16.9176 -9.29436 0.158684 4.40809 -1.54681
3521 1 1.06792 16.3684 -13.5867 0.675562 -2.01167 -0.952232
3820 1 21.8077 13.3615 -7.73167 -4.01411 4.47327 1.98458
3526 1 10.5097 18.5195 -6.69733 -1.24156 0.814594 -3.70455
3539 1 12.9064 24.0308 -13.1794 3.91681 2.29358 8.56734
3546 1 20.0683 14.6746 -12.076 -3.30917 -0.808455 -3.73821
3554 1 13.7891 14.2363 -13.5044 4.2088 1.20928 0.559496
3599 1 12.5189 14.5998 -4.71823 -2.47486 0.796493 0.286444
4342 1 6.21551 46.0015 -8.24034 -1.30137 1.18833 8.80117
3608 1 18.8513 21.1389 -17.6394 -4.34279 -1.9954 -1.27288
3644 1 19.1271 22.1002 -3.55587 4.54745 -4.03692 -0.710605
1816 1 0.101774 18.094 -11.4077 0.9186 4.9748 -2.24243
3657 1 22.6241 22.9161 -11.576 -4.46226 -6.72877 0.621495
3667 1 12.7091 15.7968 -17.1895 -0.541552 0.737569 -0.209829
3676 1 15.4376 16.8627 -9.76705 -1.05561 0.0764849 5.32363
3894 1 11.6363 12.3299 -13.0455 -6.4253 -4.53778 3.81273
2421 1 23.1712 16.036 -7.30872 -3.34384 5.42411 -1.88004
3693 1 4.97612 22.6446 -3.1359 -0.0373935 -0.866002 1.28246
4351 1 10.3549 46.0673 -1.51081 2.23266 -0.414177 2.04627
3712 1 14.2981 25.4166 -5.28701 -3.79933 3.77658 2.85621
3734 1 15.6144 16.1583 -6.93125 -2.24001 -2.44191 -3.20569
3750 1 11.3863 24.496 -15.7345 -5.92189 1.75546 -0.992336
3778 1 3.0421 13.4516 -10.9506 1.08056 -0.998891 0.329309
4223 1 0.229894 46.7872 -8.69106 1.81399 -1.70332 0.420708
3787 1 9.79992 22.212 -16.6833 -2.05557 -2.99593 0.673079
3789 1 19.2369 23.2076 -15.7553 -0.709337 -0.131633 4.79034
3799 1 17.8875 23.2651 -11.5857 -0.704263 3.74094 -0.848965
3801 1 3.58873 15.6889 -9.64079 -4.80716 -2.56053 -0.981107
2487 1 3.86562 16.7353 -0.325619 -1.96403 0.661916 0.258319
2892 1 22.0077 20.3956 -10.0473 0.95023 2.01971 0.262766
3854 1 17.8692 15.4094 -1.81395 -1.4227 -0.555968 -0.286082
3883 1 22.6488 15.6426 -11.8909 0.837344 -1.07027 -2.02792
3564 1 19.9013 14.0362 -16.1924 2.39996 3.21438 0.315454
1395 1 0.213481 11.258 -7.34629 2.73672 -3.63897 -1.10858
3927 1 12.9249 18.0564 -2.87549 2.56762 -0.30858 -0.000916941
1444 1 11.8494 19.1395 -22.6807 -0.00973372 -3.62127 1.16503
3948 1 10.3467 16.7324 -17.8434 -1.76573 0.994138 2.64561
3986 1 16.1405 18.2978 -14.6103 -7.84471 2.10099 4.00973
4123 1 0.523313 28.0198 -5.23236 -0.878024 -0.830917 -3.59419
4124 1 1.31687 25.604 -6.088 -3.30507 -3.61961 -4.05589
2928 1 22.9554 45.9755 -10.3412 5.20358 -1.68813 3.72388
4128 1 1.23683 25.949 -9.04845 1.37543 -3.2286 -3.06168
4135 1 0.680277 27.8418 -2.33942 3.47286 0.564563 3.17003
4136 1 1.46052 25.2828 -1.42606 -2.26863 4.19502 0.481614
4147 1 0.147681 32.4676 -4.70842 4.27333 -0.0411007 -2.07454
4148 1 1.67369 30.5881 -5.85713 -5.24159 -5.71939 -1.87944
3260 1 17.0888 47.1574 -6.60043 -0.80727 4.75667 1.73061
4152 1 1.58242 30.2288 -8.72863 -3.08025 -1.93299 -0.0146922
4159 1 0.459006 32.249 -2.02413 4.21959 -3.19667 -0.160049
4160 1 2.04276 30.0791 -1.29054 0.232206 3.01069 -0.701964
4171 1 0.48672 37.1735 -4.48838 -3.49695 -1.35325 2.32605
4172 1 1.85969 34.8883 -5.56887 -4.61876 -2.42011 1.2962
4252 1 9.46635 25.4138 -0.40202 -7.90141 2.44302 -4.12202
4176 1 1.4498 34.8857 -8.40392 2.1882 3.02534 2.29845
4183 1 0.60616 36.6021 -1.83513 3.77706 0.949198 0.297564
4184 1 2.18839 34.4063 -1.06898 -0.602826 -3.21179 1.79588
4195 1 0.547013 41.4788 -4.85151 1.84388 1.68076 -0.655055
4196 1 1.87433 39.2115 -5.62081 -6.29036 3.68081 0.106045
2460 1 9.30314 12.1194 -14.6784 -1.56013 9.04703 -1.29403
4200 1 1.57355 39.456 -8.62065 0.93568 1.27755 2.99231
4207 1 0.736493 41.3 -1.96952 -1.4758 1.15223 3.0317
4208 1 2.06557 38.9788 -0.964724 2.11982 2.4642 -1.22488
4219 1 0.683939 46.6742 -4.47501 2.04255 1.16958 2.00311
4220 1 1.70991 44.1482 -5.40874 1.90061 3.84796 0.782176
1353 1 6.40159 21.0628 -1.14464 -6.87799 6.90693 -1.87055
4224 1 1.34788 44.1073 -8.28471 -0.690209 6.00373 1.8917
4231 1 0.985663 45.9164 -1.72672 2.23126 2.2234 -4.3384
4232 1 2.13272 43.467 -1.18255 2.57197 2.38344 1.36332
4241 1 4.26697 25.8856 -5.94743 -0.210329 0.0596976 -2.24689
4242 1 5.49044 28.3967 -6.68271 -0.460988 3.32135 -2.58249
4243 1 8.23807 27.84 -5.74702 -3.3184 -1.88738 3.22465
4244 1 9.30102 25.6963 -7.21185 2.35243 -2.24316 -0.834795
4245 1 4.01572 26.1053 -9.90108 -1.10562 -3.48279 0.100761
4246 1 5.38728 28.372 -9.52841 2.44753 8.53949 1.21443
4247 1 7.9817 27.9667 -10.201 1.58165 2.05502 -1.54735
4248 1 8.61832 25.106 -10.0285 3.88704 -0.629114 3.37592
4253 1 4.19813 25.5351 -3.13262 -1.14392 -2.22898 1.89788
4254 1 5.66266 27.6434 -1.92546 -7.60275 -3.2539 -2.99577
4255 1 8.73964 27.2343 -2.87357 -1.67266 2.24023 -0.853659
4256 1 11.0144 25.7287 -3.85057 6.52582 5.20597 -0.540323
4265 1 4.48868 30.4594 -5.32909 -1.1698 0.470673 -2.05028
4266 1 5.96273 32.6807 -6.45086 1.44841 1.39737 0.711873
4267 1 8.61658 32.5764 -5.68191 -3.39436 0.694157 4.23837
4268 1 9.16775 30.2597 -7.08074 -5.22811 4.51279 1.24295
4269 1 3.99784 30.7708 -9.85749 1.65103 0.468546 -1.99208
4270 1 5.64572 32.8614 -9.1786 1.34596 2.81381 3.17224
4271 1 8.12211 32.9199 -10.2552 -2.65608 0.296123 -0.669843
4272 1 9.25957 30.4344 -9.8812 -4.77817 3.99728 5.04609
4277 1 4.47833 29.9505 -2.57085 -0.513819 -4.69385 4.34892
4278 1 5.83609 32.1999 -1.29559 -4.91406 -4.08843 -0.872715
4279 1 8.33246 32.2045 -2.94497 1.58765 5.01271 -4.68894
4280 1 9.29444 29.8266 -2.04681 -2.66967 -9.71578 0.379804
4289 1 4.47098 34.7986 -5.02746 0.605391 2.1945 5.36727
4290 1 5.89554 36.8698 -6.18725 -0.934725 -6.79438 -1.93862
4291 1 8.48896 37.1378 -5.47231 2.94859 -2.61925 -7.49039
4292 1 9.83047 34.8873 -6.83932 -1.83295 0.0945876 2.61617
4293 1 4.04072 35.0846 -9.24298 -3.26551 -1.27642 0.562382
4294 1 5.8034 37.3721 -8.962 1.61125 0.232502 3.34283
4295 1 8.08184 37.5085 -10.6622 -0.766655 -0.0251117 1.23373
4296 1 9.40286 35.2471 -9.59697 3.31403 0.271993 -0.701551
4301 1 4.61608 34.6127 -2.33221 1.6457 -1.59476 1.81408
4302 1 5.7495 36.8557 -1.63069 4.18284 -0.822632 -0.755695
4303 1 8.50006 36.9808 -2.60746 -0.810199 1.46425 5.45133
4304 1 9.14833 34.4279 -1.82277 2.14504 5.11533 1.52467
4313 1 4.64415 39.3566 -5.58764 -0.918868 -0.266674 -1.84323
4314 1 6.05928 41.7163 -6.2849 -1.08895 0.923415 -4.76763
4315 1 8.60765 42.2906 -5.51024 -5.86661 2.41575 -0.98217
4316 1 9.55545 39.8886 -6.71205 -2.15585 0.336861 1.33898
4317 1 4.19801 39.7483 -9.38148 -4.04289 3.175 0.899784
4318 1 5.41227 42.1213 -9.0529 -2.52438 4.55533 1.31746
4319 1 7.86925 42.0728 -10.3006 1.78859 0.403466 6.40364
4320 1 9.44791 39.7155 -9.43592 -1.57784 1.20778 4.10007
4325 1 4.60022 39.2878 -2.54421 -3.27536 2.58343 -0.0557371
4326 1 6.14216 41.292 -1.442 -1.27409 -0.0392963 3.16256
4327 1 8.97432 41.7904 -2.62376 5.02967 -0.11143 -0.78445
4328 1 9.87314 39.2176 -1.45104 0.792504 2.61241 -0.0921116
4337 1 4.50827 43.7982 -5.03861 -0.370446 0.768667 -0.913395
4338 1 5.11806 46.32 -5.86445 0.745333 -1.01636 1.83582
2802 1 5.44875 11.6527 -10.3657 -2.55445 1.25588 -4.93261
4340 1 9.48791 44.9784 -6.25306 -3.30073 -3.48959 1.2008
4341 1 3.87527 44.7901 -9.21836 3.52623 -2.82733 -1.81125
2603 1 22.428 17.4716 -5.13775 -0.68361 -2.53083 -0.408965
4343 1 9.9498 46.3665 -10.5996 -1.57745 3.94596 4.18231
4344 1 8.60956 44.6178 -9.05326 -1.94558 7.20507 -2.57244
4349 1 4.65685 43.6974 -2.29617 3.04171 -1.00171 0.57601
1506 1 15.0787 13.753 -0.288179 -6.70068 2.41615 2.75003
2351 1 16.656 12.192 -12.9216 -1.50586 2.54344 0.0238622
1507 1 23.4299 19.7306 -7.5427 0.838779 1.52587 -0.515004
2300 1 6.43896 11.891 -0.445598 1.11345 -0.348194 4.80661
920 1 0.273174 14.1244 -23.0691 -0.0436703 -1.29347 1.47144
1809 1 10.1464 20.6172 -0.895591 -1.82837 1.21117 0.152182
4339 1 7.66955 46.7083 -4.85381 -5.17534 0.175466 4.11944
1424 1 19.9175 11.9054 -9.16594 -0.291782 0.76072 -3.24137
1855 1 0.0737231 21.2766 -15.8027 1.0481 -1.76893 0.928621
3562 1 17.8351 12.872 -0.581866 0.82871 3.4738 -2.92361
3835 1 20.9688 46.5808 -3.41397 2.33025 -0.216669 -3.57657
2480 1 0.0281508 21.8598 -8.04745 -0.536419 0.832437 -0.0418632
1376 1 6.1366 11.8924 -7.37842 3.13647 0.891468 1.75112
68 1 0.0138267 13.5359 -20.3336 3.47647 -0.295993 -2.03358
1348 1 2.12883 11.7136 -16.9161 -4.06848 -2.6241 0.466886
2392 1 9.49007 46.4825 -15.1449 5.94958 6.35323 4.16985
722 1 8.12231 46.9896 -12.6356 2.81107 0.879338 -2.40323
2352 1 0.983036 22.3111 -22.9416 -0.422038 -0.693664 -0.709707
2074 1 -0.0715766 12.1796 -13.0373 -2.19238 -0.0268197 -3.15399
2963 1 23.1822 11.4562 -5.89174 1.0214 3.28315 -3.15751
2058 1 20.6596 11.3654 -14.877 2.37537 2.24424 6.06854
3453 1 13.5383 11.1618 -20.6067 3.98973 -1.43297 3.22202
2443 1 5.75296 11.6417 -21.2847 3.79526 -4.33106 -0.432714
1342 1 1.74882 47.0235 -15.4777 2.27619 -3.62624 -1.89375
307 1 11.2111 13.2235 -24.0196 4.80234 -2.155 -2.5732
978 1 3.02625 14.0856 -23.7002 -2.37249 -0.301172 1.96937
6 1 2.76813 17.9722 19.1758 -0.00787142 1.73187 -0.570663
7 1 6.58973 22.5922 8.50599 4.48626 -3.54359 0.0751454
18 1 20.9569 22.9636 1.64873 -2.11443 0.141329 -3.57917
25 1 6.8827 24.2199 15.4074 3.09228 -4.15946 0.241767
473 1 3.84619 12.2666 11.8813 2.5853 1.24093 -2.50641
49 1 22.8014 13.4548 3.35458 -1.74702 6.56849 3.38748
1333 1 0.624276 12.0081 6.68983 4.70217 3.49045 1.6958
103 1 18.541 24.1425 20.8532 2.29276 5.89543 -0.896675
123 1 11.4882 16.2619 7.4216 -4.12405 0.473258 -2.91005
138 1 11.6564 17.0549 4.71876 3.61161 1.6327 5.0008
147 1 7.97643 20.2642 5.81519 -1.00315 -2.10746 3.72061
175 1 8.61134 17.7147 4.75361 -0.215961 3.15768 -5.50953
185 1 20.4291 22.8991 16.0964 2.63266 -2.67225 -2.45562
202 1 11.5909 12.8273 9.74837 0.391609 3.52081 -1.22757
215 1 9.26346 23.1984 16.5123 5.54926 -0.736556 0.229539
217 1 3.55943 21.5662 8.82815 2.33768 -0.00320517 -1.56746
220 1 5.45879 20.7404 17.1422 3.33008 3.79216 -8.9322
227 1 16.1908 17.9477 3.99979 -2.57963 -3.01558 6.90291
262 1 18.5843 17.9386 9.82704 2.06859 4.16077 -5.1801
281 1 15.3627 21.1033 12.7935 -0.99372 -5.29791 1.01111
4348 1 10.495 43.0357 1.5958 -1.85794 4.78391 -2.81786
288 1 18.6761 24.3018 2.67714 4.9651 -0.711345 0.317158
310 1 1.22771 12.046 13.1655 -3.2939 -1.49269 2.64592
328 1 15.8325 19.432 15.2672 -5.36263 -1.02367 -1.14035
2756 1 21.3094 12.6903 19.7434 -0.197908 2.03856 1.77827
3930 1 14.1454 20.2548 0.766804 3.16546 -3.87495 -3.70988
418 1 20.6808 20.0987 5.49137 3.38514 1.01841 1.24262
435 1 1.46746 22.5685 7.30423 2.49618 -3.84926 -0.352672
443 1 18.7153 24.9154 15.2646 -1.97311 -4.37615 -0.428007
447 1 7.5381 19.6557 13.2191 -2.01655 -1.42666 0.0284347
3911 1 21.8138 18.5918 1.89888 2.811 -2.96353 -3.49973
457 1 8.22441 20.8928 17.9953 5.43893 -0.0146684 3.72329
4324 1 9.6806 38.8189 1.24177 1.30335 -0.198997 -1.779
463 1 5.85951 15.348 9.85214 -2.41301 3.96131 2.43909
4300 1 9.80149 34.2438 0.954406 1.51484 -5.17322 0.11576
487 1 2.58462 23.7016 17.9008 1.72477 -5.57639 3.21326
566 1 18.6571 15.6391 14.3156 0.640025 -2.02592 -3.71709
1845 1 21.0856 16.5892 23.7201 -1.53746 -1.56373 -0.666464
627 1 19.6368 14.4246 11.7853 -5.51108 2.79421 -4.3441
646 1 14.5683 24.2089 15.8477 -1.24737 6.62235 5.53776
2751 1 10.2761 46.3508 8.39746 -0.272235 -2.24635 -1.66729
671 1 20.5387 14.9294 3.64353 0.277352 4.42234 -0.676356
715 1 2.56221 17.7417 11.8856 1.87652 4.18131 -1.40149
725 1 2.34254 18.8081 23.3159 0.336896 1.78613 -2.47255
1108 1 15.2119 12.39 22.7499 -3.08852 1.43274 1.75158
4360 1 11.3696 42.9658 6.12628 -1.09383 0.595592 1.17712
762 1 4.65643 18.0622 21.3856 -1.74656 -1.25106 -1.25727
769 1 13.2885 24.0883 18.597 0.550842 2.72561 -1.91035
774 1 16.3687 17.11 13.2042 4.25413 2.81146 1.15245
805 1 9.96163 25.4187 23.3881 -0.932195 -4.60261 -4.11112
1319 1 13.8929 25.9698 0.30203 2.19258 1.1984 0.03637
820 1 1.7976 14.9646 8.38307 0.689964 -4.5387 2.27571
829 1 16.9534 15.0221 20.7473 0.281442 -2.5807 -1.1449
870 1 15.8411 19.9573 19.6881 -2.147 0.737831 2.75286
875 1 20.8342 13.8341 7.75109 -1.46758 -6.16696 1.81828
880 1 3.64246 15.1358 21.4176 -4.27908 -2.35776 6.38373
292 1 15.0983 11.3669 3.58622 5.2273 2.71741 -1.77874
927 1 7.89958 13.4709 19.1644 2.68739 1.35283 1.35223
936 1 8.91902 12.8417 11.413 -1.0109 -2.2076 -5.78328
937 1 1.06613 14.1933 20.3082 -7.12801 4.88216 2.64808
958 1 1.52625 15.3804 17.7244 -0.992091 1.014 -1.05131
980 1 4.74885 19.8431 10.78 -3.18761 1.10022 -2.10262
1726 1 16.3743 20.3101 22.7161 -1.63082 -0.0783414 2.53137
1019 1 5.96103 16.6316 4.98423 1.3467 1.89789 2.01342
1050 1 18.075 19.7284 18.2856 -1.04286 0.61535 -0.415562
1219 1 13.8883 11.3128 10.382 5.99424 1.44483 -0.506081
1097 1 16.6538 23.1505 14.3147 -0.25308 1.28184 2.94065
4357 1 5.77586 43.3281 5.27919 -1.8359 -1.82768 -6.31079
3230 1 22.993 12.4442 22.3756 5.0818 -2.81738 0.276287
2940 1 15.2429 17.6379 1.22535 -2.73391 -0.546007 0.0051926
2416 1 6.89283 12.8058 9.34431 -1.389 0.507197 -2.64128
1142 1 7.68969 13.9681 6.74752 -3.2362 1.69123 -0.218458
1145 1 2.58738 21.1714 21.494 3.16995 -2.05307 4.40866
1146 1 9.94671 17.44 19.794 -4.94834 -0.785294 1.50358
1170 1 3.37749 15.0147 10.9904 5.81293 -3.48292 2.65076
1184 1 5.98947 20.5889 22.5282 2.41646 -2.21289 6.90143
1189 1 12.1631 14.5735 3.68593 -2.37057 -0.938708 1.77097
1222 1 21.3188 22.0264 11.408 0.922789 1.49518 -0.567468
1234 1 13.9466 13.3762 5.53195 -4.53046 -2.17813 -1.34002
1235 1 11.5326 20.3671 1.79711 -0.901903 -0.466451 5.02877
1297 1 14.9574 14.049 15.5509 0.541029 -1.22042 0.935495
1313 1 16.7875 17.6562 22.1095 2.22878 -1.42493 -3.89525
658 1 19.162 12.0845 13.3197 -1.47043 2.04287 -2.11475
284 1 0.511545 15.3105 0.418856 3.26483 -1.92434 -2.80012
1352 1 7.05289 24.1436 19.9772 3.53059 2.46549 -0.141555
1362 1 19.51 21.7318 7.93249 4.2665 -5.67871 1.35071
1381 1 16.8807 15.3499 10.5501 -2.66569 -1.97605 0.455363
1414 1 6.56695 22.8286 5.47539 -0.521897 4.43853 -4.64912
1896 1 16.5735 24.2303 0.770506 -6.06167 -0.956805 1.04643
1468 1 18.5115 25.2897 18.0664 0.70174 -2.96311 1.6858
360 1 6.11419 15.9439 1.17214 0.574725 0.0991151 -3.59562
452 1 23.145 14.3282 0.617316 -1.10103 -3.77668 3.68051
1528 1 9.1694 14.0826 16.4127 2.25208 -3.60837 -3.20582
1530 1 17.0909 13.7067 6.03898 -0.248361 -7.14197 -0.185568
1533 1 12.7134 19.7534 12.3003 1.97806 -5.09114 -0.876451
1538 1 6.76398 15.4816 17.5032 -1.27815 -0.995086 -4.26507
1559 1 21.5 17.3206 4.86996 0.512062 -0.0228753 -0.837031
1569 1 7.22543 13.3383 2.17643 4.89356 -1.93993 2.03789
570 1 22.0758 13.2588 16.2641 1.38295 -1.76276 -2.55409
1598 1 2.07396 13.489 3.41339 2.88423 1.75627 -3.43627
1618 1 11.0967 15.9764 14.9474 1.55458 0.78162 0.959324
1619 1 14.452 12.6192 18.0458 -4.76481 -1.97487 -0.462834
4359 1 10.399 45.4734 5.34144 3.12168 1.34311 2.94186
1639 1 12.1988 13.6261 19.4048 -0.436847 3.19094 3.06764
1684 1 5.80894 15.6603 14.742 -1.92361 0.153845 4.13305
1713 1 21.8697 16.3031 12.0099 1.56368 1.14594 5.18899
1715 1 14.0769 21.4162 16.0425 -2.98214 2.29686 -1.36282
740 1 17.2184 11.6456 18.7876 1.37795 -0.102616 -1.62718
1740 1 3.05841 20.8363 18.6358 3.99465 -5.3628 -4.2703
1741 1 9.07243 14.9373 23.1487 4.07725 3.69519 -0.491082
1750 1 17.222 24.1098 11.5568 -6.46404 -3.63594 4.33608
1762 1 2.93108 20.4047 2.55956 -1.7055 -1.11333 2.36521
1767 1 10.5268 24.3129 18.7033 3.19791 -1.01242 4.02525
3836 1 20.5209 12.9855 -0.0371447 -2.38367 3.27281 -2.2056
1773 1 18.3186 15.6522 7.89643 -1.71728 1.19341 -5.1271
1797 1 1.77645 17.7958 16.3714 4.67042 -1.44424 1.5605
3818 1 11.3575 17.871 23.1695 0.238086 -0.508865 -1.01716
1821 1 19.513 25.6438 12.6658 2.157 -1.31776 2.88418
1829 1 2.2494 17.9176 5.12165 1.98316 2.28352 1.12231
1835 1 5.48487 23.6883 17.7713 1.67204 0.552352 0.440379
3460 1 0.532132 20.2586 17.2921 -2.3003 -4.77843 6.92485
1839 1 19.4168 24.0618 5.33903 -8.47205 -0.704733 -1.35498
1866 1 8.47478 22.1925 12.1536 -0.789675 7.18797 -2.48376
1884 1 15.6061 13.171 8.55131 0.429519 -2.82292 -1.97263
1886 1 20.5081 24.346 7.91476 4.72735 3.1359 0.532925
1922 1 9.83036 14.7845 20.4567 0.762214 0.00865539 -0.700383
1929 1 7.8372 18.2511 1.93352 -6.58676 1.94261 2.30942
1957 1 14.0442 15.9677 8.88223 1.92727 3.47862 4.33205
2146 1 3.60813 11.336 17.794 4.36594 -5.06705 1.60385
1988 1 5.27607 20.3036 6.76269 -7.10822 -0.279635 0.195371
1992 1 12.9384 23.2041 3.50065 2.03408 -3.02841 2.44369
1997 1 21.4295 24.9239 10.7498 1.95831 5.43005 -1.36617
3683 1 5.51868 11.6724 3.73557 4.4864 -0.0314837 -6.21554
2022 1 17.7234 24.8653 8.93176 -0.393741 -0.620285 -1.30283
2026 1 8.73996 21.1569 9.67058 0.658862 0.917896 -2.54384
2055 1 3.07236 17.2699 7.71163 -1.27505 -2.231 -3.09717
2084 1 14.3981 17.5626 20.424 -2.65258 -7.03574 2.66124
2088 1 8.39021 21.6136 20.8193 5.36283 -3.7545 -6.19608
2886 1 11.6388 24.1911 1.11937 -3.90559 4.2612 -6.91091
2134 1 12.8286 20.6146 8.14737 0.415135 -0.906032 -3.6371
1591 1 13.1354 12.5086 1.70934 -3.09973 -0.00767386 0.0521993
2177 1 18.8803 17.0883 18.1571 4.19821 -7.66284 1.67491
2197 1 16.168 22.7438 21.0587 1.49433 -1.95987 2.52565
2240 1 13.2365 17.8812 16.1055 -0.992094 -0.222885 -0.102308
2254 1 5.06866 20.1243 14.4308 -5.60013 -0.457668 1.10703
2281 1 18.0225 12.5453 21.7885 2.25417 2.37362 1.93046
2287 1 20.8605 17.2021 14.487 0.597752 -1.25828 0.365272
4356 1 11.4192 42.8382 8.86025 -0.507774 1.48412 -0.715818
3382 1 23.7624 13.1325 14.0745 -0.33701 -1.50881 3.34958
2304 1 8.60863 16.4985 7.68907 -4.69276 3.60376 -1.60908
2309 1 19.6661 16.5572 20.9931 3.21232 -1.57233 0.341203
2343 1 9.40033 22.4762 2.0014 1.42505 1.47373 -2.47546
2344 1 14.5388 25.5929 5.11375 -3.31758 1.78349 -1.71134
2360 1 13.9957 18.4821 5.33146 -0.705666 1.5736 1.91363
2367 1 7.50281 18.6576 10.4626 -2.07403 -0.204133 2.67588
4355 1 12.6076 45.2057 9.52982 1.15397 -3.19271 0.990149
2375 1 10.575 22.8751 14.0776 0.758036 -4.67687 -3.60366
2388 1 9.08656 25.8182 20.7771 -3.17556 2.91101 1.02892
2395 1 5.74852 18.1408 18.3981 -3.0064 -0.748352 -1.14653
2272 1 0.369228 14.0265 10.7844 -3.07591 6.59318 0.474555
2412 1 9.63633 18.5222 14.8624 1.33524 6.88677 -2.02053
3251 1 -0.164604 18.6413 11.5681 6.87288 8.20323 -2.26207
2423 1 12.1256 20.8729 4.84108 2.39097 2.40265 0.029736
2444 1 13.3424 21.1562 18.8781 -0.0776754 2.80044 -5.18065
2456 1 19.2769 19.2825 22.2454 -0.100554 0.239875 -0.843346
4354 1 7.39248 45.8384 8.68212 -0.859143 0.957903 0.714301
2770 1 20.8326 11.5097 2.46887 1.50456 -1.08431 2.17882
2500 1 10.1837 21.7588 7.1253 1.48275 -0.234249 2.13356
2501 1 5.06744 13.9058 5.41267 -3.2372 -2.62079 -4.34806
2993 1 21.4645 17.2321 17.3223 -5.05496 -2.27956 -0.219397
2553 1 1.07651 24.2734 15.5397 0.495062 2.51856 4.47049
2565 1 13.5387 17.2744 13.4142 -2.93413 0.185966 -3.47503
3304 1 -0.0173413 17.3098 14.3253 3.36867 -2.43635 -5.74421
2576 1 21.7585 21.4759 13.955 -0.181234 -1.98917 2.10917
2582 1 13.6691 23.2889 8.72805 -2.19819 1.14125 -4.41865
4358 1 7.52457 45.4807 5.97765 2.46257 0.171366 -3.11048
2600 1 4.85698 22.1571 1.10125 2.72517 -2.77472 -3.01984
2606 1 15.0091 15.6279 18.2807 -0.946036 0.49207 -1.88539
2627 1 15.8079 24.0843 6.96671 4.28861 0.581717 -3.02944
2631 1 18.0449 16.5948 1.08738 -1.56302 -1.98519 -3.51386
2671 1 11.0753 21.967 20.6356 -0.759276 1.89217 1.08646
2712 1 17.7616 15.4397 3.78354 6.52253 -0.719408 0.585887
2716 1 16.832 13.3347 2.08715 4.65601 0.299735 -1.48792
2717 1 11.0142 19.6473 10.1512 -3.79971 -0.0153713 -1.32478
2736 1 13.9238 15.0392 21.63 -0.272542 -2.35536 3.1512
379 1 21.9024 22.8479 4.47297 -3.00089 -0.0236018 3.91217
2773 1 9.1107 23.4642 4.79654 -7.25336 -6.1886 -0.285712
2779 1 19.2436 13.2086 15.9658 1.02965 1.38763 2.27519
2781 1 14.5687 23.3829 11.3005 3.28514 -4.80173 -1.33361
2801 1 2.08026 19.2028 9.4777 -2.59768 -0.616054 -6.16922
2824 1 8.08788 12.8322 14.0404 4.45657 6.49237 -3.44213
2844 1 22.3976 16.4778 7.4031 0.362728 1.46077 -1.77414
4353 1 6.48341 43.3284 10.3091 -4.04914 0.0121604 2.9666
2879 1 2.18259 17.82 1.5618 0.453906 5.88506 -0.308797
1939 1 10.4867 11.8891 1.11796 3.21502 0.903014 -1.26858
1474 1 2.78168 23.4279 23.335 0.562515 -0.149091 -0.344135
2932 1 8.70247 18.1195 17.3669 -3.91922 -0.321791 -0.50708
3641 1 4.39758 14.2994 18.5198 -1.52894 3.54595 2.79572
3001 1 11.5103 13.4894 7.13224 0.977852 0.605438 1.41324
3003 1 16.4527 12.5223 11.2877 4.96105 1.54534 -2.42316
3035 1 18.6386 17.8079 5.75385 -5.64849 1.52165 3.78812
3036 1 12.1624 19.2363 20.9305 0.206687 -0.0770884 -0.370565
3047 1 4.85234 19.2833 4.3076 -4.5858 -3.07412 -2.68935
3086 1 15.368 22.2414 2.61919 1.46601 -1.71998 -1.50508
3123 1 14.6579 14.7473 12.6809 -4.70027 -3.30704 -2.33571
3154 1 6.93129 21.0513 2.76552 1.78307 5.05862 -2.20383
3170 1 5.45329 23.4208 22.054 5.56849 -3.16517 -0.440379
3173 1 9.9535 17.2214 10.1305 -2.79433 -2.80364 1.75551
3178 1 17.72 19.3984 12.0898 -4.1204 4.77108 -2.20452
3236 1 18.5818 21.6618 10.563 -3.76052 -3.13316 -0.376608
3243 1 7.49944 18.7693 20.7886 -1.09782 -4.31059 -0.896803
458 1 22.3232 19.4494 18.8423 3.52424 0.300369 -0.000187218
3253 1 10.71 17.4152 1.97427 -1.56025 -4.32483 3.62601
3259 1 17.2175 20.5189 3.78022 5.17479 -1.4306 -0.95001
3280 1 9.37389 15.4679 12.3386 -1.99678 -6.69688 2.58027
2908 1 1.52658 11.4564 15.9485 0.070149 -2.12431 -2.88012
3310 1 17.3157 22.0113 6.08217 2.87446 1.388 -4.92059
3338 1 11.624 20.402 14.9398 1.41907 3.53039 0.00200638
3352 1 3.63669 15.8377 3.22309 -0.69324 -6.35031 -2.48882
3380 1 1.14752 16.9075 21.555 0.0371713 -3.04897 0.0878873
3418 1 19.7175 19.626 14.2298 -0.592041 2.25048 -3.62189
3457 1 18.8279 14.1448 18.489 4.81202 1.31763 -2.26625
3467 1 12.3364 13.1015 14.8866 -5.23254 -1.78672 -0.671244
3476 1 1.45049 15.2043 13.2774 -2.68229 1.13581 -2.79725
383 1 11.7372 46.0437 12.1615 -2.8896 1.01358 -3.22514
2920 1 23.2254 13.9321 5.99216 -1.1906 1.7057 -1.61388
3486 1 16.0947 23.9372 18.2574 -1.66645 -0.751694 -2.92534
3493 1 2.94747 14.0777 15.6278 -2.71989 0.447215 -1.43039
3537 1 20.9819 23.6712 18.9831 2.32756 1.84483 -3.48299
3545 1 3.71871 17.7012 14.6949 -0.80329 1.4443 -1.8723
3552 1 14.6314 18.5273 8.0915 3.32291 0.625947 -6.81912
3570 1 11.9678 23.4878 22.7374 -1.18922 2.36549 -5.76667
3571 1 1.7913 22.8118 10.4777 1.8413 -5.38002 1.55558
3602 1 1.42665 25.4814 22.066 3.70394 3.87416 -0.587802
3605 1 18.1118 21.0965 15.9343 -5.76539 1.30676 -1.90601
3613 1 1.241 22.5116 13.2678 -5.29212 -1.03596 1.46677
3615 1 1.06441 22.6739 2.26401 -4.41188 4.69834 0.470236
497 1 8.61508 17.6365 23.3502 0.990414 -2.2353 -3.08307
2450 1 5.58455 12.9066 20.7517 4.51959 0.735618 0.722667
3522 1 20.3041 14.1175 22.254 0.385102 -4.6261 1.68089
3664 1 6.75672 16.7823 12.425 -1.26094 -5.41065 1.08629
1469 1 19.673 12.5219 5.1821 3.47558 4.52137 -0.521686
3713 1 1.84626 20.8725 5.16182 -1.38865 2.0075 0.861201
3715 1 20.1551 20.7786 19.8486 -3.47348 -0.578806 -0.159073
3720 1 16.703 16.6023 16.266 -2.22794 -0.699534 -1.21451
3732 1 17.3468 19.4918 7.74923 -1.43147 -0.75435 5.268
1115 1 22.0576 19.4987 22.859 -6.18206 2.61053 -1.45815
3760 1 15.6516 26.367 2.50602 -5.66073 -2.20053 -0.860187
3783 1 19.8908 20.5013 2.71176 -0.509049 -2.4048 1.62749
3788 1 5.92327 17.6354 8.11495 -0.899752 2.28414 0.919849
3795 1 14.0145 24.4677 21.2362 1.89107 0.902828 -5.78674
3804 1 12.2364 15.4598 11.1847 -2.36442 1.69971 1.47113
1133 1 10.9682 11.9681 17.3058 1.81759 -2.4573 -2.59958
3819 1 4.01935 22.0779 12.6023 1.87612 4.15109 0.635374
819 1 11.8916 11.9682 21.7442 -5.79024 5.57251 1.73579
3837 1 9.71758 13.4405 3.40214 0.684331 0.361613 2.00172
3859 1 21.4786 17.6969 9.78998 2.07939 -4.01018 -2.92557
3885 1 12.9759 23.9838 13.5044 2.7272 3.88641 2.14031
633 1 7.1659 11.3056 22.8707 -0.190154 0.21025 -1.34798
3897 1 6.22097 14.3406 23.1397 -2.25642 -2.95882 2.39053
399 1 13.0671 15.5243 1.20048 -0.536939 -1.23115 -1.42799
3974 1 6.2277 23.8365 12.7126 2.26432 -4.13221 2.23845
3987 1 11.9082 16.0257 17.81 3.48326 2.93841 -1.8521
4131 1 1.15809 27.7498 2.52622 -1.37669 0.78824 4.01375
4132 1 2.069 25.2524 1.37556 3.33043 -0.522569 -2.47038
4139 1 2.22229 27.4694 10.2907 -3.88942 0.953068 -1.55901
4140 1 3.13735 25.2729 9.19698 2.21141 -1.329 0.0298325
4143 1 1.18155 27.3155 5.24152 -3.89983 -2.31052 2.22566
4144 1 2.63533 25.0252 6.35808 -3.9489 -8.16754 -0.49468
4155 1 0.992999 32.076 2.54912 -0.10026 4.07175 0.506531
4156 1 2.39552 30.0121 1.41709 0.484856 -5.20973 -3.90581
4163 1 1.80772 31.6585 9.96171 1.2598 -0.39994 -3.20927
4164 1 3.17706 29.5995 8.89086 -2.12436 1.60866 -2.48461
4167 1 1.261 31.9586 5.39689 1.46649 -2.09969 0.972207
4168 1 2.66907 29.7013 6.17593 1.57571 2.47623 2.81335
4179 1 1.05193 36.4791 2.91729 -0.752508 -1.12644 1.15297
4180 1 2.51238 34.1455 2.00455 -4.14514 4.32613 -0.130643
4187 1 1.75073 36.3898 9.43597 0.111418 1.97269 2.3566
4188 1 2.90628 33.9869 9.19282 -2.51683 6.03484 3.63025
4191 1 1.42879 36.5071 5.61789 1.35927 0.804504 -1.9786
4192 1 2.92186 34.0721 6.27558 -3.59002 -0.511249 0.847966
4203 1 1.34175 41.0353 3.09314 1.29393 -1.63529 3.45059
4204 1 2.29142 38.6965 1.71009 -2.2379 -4.86292 -2.51459
4211 1 2.1223 41.0247 9.8076 2.16769 1.3807 0.910137
4212 1 3.32971 38.658 9.12019 2.46805 -4.81108 -1.62053
4215 1 1.80003 41.1053 5.76898 -3.75773 -0.395787 -0.907711
4216 1 3.07558 38.6309 6.35846 -1.24849 -2.66283 1.8831
4227 1 1.61717 45.6554 2.74464 -2.96888 0.783384 -3.62471
4228 1 2.54829 43.2766 1.84906 -4.29735 -0.890288 -0.0336477
4235 1 2.26062 45.0918 10.9315 -1.13214 -1.055 4.0193
4236 1 3.55446 43.2874 9.5237 -1.03124 -3.64996 -7.23463
4239 1 1.7219 45.3826 5.57728 3.91389 -3.91781 4.7875
4240 1 3.37455 43.2266 6.547 3.17807 2.32224 -4.09641
4249 1 4.69797 24.8872 2.10599 -8.10107 -4.34418 2.82631
4250 1 5.71589 27.0765 0.81208 1.35839 0.483978 1.85845
4251 1 8.33095 27.2734 1.38292 3.65629 -1.38253 -2.24503
3484 1 3.32197 12.8068 7.40361 -2.0191 -3.53148 -0.449811
4257 1 5.8818 24.8631 9.89069 3.3654 -0.755533 1.50789
4258 1 7.10782 26.885 8.50383 -3.37117 -3.53195 0.614914
4259 1 9.65313 26.5535 9.35492 -0.409504 1.14136 -1.62125
4260 1 11.2172 24.3628 8.06087 -1.30169 4.71947 -2.21739
4261 1 5.13816 25.1622 4.862 6.66767 -3.64626 3.03845
4262 1 6.96768 27.2439 5.7018 -2.28732 -0.936616 3.17327
4263 1 9.09274 26.3873 3.95189 1.86515 -2.11871 -1.22007
4264 1 11.405 25.2226 5.25892 0.323828 0.83066 -4.65855
4273 1 5.05826 29.7366 1.98732 3.14934 -4.04897 -0.858391
4274 1 6.54433 31.9484 1.24578 2.16403 -3.04425 2.64937
4275 1 9.22881 31.6593 1.76603 -1.691 0.4831 -6.22578
2887 1 22.4299 16.7034 20.0556 -1.66391 -0.00883418 -0.82865
4281 1 5.88679 29.3241 9.37454 -0.349448 -1.19538 -1.02723
4282 1 6.98695 31.8982 8.85013 -3.71879 0.49684 -2.88344
4283 1 9.67931 31.2659 9.39567 -5.02103 0.732872 -0.910067
4284 1 9.94402 28.878 7.97991 -0.625365 -0.499478 2.95318
4285 1 5.27862 29.635 4.909 4.60675 -4.34059 2.25633
4286 1 6.5854 31.9099 6.1092 2.85965 1.11668 1.35653
4287 1 9.00672 31.7034 4.66873 0.124135 -2.48688 -1.82547
4288 1 9.11288 28.9509 5.26955 -2.32676 2.9882 1.08298
4297 1 5.26227 34.2828 2.38653 -0.657331 0.304058 -3.8134
4298 1 6.09401 36.7497 1.13387 1.86901 3.32826 1.33809
4299 1 8.61255 36.5296 2.13193 1.21304 -4.25558 2.38814
2209 1 21.6074 22.397 21.6226 -0.237444 -1.78576 -2.68874
4305 1 5.54907 34.1136 9.96165 0.25158 -2.27196 0.187088
4306 1 6.85317 36.327 9.18839 -0.972265 -0.292943 -1.82056
4307 1 9.77103 36.2782 9.16088 3.73563 -1.1563 2.98118
4308 1 10.6162 33.6938 8.64847 0.595618 -4.99696 2.42058
4309 1 5.49539 34.3301 5.16763 -2.15559 0.67208 1.28957
4310 1 6.6523 36.5265 6.26561 1.68396 -1.58923 -1.1599
4311 1 9.49126 36.2573 5.15693 -0.624706 -2.11627 1.38904
4312 1 10.5762 33.7606 5.96489 1.07738 -1.65694 0.612349
4321 1 5.0784 38.714 2.51711 0.727568 1.49506 5.52057
4322 1 6.04642 41.1584 1.50622 6.70246 0.156058 1.25623
4323 1 8.80726 40.9708 2.429 0.105128 2.54011 -4.11378
1838 1 18.6777 19.1292 0.451426 -2.08621 1.65066 1.77806
4329 1 6.01497 38.8619 10.0255 0.811278 -3.06969 -0.657874
4330 1 7.36003 41.0193 8.9883 0.990687 0.2086 0.208429
4331 1 10.0445 40.5427 9.61837 -0.248021 3.02626 -0.743054
4332 1 11.549 38.4286 8.76203 -0.717242 -1.12599 -5.82042
4333 1 5.40752 38.8843 5.203 1.17489 -3.05961 -1.83602
4334 1 6.89887 40.9997 6.17674 1.64183 -1.64317 -1.7767
4335 1 9.68034 40.93 5.13829 7.58566 2.83615 0.355196
4336 1 10.9492 38.4816 5.97246 -1.97114 0.567208 -5.69647
4345 1 5.26146 43.3922 2.65026 1.89865 0.337748 1.46385
4346 1 6.74307 45.436 1.33377 -3.3235 1.30447 -1.08597
4347 1 9.33248 45.3518 2.71396 3.22064 -2.73703 3.85138
1854 1 3.95572 46.9495 11.9839 -0.546883 3.50677 -4.89494
1823 1 6.76927 45.8977 11.5005 0.70964 -1.94769 2.04478
72 1 23.7193 14.5396 18.3228 4.59879 -1.66476 0.958527
1925 1 22.093 46.8474 19.2151 -1.41443 3.34284 0.349507
2819 1 16.4135 12.0507 14.2189 2.35753 -0.643147 -6.71034
4276 1 10.1881 29.3196 0.563385 3.52873 0.433428 -5.0806
1984 1 0.0204766 18.7353 19.6906 -1.84684 1.62034 0.572146
801 1 20.7402 16.023 0.808282 0.311778 3.2765 5.24661
2409 1 5.06022 12.71 14.4037 0.0335905 0.910817 2.45583
2967 1 -0.191885 11.4603 9.22542 0.0784459 -2.20523 3.86076
2575 1 -0.126741 17.0797 3.36591 1.71112 4.35668 0.645679
2019 1 0.58189 24.1036 19.7157 -6.19566 0.0715967 -1.81929
2865 1 2.32133 12.0927 0.95219 -1.65501 -6.56849 -4.41513
84 1 19.5991 23.5612 23.3505 -2.53513 -0.10205 1.78327
3658 1 21.8942 11.4148 12.6571 -3.50038 3.68971 0.867629
180 1 22.084 20.4433 9.11428 -3.88685 2.3523 4.99441
3334 1 22.8647 21.32 16.7702 -0.0154446 -0.864931 -3.75505
1759 1 21.0539 12.0238 9.96786 -0.873041 4.17107 -1.19353
894 1 2.33402 11.5585 20.216 3.07391 -3.14856 2.63425
3684 1 12.7272 15.5504 24.0672 1.66282 1.7302 6.4012
2291 1 -0.31616 21.3551 21.0905 -2.42783 -0.609049 0.831591
2235 1 9.23125 45.6868 12.9617 -2.85045 -1.24256 2.10211
1004 1 23.4072 24.8434 8.64983 -0.467143 -0.830493 1.50975
1328 1 9.51664 11.9354 5.8602 -1.77542 1.69071 1.99287
203 1 23.2055 20.1738 6.64435 2.05698 1.3774 4.13612
1769 1 23.5533 15.8186 15.5109 1.1303 -2.39184 -2.62659
4234 1 -0.136976 46.0207 10.0525 -3.92298 -4.81092 0.778296
2415 1 22.8129 46.5581 23.9545 3.64003 -2.39962 -3.76997
1430 1 0.0876791 19.0101 6.90659 -2.10902 -0.805011 5.86456
794 1 4.47574 16.7703 24.0245 1.21847 -2.49674 0.965351
3815 1 -0.100106 20.1725 23.926 -1.08434 -1.44401 0.832848
